108
#Comment!
LJ          -4.85435        -1.66688        -6.04515
LJ          -2.50597         3.08519        -2.08395
LJ          -2.10773        -4.87755         5.87823
LJ           1.72815         2.91967        -4.15191
LJ          -1.25698        -5.23437        -2.47617
LJ           3.76575         5.90398          4.1609
LJ          0.744756         3.30753         3.46173
LJ           5.30107        -3.54907         6.35485
LJ           2.10052        -1.20064          4.3028
LJ            2.8486         -3.9817         -3.1923
LJ           0.22109        -1.94006         4.60337
LJ           4.60248         1.27931        -1.73137
LJ           5.52363        -3.44492         2.87718
LJ         -0.292056        -2.40395       -0.258603
LJ           1.56208         2.89138        -1.89628
LJ           1.89912        -3.14752          3.8682
LJ           6.43173         -5.6776        0.448961
LJ          -2.23424         1.32173         6.04676
LJ           1.21149         3.58074         6.04172
LJ          0.252462         2.27355        -1.23917
LJ           2.25641        -2.35331         5.47536
LJ          -1.92602        0.573206        -5.03721
LJ           5.14104        0.578375        0.954225
LJ          -5.03008       -0.513574        -6.18438
LJ           2.71594        -2.78322        -2.86581
LJ            2.5751         6.07317       -0.900808
LJ           1.36334         4.92459         3.93489
LJ           1.36381         2.05681         5.76884
LJ           4.19917        -5.10678         5.91102
LJ           4.58001         2.16214        -1.44487
LJ          -4.63485        -6.30658        -2.49369
LJ           2.99466        -4.29598         5.39869
LJ           5.36052        -3.33012       0.0926032
LJ           5.24808         5.78305       -0.285934
LJ          0.985362         5.36609        -6.35116
LJ          0.973785        -5.96141       -0.272536
LJ          0.593285        -4.80996        -6.34183
LJ          -2.76077         1.21587        -2.17732
LJ           3.41972        -3.08006         5.33679
LJ          -2.37246        -2.01774         5.93665
LJ          -4.00126        -4.35215          5.8619
LJ           6.36922         1.21224         2.07107
LJ            3.0395        -1.72631        -4.96782
LJ          0.871483        -3.20067         5.62559
LJ          -3.59516         1.62677        -1.32682
LJ          -2.76971        -6.02941        -3.81152
LJ          -3.96222         4.84617         -4.4511
LJ           -3.0961        -1.17089        0.572166
LJ          0.162866         6.07947        -0.91491
LJ           1.77609        0.447793        -5.73526
LJ          -1.57977      -0.0511161         4.96215
LJ           2.00058        -4.69721        -4.05489
LJ           4.03225         0.72226         1.30361
LJ          -1.51932         5.51737         2.05622
LJ          -3.37593         3.97627       -0.921597
LJ          -2.99143      -0.0478224         5.03294
LJ          -3.32133         -4.6335         3.73765
LJ          -2.22045        -1.82198        -2.72377
LJ           1.27077        -6.08892        -2.77176
LJ           1.62335         4.58412         2.66681
LJ          -4.94779         4.08724        0.367945
LJ            3.7119        -3.24713       -0.631122
LJ          -3.67721         4.03863          3.2614
LJ          -3.14582        -1.45431        -4.40647
LJ          -3.89841        -2.93531        -3.78563
LJ          -2.99531         3.08787       -0.220441
LJ          -4.19224        -2.63431          2.4047
LJ          -4.59372         4.21787         2.67274
LJ            5.3091        0.412222       -0.296543
LJ          -4.94816         3.60493        -3.04733
LJ          -1.56995         1.08662         4.55787
LJ          -5.38784         5.32891       0.0676673
LJ          -5.85876        -2.87574       0.0808535
LJ           2.81911        -2.18567        -1.24138
LJ          -3.19006        -2.76933        0.834475
LJ          -2.04788        -3.83476        -3.98019
LJ          -6.17806       0.0687732         2.68078
LJ           4.22468        -4.00242       0.0991515
LJ         -0.574567         2.88327       -0.818067
LJ           5.15716        0.795196         4.25739
LJ           1.78765        -1.34829       -0.863202
LJ           6.45274         2.90134         3.47501
LJ         -0.661882          2.8339         4.91653
LJ          -4.08871        -2.19356         6.25723
LJ          -3.80035         3.10089        -1.69275
LJ           6.21432          3.4936        0.237835
LJ           1.29218       -0.560471         6.17245
LJ          -1.61174         6.20253        -2.02179
LJ           4.79277         2.50954        -6.09651
LJ           4.49795        -2.46167        0.839919
LJ          -5.77404        -5.99758         4.02004
LJ          -6.03642        -1.04103        -5.80248
LJ           -1.1493         3.64263        -2.74088
LJ            2.7484        -4.06393        0.480594
LJ          0.372924         5.79192         3.84634
LJ           3.32534       -0.560016        0.156711
LJ          -3.98469        -6.25266         5.27347
LJ          -3.00245         4.89255          2.1939
LJ          -4.36912         -6.0009        -5.34348
LJ           2.42588         2.34352         5.44742
LJ          -4.55075        0.980281        -5.54551
LJ          -3.59731        0.658086        -4.46209
LJ          0.226349       -0.462427         1.15027
LJ          -3.40486         1.92878        -4.79905
LJ         -0.766142       -0.902012        -1.00938
LJ          -1.43426        0.121883       -0.719788
LJ         -0.569176       -0.896315         3.63656
LJ          -2.70151         2.48967        -3.13584
