108
#Comment!
LJ          -6.45573         5.65355        0.310786
LJ           1.44318        -2.00187         4.50795
LJ           1.49547         3.10634         1.32218
LJ           2.35907      -0.0132621        -5.47332
LJ          0.640041        -4.07181         1.29684
LJ           3.49814          4.4961          5.1426
LJ          -4.42268         3.20634         2.57879
LJ           2.12293        -2.47921         3.60228
LJ           2.06445       -0.722594       -0.631873
LJ           3.39153        -1.44378         4.23099
LJ         -0.264529         -6.3686          -3.256
LJ           5.89685         5.29383         3.27988
LJ          -1.40929         2.78546         4.56317
LJ          -4.05155        -1.75381        -4.94551
LJ          0.133453         4.03064         4.34327
LJ           5.02522           3.276        -4.09366
LJ          -1.77266        -2.23235        -5.72098
LJ           5.13705        -2.98982        -1.88324
LJ           5.23885         3.93629         3.21943
LJ           1.70401        -5.07843         6.20759
LJ           3.86925        -2.31121        0.577696
LJ           5.90791        -1.90854        -4.12809
LJ           3.98162         1.22868         3.92152
LJ          0.055585         1.97931        0.367986
LJ          -2.13585         2.98897        -5.91866
LJ          -6.21763         3.55585         3.85192
LJ           6.40895         5.17775        -6.06219
LJ         -0.993976         1.38949         -5.4879
LJ           5.17755         5.74221         5.66599
LJ          -1.74127        -5.02371         5.21805
LJ           3.84844       -0.721431       0.0991125
LJ           4.89702        -2.51911         2.06857
LJ            0.6137        -4.85897         5.94323
LJ           4.38995         5.11784         4.39886
LJ           4.17284        -4.45774        -2.07897
LJ          -1.49448        -3.97305        -3.24372
LJ         -0.816496       -0.842134         5.25374
LJ           5.38665        -3.18148         2.92983
LJ           1.62049        -5.02556       -0.364683
LJ         -0.570454        -4.55007         3.69188
LJ          -2.61239         1.04031         4.03344
LJ          -5.35994        0.310487         2.47499
LJ           5.08846        -2.44445       -0.460518
LJ           5.25801        -5.93287         3.89544
LJ          -3.12085         5.85139         5.34824
LJ           4.23578         4.20511         1.07293
LJ            -5.924         1.04712        -4.86186
LJ           4.27505        -5.53204         1.37419
LJ         -0.354014        -1.30373         1.68911
LJ            4.1492         5.03716       -0.693911
LJ           2.80481        -1.75349        0.471381
LJ          -3.10644        -2.67326         2.49562
LJ           1.29238         5.76113         3.90145
LJ           2.55852        -1.98538          1.5151
LJ          -3.91815        -6.40085       -0.859176
LJ          -4.04339        -2.79877         5.39608
LJ          -5.41445         3.82774         5.19181
LJ          -2.62487         1.19831         1.72459
LJ           -3.2918         1.37726        -5.21877
LJ            -6.051          5.4607         6.02893
LJ          -1.63151        -2.03481         5.48635
LJ           5.32789          5.7742        0.354327
LJ           2.97001         6.31593         5.17241
LJ           3.03464         1.51058         5.82814
LJ            5.2071         6.35382         2.85347
LJ           -1.3636        -5.36801        -5.02069
LJ          0.794081        -3.66652        -5.52352
LJ          -1.65589        -3.27216         2.93868
LJ          -3.22269          1.5405         5.67501
LJ          0.186697         5.55083         4.25149
LJ         -0.594394        -2.96613        -5.30121
LJ          -5.75403        -0.34866         5.32048
LJ          -3.58155         3.19539         3.14063
LJ           3.10062        -3.47147         4.79305
LJ          -2.28477       -0.871453        -5.87074
LJ          0.446463         5.51443         2.52683
LJ          0.933214        -2.15229        -5.86508
LJ           1.62309         6.15323         2.44855
LJ            2.5555        -2.05535        -2.20704
LJ          -6.03849        -0.82333       -0.676027
LJ           4.03744         6.08073        0.040933
LJ          -1.99251         4.61126         4.07067
LJ           3.99261         1.05174        0.239823
LJ          -5.24107         2.47332        -4.69251
LJ          -5.06733       -0.989723        -5.21754
LJ           3.79849        -5.82749         5.73924
LJ           3.67709         5.94883         4.46915
LJ          -4.44189         4.60939         -3.7312
LJ           6.05879      -0.0519286         1.03259
LJ           2.58961        -1.42967        -1.42605
LJ           3.57807        -4.63339        0.271384
LJ           4.76471        0.339962         3.07117
LJ           3.59468         4.60951        -1.96606
LJ           1.51765        -4.44327        -5.87988
LJ            2.1667        -2.42378        -5.49135
LJ          0.316648         2.11866          1.5871
LJ          -5.02465        -5.38563         1.55147
LJ          -2.48875        -1.71035        -3.96453
LJ          -3.48234         6.35964        -2.69746
LJ            2.3782        -4.13307         2.03669
LJ          -4.31447        -5.59129        0.604297
LJ          -1.28423        -3.68251          3.7861
LJ          0.571586       -0.341753        -1.75255
LJ           2.70068        -6.45896         3.81013
LJ           2.90759        -4.58711        -6.43699
LJ           4.47924        -3.86557         2.34772
LJ          -1.60759        -4.35013         2.20795
LJ           4.29923        -5.07458        -6.01729
