108
#Comment!
LJ          -3.32333        -2.12176        -2.51983
LJ          -1.25054        -2.41494        -3.47933
LJ           1.71903         2.00914        -1.44812
LJ           5.04894         5.77782        0.525453
LJ           5.91277        -2.87473        -3.79831
LJ          -5.09561        -2.86039        -3.82006
LJ           1.62955         2.32219        -2.74132
LJ          -2.43354         3.41296        -4.54097
LJ          -1.34406        -1.04115        -5.40224
LJ            6.2023         3.61353        -6.13379
LJ           5.25319        -1.25115         2.04055
LJ             2.239         4.93638        -1.23336
LJ           4.56484       -0.188247          1.0745
LJ          -1.66781        -2.66168        -4.47469
LJ            4.7281         5.07521         2.76569
LJ           5.07293        0.866416        -1.31465
LJ          -4.67822        -5.37396         1.39578
LJ         -0.955395         5.65243         5.76027
LJ          0.204937      -0.0800929          3.8699
LJ           5.79639         4.06093         3.14264
LJ          -4.27257        -2.93392         4.58094
LJ         -0.806461        -6.43478         5.24144
LJ          0.614538         4.92895         4.93083
LJ         -0.552528        0.398019        -2.80757
LJ          -4.06739         6.32323        -1.12158
LJ           1.25961        -1.77371         3.61935
LJ        -0.0769877         6.16185        -1.20323
LJ          0.926516        -5.68687         0.49438
LJ           6.40629        -2.92398         3.40119
LJ           5.89964        -6.17485        -5.00635
LJ           3.87615       0.0535529        -1.50779
LJ          -6.03725        -2.67984         6.17082
LJ          -4.83702         1.03046        -3.02698
LJ           2.23473         4.58039         1.77332
LJ         -0.485967         -1.2247        -3.74313
LJ          -3.69194        -1.58196         5.51386
LJ           2.21114        -3.86761         1.94523
LJ            2.2223         3.34795        -4.26318
LJ          0.945352         3.38039        -3.99072
LJ           4.22596         2.56348        -4.81271
LJ           -1.0898           3.116         5.65335
LJ          0.819424        0.245341         6.22825
LJ           4.10488        -2.23987        -4.78737
LJ           3.19848        -2.66622         6.33438
LJ           1.71197        -5.32229         5.55089
LJ          -1.50269         4.96677        -1.30109
LJ          -4.11931         5.70789         6.10025
LJ             5.749       -0.430549       -0.666366
LJ          -2.36649        -6.19653         1.89989
LJ           2.65409         5.56457     -0.00905301
LJ          -4.90855        -3.51552        -1.22911
LJ          -4.53184        0.931624        -5.11007
LJ           4.71654         5.75653        -5.14434
LJ           5.64663        -4.13945        -3.34399
LJ          -1.61859         2.64912         2.03167
LJ            4.4222        -2.40206        -2.81468
LJ          -5.82726         3.60293         1.26539
LJ          -3.49591       -0.404723         -4.1026
LJ           5.60796         -4.5208         4.80143
LJ          -5.58119         3.04197         2.79057
LJ           6.43808        -4.52239        0.645486
LJ           2.44829        -4.57518        -4.89109
LJ           2.06296       -0.518854         6.02911
LJ           3.60266        -1.85241         1.86865
LJ           5.29834        -2.95995         5.55512
LJ          -1.00717        -4.65755         5.74987
LJ           2.87393        -2.72124        0.433932
LJ           2.65335        -1.89981         5.66037
LJ          -5.78456        -1.58042         -3.5628
LJ           4.10735         4.16541        -5.06248
LJ          -4.54316         3.59354         2.87563
LJ          -3.80982        -6.08443         3.25087
LJ          -5.10137       -0.290679        -6.23139
LJ          0.786429        -3.24712         4.64833
LJ          -1.15958        -3.40299         4.02329
LJ            1.8918        -2.77401        -3.65274
LJ          -5.59445        -3.24625         3.89281
LJ           5.78234        -5.67068         5.31008
LJ          -3.14251        -3.99706         5.76088
LJ          -5.17878        -3.04498         4.94129
LJ          -5.09967        -5.40501         2.90776
LJ          -4.09271        -6.10256        -2.92369
LJ           2.40578         2.97351         2.04026
LJ           5.02174         5.11068         1.49865
LJ          -6.22694       -0.845103         1.76335
LJ           -5.1958        -6.40387         6.29423
LJ           -1.4142         5.44693        -5.14695
LJ          -3.80552          2.3587        -1.96579
LJ          -5.58195        -1.20488         4.31629
LJ           6.38708        0.752936        -3.07818
LJ          -5.93093        -5.49818        -3.40187
LJ           3.42297        -3.61123        -6.10296
LJ          -2.68667        -5.73637         5.93882
LJ          -4.70986        -5.65081         5.45041
LJ          -2.87125        -1.32183       -0.748496
LJ          -3.90894        -5.56117        0.284083
LJ           5.52132        -1.25144         4.19473
LJ           1.06835         0.96951        -3.99368
LJ           5.73265         2.44506        -3.36538
LJ          -1.46516         5.89483         3.61692
LJ           5.73285          3.1154        -5.27699
LJ          -5.06495         1.31374          1.8166
LJ           5.86805         1.67055        -4.17639
LJ            4.8639        -2.71393         6.42485
LJ           5.52138         4.48501        -2.96665
LJ           1.33686         3.48692        -2.46728
LJ          -2.57925         3.44194         2.73006
LJ           1.62167         3.02935       -0.978457
