108
#Comment!
LJ          -5.94274         1.55631         5.93123
LJ           3.07681        -1.46124        -2.90235
LJ          -1.19893       -0.410423        -2.70438
LJ          -1.03072         1.33619        -6.06446
LJ          -6.28814        -6.13412      -0.0013811
LJ           3.29413         3.83213        0.646549
LJ          -4.90947        -1.66915          -4.231
LJ         -0.233825        -3.03986         4.94828
LJ           5.66408         1.50176        -5.11783
LJ          -1.75868        -2.90744         -1.0235
LJ          -1.37307        -5.37919        -4.33869
LJ           2.53396        -2.33934         2.30518
LJ           -2.1154        -5.84596         2.39363
LJ          -4.06539        0.282716         5.36174
LJ           3.82834        -3.49244        -1.08214
LJ          -1.80924        0.219665        0.389237
LJ          -2.31579         2.05704         4.07467
LJ          -1.53389       -0.118662         6.00444
LJ           5.13432       -0.369848         5.40287
LJ          -4.52576         4.53698        -5.96846
LJ           1.43867        -6.24049        -6.24166
LJ          -4.55183           6.206         3.33283
LJ          -5.82811         1.28566          1.9115
LJ           5.75093        -3.78638        0.358406
LJ          -5.49199        -3.33565        0.772085
LJ           1.90856         2.17167       -0.607113
LJ         -0.180671         3.73773        -2.40723
LJ        -0.0202902        -4.10774         3.26568
LJ          -4.34058        -5.13794         4.98099
LJ          0.806061        -1.09524       0.0904126
LJ          -3.19692         1.25625         3.32262
LJ           4.00269         2.71868        -4.37691
LJ           4.32257        0.534221         2.96288
LJ            1.3516        -3.43593         3.17749
LJ          -3.62625         2.58802         5.79843
LJ         0.0834097         3.95024        -1.34054
LJ          -1.63395         1.68713         5.54143
LJ           3.51645        -2.85303         1.92539
LJ          -5.18272        -4.30703         5.67629
LJ           4.21746        -5.60426        -1.55526
LJ           1.04331          5.3599        -3.82167
LJ          -1.01358        -3.93646        -5.03349
LJ           -2.7798       -0.439058         6.28544
LJ          -6.33521        -5.05686        -1.06618
LJ           1.35015        -4.69578         4.39263
LJ          -4.47607         2.25311       -0.143654
LJ          -5.63628         -1.6507        0.222684
LJ           2.22821        -4.17958        -1.31822
LJ           2.49133        -5.68432        -4.14636
LJ         -0.427558          4.2684       -0.113998
LJ          -6.33567        -2.43414        0.545785
LJ            4.9009        -4.83022         3.30265
LJ          0.249262        -2.64599         2.89273
LJ           5.57952         3.52162        0.456571
LJ          -2.34163       -0.558814        -2.60869
LJ          -4.94096         5.48304        -4.92741
LJ         -0.122964         3.72882        -3.68292
LJ            -2.531        -2.58543         2.22675
LJ          0.167288       0.0671092        -2.52631
LJ           6.32063       0.0903904         -2.4345
LJ          -2.68896         2.81419         1.49602
LJ            6.0923        -2.82229       -0.362486
LJ           3.99621         4.00216       -0.668475
LJ          -5.04001       -0.129187        -5.38325
LJ           -3.0362        -6.05417        -1.38107
LJ           1.36568         3.98458        -1.29862
LJ          -5.63544       -0.416626        -1.48694
LJ           2.68863         4.83755         2.79171
LJ           5.69422       -0.728793          -2.809
LJ           4.83958        -1.67453        -5.42114
LJ          -4.00698        -1.64497         2.38944
LJ           1.27204        -6.27459        -2.68387
LJ          -0.59379        -6.34374        -5.74688
LJ           -3.8237         4.42328         2.26907
LJ           3.43409         2.04599         -2.9424
LJ          0.243804        -2.67142         -3.8244
LJ         -0.747403        -2.16236        -4.91731
LJ          -3.81076         1.27563         5.87868
LJ          -2.44907          2.0972         2.64189
LJ          -6.16968        -1.27468          2.5777
LJ           6.27137         5.80782       0.0746965
LJ          -2.97658        -2.05056         3.28868
LJ          -1.21409        0.112707        -4.81712
LJ          -2.25721        -3.56796         -5.8267
LJ          -2.52308         1.66576         1.77678
LJ          -1.82738        -6.34659        0.846022
LJ          -5.17797          1.0958        -2.34586
LJ           6.18976         4.69812        -3.02251
LJ           2.44318         -4.1157        -4.95532
LJ           2.69319         1.85863          6.2017
LJ           5.18454         -4.5182        -5.43377
LJ          0.310386       -0.181641         3.49319
LJ          -4.29521         1.52671         3.96264
LJ          -2.64498         4.97696          2.0417
LJ           0.96537        0.911302        -2.97704
LJ           4.84137         5.53814        -4.00517
LJ           2.39463       -0.700244        -1.17564
LJ           4.20064        -5.43338        -3.79543
LJ          0.974261         3.23981        -2.45364
LJ          -4.00537         4.06656        -3.05726
LJ            2.9422          1.6472         2.91264
LJ            3.0087        0.884361         3.94638
LJ            3.1114        -6.45644        -3.69559
LJ          -6.30438         1.45574        -1.35682
LJ           3.22422         3.49247        -2.55081
LJ          -1.33508         5.36411         1.34597
LJ           4.35467         -2.0496         2.02208
LJ           1.55628         6.04941         2.27541
