108
#Comment!
LJ           2.29267         3.44267         3.96731
LJ           4.19578         1.05383         3.01964
LJ           3.72631        -1.63779         2.92607
LJ           -5.7905        -2.70075          -1.236
LJ           3.78582         5.15938         6.15911
LJ         -0.767603        -6.20804         5.63138
LJ           -5.5554         -5.6349       -0.894646
LJ            6.4241        -2.55838        -3.49828
LJ          -5.23711         6.07216        0.661214
LJ           1.49631        0.856478         4.24746
LJ           2.93844        -6.42618        -1.17201
LJ          -2.43568        -2.40679         6.36896
LJ           3.44772        -1.89508        -3.88294
LJ           -0.6561        -2.09842         -2.3886
LJ           5.54269         5.34322         1.25509
LJ          -2.47098        -2.13477        0.177688
LJ          -4.06039        0.256823         2.85803
LJ           5.63689        -4.28741         5.78297
LJ          -1.07468         0.40608        -2.34606
LJ          -1.85881         1.58843         5.29027
LJ           -2.0813        -6.10294        -1.17801
LJ         -0.773859        0.682062         2.83008
LJ          -4.93042        -3.66306          2.8564
LJ           5.11803           4.511        -4.09294
LJ          -6.05464       -0.873468         2.00202
LJ          -6.41831         2.33584       -0.547434
LJ           4.22353        -5.80644        -4.63833
LJ           1.81587         3.95558         -4.8329
LJ          -4.27391          1.7898         1.90921
LJ           3.94078          4.2814        -4.68931
LJ           3.97171         5.23005         1.66395
LJ           1.96701         3.97675         1.54478
LJ           -6.2161         3.68503        -3.17012
LJ           2.40681        -4.66097        -1.22468
LJ         -0.605206         1.65096        -1.79759
LJ           2.23583         5.88866          5.8315
LJ           4.09899         2.93575         -5.0766
LJ           3.04373        -5.58284         3.92224
LJ          0.597484        -1.71274         5.03399
LJ          -1.29616        -4.56121        -2.74033
LJ           1.02239        -5.74123          2.5628
LJ          -5.52789        0.453796       -0.702786
LJ          -2.65919         -3.4772       -0.184949
LJ          -2.14412         5.33395         3.01769
LJ           -3.9902        -5.98715        -4.04183
LJ           1.40338         2.53922         5.53795
LJ           -2.5966       -0.834536        -5.98656
LJ           3.33624         4.84621         3.28501
LJ        -0.0710536          4.6872         5.66326
LJ         -0.203233        -4.72604        -5.27593
LJ          -6.39738         4.66848         4.95437
LJ          0.644892        -1.90381       -0.450088
LJ           5.15297         3.24324        -5.83087
LJ          -5.19814         1.30491         3.77333
LJ          -2.33471         2.64034         3.43267
LJ           1.78757         4.75866         4.50711
LJ          -5.56243         4.93566        0.933794
LJ           4.12432         5.95242       -0.620956
LJ           2.77101          3.7897        -2.65146
LJ          -3.73937        0.129654        -4.84992
LJ          -0.59724        -5.94699       -0.661351
LJ           2.26542        -2.17935        -4.74358
LJ           6.27716        -2.82958         3.95826
LJ           4.20144          -5.546         4.24978
LJ          -5.53867        -2.44512         2.26355
LJ          -5.25859         -3.7063       -0.663653
LJ           1.13606         5.28522        -6.39244
LJ           5.11033        -3.04128        -1.17642
LJ            5.5173         4.05339          6.3799
LJ          -2.54751         4.77418         3.83365
LJ         -0.121783        0.577168       -0.296401
LJ          0.594985        -4.71191       -0.849576
LJ          -1.50417        -4.01091        -5.89376
LJ          -5.99138         6.34466        -2.47621
LJ          -1.26099         4.88207        -5.27626
LJ           4.89532        0.391378         3.03412
LJ           3.69197         5.32939        0.713858
LJ           1.33172           4.494        -1.42409
LJ           3.45722        0.587194         5.03964
LJ           1.31491        -4.89038         5.27183
LJ          -3.83263        -3.13432         2.36522
LJ           4.34812     -0.00652442        -5.26569
LJ          0.773732         4.60447         3.75527
LJ          -5.30006         1.68655         1.25575
LJ          -5.20348         5.87994         2.72686
LJ           4.44679         1.95144        -1.98556
LJ           2.68255         3.01505        -6.07456
LJ          -2.36554        -4.88299       0.0467584
LJ         -0.304405        -3.11844        -1.12515
LJ           2.71481        -4.27408         6.31047
LJ           2.67074         1.36057        -3.47794
LJ           3.78036        -6.25999        0.452494
LJ           3.69873        -3.62824         5.54118
LJ          -4.81421         3.95642        -2.83217
LJ           3.04208         6.27424         5.04997
LJ         -0.317966        0.670782         4.11664
LJ           2.05736       -0.296283        -4.25811
LJ           5.55239        -3.38761        -6.13152
LJ          -5.82404         1.34416         4.93825
LJ          -2.32776         2.57607         2.21124
LJ          0.405327        0.740502        -5.61511
LJ          -1.03308        -3.83474        -4.64865
LJ          -1.51268         4.16395         4.11215
LJ           5.79754         1.97307         2.11828
LJ          -2.90069         6.06128         4.04535
LJ           2.35102         -2.7004         5.30768
LJ          -5.23357         4.97415        -4.59482
LJ          -4.43607         4.08351         2.24431
