108
#Comment!
LJ           1.54231       -0.374619         1.46907
LJ          -2.36222        -2.11053         5.92562
LJ           1.01472        -1.88777         3.35959
LJ          -5.75112        -4.87608        -4.00812
LJ           4.60164        -5.07779         6.00767
LJ           -3.7945         1.43555        0.165736
LJ           1.84681         5.25852        -1.92183
LJ           4.95736         3.18931         4.26586
LJ             1.535         3.42085         2.14559
LJ           3.50912          1.0084        -1.60139
LJ           -0.8034         6.38621        0.564294
LJ          -3.25492        -4.17796      -0.0495505
LJ          -1.61522         -3.8796         2.96652
LJ          -6.20632         4.95495        -3.99418
LJ         -0.589234        -1.94967        -6.07139
LJ         0.0903923        -1.89143         5.04141
LJ         -0.554469        0.271995         3.03159
LJ           -1.1365        -1.46782        -4.32668
LJ         -0.410677         4.17721        -5.19969
LJ           6.02581         0.70305         2.92686
LJ          0.417793           4.974        -5.27632
LJ           2.59471         3.27014        0.680818
LJ          -5.87269         1.90159         5.34563
LJ           5.29936        -1.15728           1.276
LJ          -4.82317         2.52101         3.52906
LJ       -0.00654707        -5.35955         2.45895
LJ           6.15656        -2.77823        -4.90224
LJ         0.0221404         5.26451       -0.326774
LJ          -2.30618        -2.90019         1.22623
LJ           1.81545         6.26886         5.43125
LJ           6.45527         2.76577         5.55929
LJ          -5.46988        0.516936         5.37867
LJ          -3.31172       -0.391604       -0.496439
LJ          -5.40258        -5.94341        -4.93048
LJ           1.88879         4.30321         2.87227
LJ          -1.46787         5.60518        -3.22669
LJ          -1.92919        -1.84253       -0.891568
LJ          0.974674         2.27611        0.743936
LJ           4.32142        0.695225         1.71088
LJ          -4.82013         -5.3837         3.83699
LJ        0.00771894        -4.53297        -1.11156
LJ           5.08873        -2.27827        -5.30918
LJ           1.36939        -5.21506          3.2878
LJ         -0.500823         5.13666         5.57356
LJ           4.72793        -3.49891        -4.64768
LJ           3.91241         3.47004         2.26524
LJ           2.92086        -4.84443         6.41235
LJ           1.33636         2.64038        -2.42121
LJ          -1.09276        -2.95528        -5.91604
LJ           4.39031         4.88394         1.39166
LJ         -0.557203           2.261        0.571759
LJ           2.33326        -6.11262         6.30254
LJ           5.97298        -2.86148         3.19142
LJ          -2.44524         3.37454        -2.30325
LJ          -1.41847        -4.43771        -4.00725
LJ           -5.3001          4.0936         -3.6938
LJ          -6.17883        -1.68538         4.94635
LJ          -1.22493        -4.93307         2.69524
LJ           4.24578        -1.77983         4.21209
LJ         -0.387286        -5.21367        -4.03729
LJ           2.01247        -2.49721         3.51169
LJ          -4.48981         1.78313        -3.30481
LJ          0.479372         -4.4759        0.689611
LJ           1.67317        0.113581        -5.52272
LJ           2.05164         1.64853        -3.47268
LJ          -4.93645        -5.35733          5.5271
LJ         -0.108364         2.62852         5.52335
LJ          -2.56642        -6.08388         4.27342
LJ           -6.3959        -2.36991         6.07933
LJ          -4.47085         3.43469         2.84445
LJ          -3.25639        -1.61211        0.724664
LJ           1.50514       0.0817595        -2.17954
LJ         -0.367603         6.22217        -5.31829
LJ         -0.679029        -4.04049         3.65216
LJ          -4.92058         2.04789         6.19755
LJ           3.81287     -0.00558866          5.3295
LJ           5.39669         2.65567        -6.08832
LJ          -1.30345         5.14095         2.81873
LJ          -2.45108        -3.41641        -3.94649
LJ           4.79363        -6.10745        -5.11233
LJ           1.95081        -6.02373        -1.78766
LJ          -4.90671         5.49842         3.46532
LJ           -5.9636         3.94172         4.47103
LJ            -5.495         3.32382         5.71698
LJ          -1.64249         4.35697        -3.59605
LJ          -6.14119         2.32244         2.10391
LJ          -2.03107         1.82927         3.82322
LJ          -4.83157         -4.7624        -1.84452
LJ         -0.228874        -2.08633        -3.99506
LJ           5.28864         -1.3645         2.43486
LJ          -3.73001        -1.33995        -5.72504
LJ           2.47056         1.37443        0.358595
LJ         -0.430329        -3.36639        0.503452
LJ          -1.53515         1.39401        -4.37726
LJ           2.96215         5.90016         2.17899
LJ          -4.04169        -2.24793         3.74009
LJ         -0.293461      0.00565453        -3.75814
LJ          -3.56289        -5.38776       -0.616387
LJ           1.81426         2.27903        -4.56412
LJ         0.0302091         5.80215         3.65352
LJ           3.89454        -4.19289         3.60823
LJ        -0.0733578        -3.64099         5.39158
LJ           4.52351         -2.0578         1.56586
LJ          -3.49964        -4.47773       -0.945673
LJ          -4.24422       -0.463038        -1.20678
LJ          -4.04738         -3.3764        -1.19771
LJ          -6.16044         -4.9692        -2.33305
LJ          -3.00127       -0.190396         6.29154
