108
#Comment!
LJ           4.96548        -4.15664        -5.08416
LJ         -0.730416         5.06433         3.96312
LJ           1.09713        -4.09959        -1.81696
LJ          -3.16769        -3.99479        -1.04717
LJ           2.37917         4.18865        -3.81749
LJ          -1.73985        -2.60736        -3.96512
LJ          -2.89696         -1.6794        -2.90858
LJ           4.27447        -3.53941         5.09617
LJ          -2.32905         2.47573        0.528008
LJ         -0.750182         1.33096         4.72564
LJ          -2.68229       -0.647551        -4.02016
LJ           5.15971         1.20192         4.97612
LJ            2.4589        -5.49032        -2.54861
LJ         -0.547858         3.26603        -1.86997
LJ          -4.43713       -0.565265        -2.13251
LJ            5.4419         -2.3089        -5.12973
LJ           4.66671         3.12953        -2.74785
LJ          -3.96955        -4.46147         -4.4966
LJ          -4.91549         5.30482        -6.00608
LJ           5.09758        -5.25218        0.249412
LJ           3.99901        -4.21668         4.22932
LJ           1.96366         6.16742         3.80145
LJ         0.0239374         1.30597         6.32508
LJ           2.59733        -1.56864       -0.723694
LJ         -0.572156        -6.44064        -3.55615
LJ          0.898554        -4.98401        -2.87902
LJ          0.186588          2.8371         4.92195
LJ          -6.33499        -2.55912        -3.36445
LJ            2.9875        -6.00245        -4.25067
LJ           5.33574          2.7081        -4.28057
LJ           1.80308        -3.80162        -4.22192
LJ           6.44122        -3.35961        -2.70043
LJ           3.50989         3.06618         6.15058
LJ          -0.36922         5.06168        -4.50188
LJ           2.20833         1.49599        0.191276
LJ          -1.35701         0.38098         4.56343
LJ          -2.11446         3.06558        -1.91067
LJ          -2.35473        -4.42067       0.0710341
LJ           5.20256        -5.95615         -4.0052
LJ          -3.97923        -2.34233        -1.52126
LJ          -4.79834         3.98649        -5.34075
LJ          -2.01495         5.30946       0.0505023
LJ          -1.14242        -4.05466         3.85144
LJ           2.47606        -3.07725        -2.66893
LJ          -1.45399         1.39136        -2.48283
LJ            4.5698         5.55042         5.49377
LJ          0.828439        -4.32607       -0.318991
LJ          -4.52263          -3.933        -3.81403
LJ           1.00653         3.46312        -2.73695
LJ          -1.66642        0.455439        0.275352
LJ         -0.747702        -6.26574         3.26076
LJ          -2.54182         6.42317         3.58766
LJ          -5.45632         3.46037         3.01321
LJ          -1.09983        -4.55277        -2.16526
LJ          -5.47893        -5.37975        -3.18337
LJ           1.48735         5.79008        -4.47504
LJ          0.704445        -6.20475         4.78942
LJ           3.60744        0.102818        -4.17692
LJ            1.0251        -5.25421       -0.736856
LJ          -4.70517         3.40268        -2.67273
LJ          -1.08743         3.06294         1.75477
LJ          -1.49643        -3.10658         6.30073
LJ          -3.89807         1.73979        -1.34781
LJ           2.41412        -2.72631         4.44631
LJ           1.24953        -4.56749         1.11874
LJ           3.01657        -4.02522         3.08164
LJ          -2.12012         1.76297         1.46979
LJ          -5.28761         1.28003         1.34094
LJ          0.174146        -5.81084        -4.25137
LJ          -3.99899         2.55773       -0.684058
LJ          0.934395         3.78752        -4.52012
LJ           -5.0102         5.11052         3.33363
LJ            -3.093         2.79482        -4.64865
LJ          -4.94033        -3.42358        0.485881
LJ           0.98254       0.0290791          3.7191
LJ           2.49719         -6.3859        -6.06063
LJ          -1.76756        -5.42486         -2.0101
LJ          -5.82686          6.2116        0.362806
LJ          -3.38648        -2.45824        -4.70753
LJ           1.98834        -5.40935         2.76338
LJ            -3.411         3.21217        -6.02117
LJ          0.911278        -4.28353         4.20142
LJ           1.96336        -5.21122        -3.65066
LJ           5.28872         3.26419          -6.302
LJ          -4.80711         4.84995       -0.983566
LJ          -2.12275        -4.18027         1.96487
LJ          0.736239        -5.66037         3.78473
LJ          -6.25089        -3.88586        -1.29052
LJ          -3.62939        0.279247         2.81519
LJ          0.967468         3.52793       -0.360699
LJ           4.28555          6.0619        -1.94697
LJ           5.52877         3.65792        -4.78383
LJ          -1.78959        -1.76031       -0.908059
LJ           1.71224        -5.91121          4.2831
LJ        -0.0699204        -3.79897        -4.11112
LJ          -4.38384         5.70922        -3.13524
LJ          -3.91056         5.86876         3.07983
LJ           2.00194         4.77156         6.38466
LJ           5.40729         6.33166         -2.6762
LJ           1.25945       -0.440588         2.94769
LJ          -5.47095        -4.56215        -3.69892
LJ         0.0434898        -2.40827        -6.00852
LJ         -0.321891        -3.80404         2.96646
LJ           1.49806        -2.08687         4.34366
LJ         -0.113204        -4.47328         3.87967
LJ         -0.247554        -5.35044         1.01464
LJ           -1.5525         5.08862        -1.41327
LJ           3.63248        -4.56277        -4.68271
