108
#Comment!
LJ          -4.47734        -1.73062        -4.22016
LJ           -2.5529        -2.95195         5.33815
LJ           3.10492         4.87178        -2.24099
LJ         -0.402321        0.797946         3.55825
LJ           1.46689        -4.70154        -6.39143
LJ         -0.188911        -2.89929          6.0386
LJ          -5.23902        -2.17614         -4.6192
LJ          -5.24751         3.70404         4.80068
LJ          -2.65524        0.934912        -5.90883
LJ           3.54197         4.69517         0.23854
LJ           5.24519        -3.27003         3.64798
LJ           3.58322         6.00181        -1.71318
LJ          -1.46643         2.78217        -6.16419
LJ           3.24344        -4.17965         4.86811
LJ           1.32869         4.82051         3.92008
LJ             0.478         4.65798         -6.4058
LJ            2.0436         2.64056         1.30977
LJ           5.18793        -4.23754        -5.67757
LJ          -4.71721        -4.97493        0.949457
LJ          -2.70214        -2.83674        -3.87014
LJ           2.44371         2.15712        -3.49522
LJ            1.4139           3.153        -6.33743
LJ           1.93248       -0.935418         4.34348
LJ           3.12692         4.34885         2.45205
LJ           3.34371         2.65621         5.94439
LJ           1.74751         1.81958         2.26566
LJ         -0.236964         2.37367       -0.232138
LJ          -3.88917        0.188238        -4.08364
LJ           2.60127         1.98056         1.73374
LJ           1.20823        -4.99128         3.73305
LJ         -0.630996        -1.46372        -4.54237
LJ           2.32956         1.50615        -4.82195
LJ           6.24966         2.96838        -1.85214
LJ           2.90191         -2.2887        -2.11709
LJ          -5.85949         -3.3232        -3.91578
LJ           3.47586        -5.98217        -3.77408
LJ           2.30251         2.75986         3.82265
LJ           -2.8206        -1.01314         5.45133
LJ           2.27545        -2.41211          4.6306
LJ          -4.79796         5.36791        -4.48717
LJ          -4.27452        -4.01405        -4.28705
LJ         -0.267876         5.24154        0.636841
LJ          -3.69068         2.75887        -2.34203
LJ          -2.96736        0.632002         4.35481
LJ          -2.79314         6.03306        -3.37367
LJ            4.6476         1.15369        -3.44097
LJ           4.16108        0.476958         2.00234
LJ          -3.70622          5.7166        -6.24675
LJ          -1.61573         5.83729        -2.30234
LJ           4.54961        -3.09737        -4.20111
LJ         -0.444272        0.625897        -1.80347
LJ         -0.503522         3.54744        -3.76967
LJ          -5.22008         1.91312        0.816504
LJ          -2.03544        -5.82162        -1.26661
LJ         -0.708664         -0.8909        -2.46889
LJ           5.20379         4.21389       -0.489659
LJ           5.96298        -3.82777         4.38101
LJ            1.8648        -2.63538        -6.15938
LJ          0.320921        -2.22713         3.38179
LJ           1.69835        -2.36267       -0.976801
LJ           5.95464        -4.54463        -4.51257
LJ          0.977118         4.19093         1.49971
LJ           1.07089        -4.76848        -2.45539
LJ            -4.268         3.56487          -2.895
LJ          -1.67764          2.1353        -3.96617
LJ           3.84778          3.1465        -1.09999
LJ         -0.200631         6.08573         3.65562
LJ           3.69179         -3.1374        -4.83781
LJ           1.59529         6.11118         1.48879
LJ            -1.959       -0.878638         4.40516
LJ          -1.13448        -4.00465         2.71995
LJ         -0.846356        -4.79113        -5.50069
LJ          0.190363        -6.23812         2.75042
LJ          -5.46586         2.41065       -0.213531
LJ           5.69741         1.23635         6.09722
LJ          0.987457         5.01038        -3.74153
LJ           5.05537        -3.72257        -1.41342
LJ           5.90882        -4.59025         5.30067
LJ            2.3314        -4.89795         4.21154
LJ          0.811738         5.54467        -5.10849
LJ          -4.02604         5.35444        -1.31722
LJ         -0.495314        -1.47235         4.37407
LJ          -1.81924         1.75176         3.18077
LJ           3.00798         4.98385         3.24275
LJ          0.817717         -3.9025         4.24335
LJ           3.95676         4.60861         3.13012
LJ           4.24994        0.651874         3.67291
LJ          0.321336        0.305682       -0.192881
LJ          -3.89146       -0.476306        -2.03814
LJ           2.40798         -6.2601       -0.570483
LJ           3.68542         -3.4193        -2.07708
LJ           4.23906        -1.93469        -2.80431
LJ          0.354722        -6.23373        0.727131
LJ           5.60119         2.34095        -2.29758
LJ          -4.41827         4.57718         1.31359
LJ           5.49988        -6.06606         2.46215
LJ          -5.13271          -1.151        -3.29604
LJ          -2.89233        -5.42448        -4.81423
LJ          -5.77144         1.36208         2.53636
LJ          -1.38479       -0.403262        -3.08112
LJ          -6.29768        -1.68421         1.09695
LJ           2.27016        -3.57143         4.28948
LJ          -4.01018       -0.420832         -6.4158
LJ           1.05269         6.38915          -3.804
LJ          -1.62972        -3.24759        -3.83951
LJ          -5.63065        -6.18572         2.18928
LJ          0.626871         6.42894        -6.07576
LJ           3.66321        -1.89411         1.46405
