108
#Comment!
LJ         -0.606495        -4.20581         1.57958
LJ          -3.52526         2.27804         5.87382
LJ          -5.49601        -4.96135        -5.14104
LJ          -6.35682       -0.289836        -5.05422
LJ          -6.21325         -6.4569        -2.65528
LJ           5.34585        -3.51615        -2.78412
LJ          -2.69077       -0.264147        -3.98294
LJ          -1.96801        -2.77714         5.26841
LJ          -1.97022         0.60427          2.6629
LJ          0.492984        0.605579         4.45259
LJ          -6.31055        -5.56206        0.881371
LJ           3.75796        -1.34848        -5.20686
LJ          -4.52101        -3.57778           1.315
LJ           4.01119          -5.379        -5.59768
LJ           6.15649         5.09796        -4.01495
LJ          0.659253        -5.67112         2.99714
LJ           5.38908        -2.63531         4.46075
LJ         -0.788641       -0.187923          4.3042
LJ          -5.90194        -1.54622        0.823273
LJ          0.561085         5.86993         3.46149
LJ          -3.50855         -5.1111        -5.03861
LJ          -5.60174         2.61929         3.51386
LJ           2.61292        -5.10595        0.316953
LJ         -0.661775       -0.208358        -3.58581
LJ          -2.36044        -1.37464         3.21446
LJ          0.516544         -3.7394        0.152885
LJ          -6.33871        -2.01753        -5.92528
LJ          -1.84887       -0.865937        -4.66675
LJ          -1.06532         1.79945          4.7035
LJ           6.22451        -4.69361         6.12258
LJ           6.15942         1.70046        -4.66394
LJ          -3.63922         4.16192         1.33376
LJ           2.59745         4.16385          1.7302
LJ           4.43328          5.9539         2.46239
LJ           5.03169        -6.37298          3.3356
LJ           4.44233          3.3128        -2.57971
LJ           3.39757         5.60667         1.72146
LJ            5.0702        -4.04284         3.77421
LJ           5.46623        -2.48021        -1.64748
LJ           5.14064       -0.287057        -5.94897
LJ          -2.74356         4.80158       -0.961837
LJ           0.16337        -3.63603         1.81938
LJ           6.33291         -6.1031         5.17794
LJ           1.38911         5.68497         2.81223
LJ          -2.66285         4.17771        -4.50189
LJ          0.144295          4.2734         3.50584
LJ          -5.68179        -6.07942       -0.363841
LJ           2.85814         6.18179        -3.81583
LJ          -5.13083         1.46721        -4.84113
LJ           2.45782         2.79601        -3.28595
LJ           1.39535         0.28875         5.82229
LJ           4.80335         -4.5343        -1.40795
LJ          -2.91276        0.856252        0.322898
LJ           3.48488        0.885148        -5.57934
LJ          -4.52434         3.51055         1.91136
LJ          -4.43758        -4.61532         5.67286
LJ           4.06536         5.78209         5.82025
LJ           5.73789        -5.35632         -1.5906
LJ          0.454365         -4.9625         3.73554
LJ           4.62168        -2.56963         2.82617
LJ           2.30743        -3.88146         4.51372
LJ          -5.88553          5.7249       -0.671905
LJ           2.54069        -4.14974          6.1377
LJ          -3.06771         3.16127         1.77765
LJ          -3.30055          2.5229         4.60096
LJ           1.39941       -0.711714        -1.56739
LJ           5.99647         6.24639         6.46135
LJ          -4.46683         6.35859        0.660093
LJ           5.80029        -3.68711       -0.456854
LJ           6.18824        0.139185      -0.0970291
LJ          -2.37498         5.97147        -0.26661
LJ            4.0448        -4.14556       -0.755133
LJ           4.64541        0.752208         1.35681
LJ           3.45129         3.78357         3.08239
LJ          -2.09736         6.00871         5.08953
LJ          -6.07843        0.130522         1.91723
LJ           5.15102         -5.7467         5.11547
LJ           -3.3618         1.18214        -6.07794
LJ           1.31871         3.79384        -2.65285
LJ          -6.32733         -3.2691        -4.99267
LJ            5.0779        0.630401       -0.408374
LJ         -0.148973        -2.93685        -5.64726
LJ           4.72336         1.00215        -5.91546
LJ          -2.00001         4.68294        0.394819
LJ          -4.37648         1.83567        -2.62598
LJ           3.15366         1.37291        -3.63478
LJ          -6.28972        -4.78066         2.25339
LJ          -2.27439         3.79019         1.41638
LJ           2.80276         3.78688        -5.25198
LJ           1.34302         2.07446        -2.69354
LJ           2.62966        -1.42315         3.65823
LJ            1.0677        -2.75368          3.5231
LJ           4.53124         1.71967        -4.41881
LJ           3.06182        0.689971        -2.35238
LJ          -5.82661         1.49953        -1.84999
LJ           2.20818         3.47408         -2.1227
LJ          -5.21089         3.78543         3.91572
LJ          -3.31828        -3.12898        -1.04362
LJ         -0.809602        -3.84475        -1.22785
LJ           4.87902         6.02813        -5.41908
LJ          0.664797         1.33649         3.73145
LJ          -2.99969          1.7569       -0.771779
LJ           3.16534         -4.4998          3.7345
LJ       -0.00715741         1.04648        -4.01529
LJ         -0.545386        -4.01777         3.23385
LJ         -0.750834         1.12103         6.14893
LJ          -5.73095          2.3059        -4.25354
LJ           6.15216         3.53707         1.14594
