108
#Comment!
LJ            4.5751        -1.09505        -3.30791
LJ          0.502905        -4.99534        -5.31674
LJ           3.89395         5.21926        -2.74606
LJ          -6.09851        -2.79907          2.4105
LJ          -1.63411        -1.66668        -5.79965
LJ          -3.17195        -4.07635        -4.64521
LJ           1.19277        -3.94818         6.08946
LJ           5.97124        -4.28582        -5.59854
LJ          -3.63499         -2.5675         2.27745
LJ          -5.49869         4.94411        0.966273
LJ         0.0323907        -3.45304        -1.79097
LJ           4.88958         4.19194         5.95431
LJ          0.367032         6.12742           1.068
LJ           4.49667        -3.36718         4.45001
LJ          -5.13737         2.29767         5.18886
LJ           2.96743          3.2496        -6.06826
LJ              5.69       0.0701008        -1.63251
LJ           6.06276         5.93314        -3.61053
LJ           -4.5186           5.519         3.72918
LJ           -3.0925        -6.37784        -6.02833
LJ           4.41034        -5.07644        -2.91814
LJ          -1.23748         4.96756      -0.0483686
LJ          -5.41549       -0.754793         2.50917
LJ          -1.93885        -1.30065         4.38247
LJ          0.145067        -4.75533         -1.3735
LJ          -2.68351         1.49051        0.557814
LJ            2.6311        0.375889       -0.197966
LJ           5.33417        -4.69388        -0.15328
LJ           3.67165       -0.787562        -2.90742
LJ          -6.17237          3.0848         1.19507
LJ          0.591116         2.49939        -2.87024
LJ           5.32148        -2.77338        -2.42249
LJ           6.02584          2.5568        -4.00711
LJ           5.67164       -0.953125        -2.82013
LJ           1.96063         4.02943     -0.00197715
LJ           4.76809        -4.26898        -1.07169
LJ           1.64003       -0.810381         1.08098
LJ          -5.29017        0.876628         1.39923
LJ           3.49045         5.67925         2.14302
LJ        -0.0933492        -1.22303         1.26595
LJ          -5.79322        -4.56215        -5.83638
LJ          -2.33938        -2.79523         3.33651
LJ           2.42799         4.59694         1.76557
LJ          -1.75071        0.691554       -0.664512
LJ           -2.5466        0.697682        -4.16105
LJ           4.89603         6.45767        -1.53486
LJ          -4.12237         1.85137          4.6528
LJ           6.16167        -5.99543        -3.21456
LJ           3.06979         6.04061        -4.86232
LJ           6.40663        -3.36385         4.87365
LJ          -1.68323         3.94938        -1.20861
LJ          -2.61899        -2.99231         1.47295
LJ          0.895829         -3.3652        -4.65173
LJ          -6.41257        -1.75776        -2.22391
LJ         -0.254651         0.85729        0.458844
LJ          0.314328         3.70011         4.14663
LJ          -1.44902         4.27263        -3.08902
LJ           4.27022         2.42492         3.06381
LJ           2.07005         6.30613           2.558
LJ         -0.314613        -4.77464         5.38534
LJ           -3.9002         4.70788       -0.233577
LJ           5.79518        -6.03297         1.50661
LJ          -4.55267        -4.76988        -3.59114
LJ          0.832543         0.37787         1.56479
LJ           2.37267        -2.73612        -3.28172
LJ         -0.878171         5.92284         1.71624
LJ          -1.84359        -5.22378        -4.37397
LJ           2.48267         1.76222       -0.124202
LJ           2.13698         3.08522         5.90029
LJ           4.17041        -2.24945        -1.91419
LJ           5.79611        0.600438        -3.93158
LJ           3.59489         1.34965        -6.43472
LJ           4.83448         -3.7585         1.92508
LJ          -3.47044        -2.49856         1.24403
LJ          -2.53621        -6.34385         3.40864
LJ          -6.18433          3.2399        -2.60898
LJ           3.93425         1.18054       -0.619517
LJ            5.7222         3.77409        -2.53512
LJ           1.19114        -2.65219         3.40853
LJ           3.95481       -0.345059        -5.30646
LJ          -4.20569        0.171969         2.56609
LJ           4.90956        -1.95271         2.85484
LJ           4.80158        -5.74358         6.23225
LJ           5.10294         2.96333         5.62266
LJ            -6.101         3.54553        -3.87256
LJ          0.182343        -4.68889         2.58646
LJ           5.29073        -1.15649         4.16527
LJ          -6.13716        -6.37672         5.66383
LJ          -2.15224        0.948868         5.92478
LJ        0.00887768         3.30546         -1.8932
LJ           5.65833         3.68666       -0.860238
LJ          -1.06428         3.37865         5.90232
LJ          -3.32246         2.88996        -2.56599
LJ         0.0469146         5.89188       -0.935082
LJ         -0.655216        0.600757        -6.08801
LJ          -3.65985        -6.07047        -2.75157
LJ          -2.46773         6.34092        -1.50902
LJ          0.102633        -6.04085        -5.08366
LJ           2.01596         3.33855         1.00142
LJ          -1.00825         6.04536      -0.0953453
LJ           5.12769       -0.934393        -5.17501
LJ           5.23773        -2.78883          5.7664
LJ           3.00978         3.01651          3.0409
LJ         -0.618402        -1.02306      -0.0957311
LJ           3.10175         3.54773         1.71431
LJ         -0.497084        -5.66961         1.07079
LJ          0.872027        0.436493         6.05975
LJ          -5.48356         4.20718        -5.73255
