108
#Comment!
LJ           5.39349         5.69841         3.57646
LJ           2.14657         3.83946        0.636313
LJ           1.93995         6.12261         3.83118
LJ           5.56979        -4.76667         5.32185
LJ          -6.39818        -3.63219        -5.58255
LJ          -5.26183        -6.22417         5.00814
LJ          0.699269        -1.44229         5.62717
LJ          -4.64266          2.9107         -2.3403
LJ          -4.61206        -4.12724         1.36576
LJ          -1.08132        0.660223         3.95179
LJ          -0.60793        -4.02464        -2.11055
LJ          -3.37458        -2.47961        -5.06476
LJ            3.7891        -4.00836         5.82412
LJ          -2.06414         2.66316       -0.694125
LJ           1.69297         4.33123       -0.671876
LJ          -4.01361        -1.74631         5.26118
LJ          -6.21586         5.16977        0.196341
LJ           -3.9515        0.776916         2.81621
LJ           -1.5626        -5.21087         4.75748
LJ          -2.07577        -0.19847         3.67096
LJ          -5.99464         5.45961        -3.32614
LJ          -5.33674         2.42516        -5.72357
LJ            3.3989         -3.2454        0.141637
LJ          -2.07761        0.532707        -4.22983
LJ          -3.03885         5.98126        -1.14959
LJ          -5.87205        -3.52925        -2.09961
LJ          -6.29996        -1.71487        -4.62207
LJ          -1.96366         3.96407         6.35725
LJ          -5.95553        -6.45616        0.259398
LJ           -3.5752         -3.8231        0.958143
LJ           4.35859         2.69306        0.952719
LJ           -1.8061         1.09691        -5.09017
LJ           1.31213        -1.41787         2.06139
LJ          -3.83521       0.0485361        -1.80893
LJ          -5.49868        -3.17775          3.1671
LJ            1.8345        -5.67451        -5.32181
LJ          -4.97643        -5.07538         5.28368
LJ          -0.84304        -4.79616        -5.60169
LJ           3.92147         6.05171        -2.76774
LJ          -6.17273        -3.68142       -0.944272
LJ          -1.09494         5.71681         4.78079
LJ         -0.399271        -6.29153        -4.00779
LJ           4.25701         5.26333         -4.9548
LJ         -0.501812         2.59107         3.87833
LJ           6.20374        -4.23574          6.3533
LJ          -6.21704         -4.0968        0.180079
LJ           3.08331       -0.877471        -3.54211
LJ           3.71873        -3.17089        -4.23643
LJ          -4.71946        -1.02457         4.21957
LJ           3.70696       -0.101945         4.59406
LJ         -0.702238         5.73596        -4.26201
LJ           1.50864         2.66806        -5.13156
LJ          -3.89994         4.05222         4.73536
LJ            3.8109         -4.2522        -3.90897
LJ           2.51922        -1.94036       -0.945993
LJ           1.43031         3.32476        -3.65238
LJ          -5.42179        -1.74223        -3.17717
LJ          -1.70115        -2.03001         5.79877
LJ          0.577573        -2.91037        -5.80349
LJ          -3.55159        -2.15204        -3.67716
LJ          -3.42485        -2.63618        -2.18118
LJ           3.56382        -2.06929        -1.23267
LJ          -2.78729       -0.362202         4.51974
LJ          -5.94503       -0.103625         1.37011
LJ           6.24652          5.8009         2.53907
LJ           -1.7139         5.71954         -2.7481
LJ           3.71788         1.20154         1.63585
LJ          -5.04917         3.15863        -1.37082
LJ          -6.07003        -6.12043       -0.772399
LJ          -3.08337        0.660836         3.38392
LJ           5.31505         3.00481        -6.17068
LJ           4.56858        0.820844        -2.41777
LJ          -3.63089         4.45214        -5.39205
LJ           5.48309         5.86382        0.662423
LJ          -1.16545         3.12939          4.7553
LJ           6.16016        -2.34327       -0.419814
LJ           1.85388         4.53967        -2.89512
LJ           5.74398         2.58281         4.48966
LJ          -4.73894         1.51834        -4.44914
LJ          -1.03888        -4.05373         4.55912
LJ           5.36034         3.45727        -2.11308
LJ         -0.994663        0.487728         2.03146
LJ          -4.17458        -5.35507        -6.02787
LJ       -0.00290365        0.347979         5.15964
LJ          -5.91391        -2.01533         2.19402
LJ         0.0422599         1.60019          -6.122
LJ          -3.02899         4.25978       -0.878831
LJ          -1.77118         3.05735        -1.74324
LJ          -3.66493          1.4846        -5.27437
LJ           2.32048        -2.46484      -0.0502269
LJ          -5.92359        -4.03993         4.33617
LJ           2.59324        -4.95172        -2.81059
LJ           1.65546        -5.74529        -1.19529
LJ            5.5311          2.1048         1.02842
LJ          -5.66655         3.34879        0.736718
LJ           2.84673        0.229788         -2.0762
LJ          -5.55403        -6.30787          6.3427
LJ          -4.46007         4.05517        -0.27528
LJ           2.44218         5.59612        -1.28968
LJ          -4.13617         2.07094       -0.918312
LJ           4.90156         4.57555        0.921885
LJ            1.3159         5.54748          4.7216
LJ           2.45359        -2.60152        -2.35706
LJ          -2.68589         3.21528         0.44135
LJ           2.90915         3.29336       -0.380523
LJ           0.67064         2.56472         3.00953
LJ           6.22195        -3.33239        -2.57674
LJ           4.27723         3.62274         1.61976
