108
#Comment!
LJ          -2.59816         4.88533        -1.65419
LJ          -2.05094         5.89724         1.12216
LJ          -2.84788       -0.229607         -6.0831
LJ          -0.57512       -0.555849        -4.05338
LJ           -5.6678        -3.52602        0.720221
LJ           -2.5656        -5.61754         -4.7446
LJ          -6.37361         4.68156         6.38793
LJ          -2.57269         5.73269         4.29822
LJ           1.98094         1.94676         4.80594
LJ           2.98719         4.62519        -6.30038
LJ          -3.73674        -4.39173         1.06128
LJ          0.690143        -1.65584         5.84445
LJ          -1.05118        -3.65745         5.57288
LJ          -2.80999         6.13323         6.16936
LJ          -4.61775         6.18606         -2.6653
LJ          -1.64313         -5.2772         1.27384
LJ           -1.3632        -2.25917         -4.3668
LJ          -5.21701       -0.923572        0.717427
LJ          -1.54229        -2.38461         1.49508
LJ          -1.80171        -1.36357         2.79295
LJ           3.54961        -3.55968         2.81134
LJ          -3.46236         5.77893         5.36213
LJ           6.17543        -4.77346        -3.00554
LJ          -1.29399         4.58228        -2.65155
LJ          -5.42799         2.54792       -0.695245
LJ            2.9086        -4.29979        -3.42199
LJ           3.10206          -0.483         1.51956
LJ           5.84583         5.31476         4.40896
LJ          -4.49769         2.69474        -5.74996
LJ           5.50163        -4.34847         5.77831
LJ          -5.17549       -0.184647         5.41826
LJ           5.58725        -5.68623         3.29167
LJ           2.75732        -6.01045         3.28691
LJ           4.83369        -6.40447        -4.19423
LJ          -5.99434         2.55857          6.1053
LJ           6.17892         3.74744         1.16889
LJ           4.02003         -5.6935         3.78895
LJ          -2.41211       -0.992943       -0.153924
LJ           5.03544       -0.281286       -0.249017
LJ          -6.01622         2.59326        -1.75184
LJ         -0.767785        0.865945       -0.230247
LJ          0.105348        -3.72749       0.0949849
LJ          -3.99346        -2.54945         2.38327
LJ          -6.08352         1.93868         1.12943
LJ          -1.04645         2.37748        -1.12617
LJ          -4.45213         1.70329         1.48576
LJ           6.07799        -3.69663         1.14981
LJ           2.73005        -6.32041        -3.45655
LJ          -1.18179         1.04837         2.46191
LJ          -4.50418         5.87471       -0.800004
LJ           3.83449        -2.51128        -4.37024
LJ           3.30121        -5.44978        0.674265
LJ          -2.17538         3.82503         1.14651
LJ          -3.07614         3.10166         5.76472
LJ           -5.6102         1.33439       -0.661947
LJ           1.48366         4.48564        0.273109
LJ            6.2828        -3.99962         3.92143
LJ           3.97371        -6.06819         1.30911
LJ          -1.41526        -5.04959         5.26148
LJ           4.64447      0.00827631        -5.48595
LJ           1.45779         2.40598        -5.92072
LJ            1.6281       -0.655464        0.211437
LJ           4.88591       -0.915462        -6.12151
LJ           6.43313        -4.88339         1.33943
LJ          -6.44901         2.53882         3.34132
LJ           1.26298         2.69725        -3.23819
LJ           6.02677         6.09569        -4.88278
LJ           3.01171         2.12804        -4.24482
LJ           3.93306        -3.37857        -3.93273
LJ           6.28051         2.96987          2.1729
LJ          -3.82678        -6.01519        -1.61257
LJ           4.80544        -5.28829        -3.43377
LJ          -3.01314         2.96735         4.25314
LJ           2.47404         5.31246        0.793561
LJ           1.84334         3.73366        -3.07529
LJ          0.922874       0.0810728         2.64529
LJ         -0.147076        -2.00001        -2.25758
LJ          -5.16014        -1.09373        -3.58732
LJ         -0.112714       -0.663732        -2.68645
LJ            2.4776         1.32949          4.1333
LJ          -5.41947         2.48705         2.64239
LJ           2.10453        -6.04815        -4.29369
LJ          -6.26176         1.56564        -1.94381
LJ          -3.92144          5.8101        0.036472
LJ           5.94165         2.39043         5.07012
LJ           -4.3368      -0.0226577        -3.56206
LJ           4.34196        -5.19972         5.26462
LJ          -2.99488      0.00882778         5.54755
LJ           5.63698        -3.44337           4.528
LJ           1.07738         1.84391         1.82252
LJ           6.15559         -2.4283        -2.25919
LJ           2.19047        -1.88666         2.82157
LJ          -2.13821        0.963379        -5.36326
LJ           4.65579        -1.13083        -4.79488
LJ           3.74032         5.49988        -1.99598
LJ         -0.666012       0.0565328        -3.26819
LJ          -4.83691         3.51967         5.05684
LJ           5.92021        -2.07842         6.01275
LJ           3.60812        -3.79878        -2.06152
LJ           1.36239         3.08539         5.33457
LJ          -1.98382        -5.98902          6.2947
LJ          -3.67981       -0.433162         2.29597
LJ           6.05677        -3.16111         5.75896
LJ          -3.50757         5.04975        -4.12686
LJ         -0.491712        -4.45783          4.7099
LJ          -1.99226        -2.94256        -3.87579
LJ           5.85468         3.60847        -3.22834
LJ           5.46713         5.76422         3.44092
