108
#Comment!
LJ          -4.14153        -3.34042         2.85378
LJ          -5.39739         2.59855         1.87551
LJ           4.29493        -2.68697        -3.72706
LJ          -4.76954         1.14395        -2.58082
LJ           3.61482        -3.69473         1.74215
LJ          -5.54247        0.349421           1.145
LJ          -2.11447        0.899038        -2.15152
LJ           0.41028       0.0304951        -2.94023
LJ           4.51187        -5.95944        -5.24538
LJ           1.61235       -0.358422        -5.81288
LJ          -5.32698        -3.10932        -4.38773
LJ           3.33269         2.96716         0.22624
LJ          0.253072        -1.11449        -5.46211
LJ           -5.9084         5.81741        -5.63423
LJ           5.15931         1.04609         -3.0683
LJ          -1.15386         2.05413        -4.22888
LJ          -2.77926        -6.14782         4.86778
LJ           4.74449         3.61195        -2.78361
LJ         -0.876622         1.01893        -1.82009
LJ          -1.00595         -5.5059       0.0381825
LJ          -4.17149        -3.50091        -4.76959
LJ          0.367924         4.77329        0.201899
LJ          -3.36578         1.14787        -3.30381
LJ           4.82823        0.937926        -4.54369
LJ          -5.00445         5.08342         5.35221
LJ          -1.45596         1.71809        -2.24524
LJ          -3.20076         5.82276        -6.19969
LJ           2.71507        -3.51965         6.38299
LJ          -2.12993         6.08677        -4.04622
LJ          -6.02579         3.55374        -5.90127
LJ          -2.95262        -1.78341       -0.735716
LJ           -1.3193        -5.72769         1.61615
LJ          -4.33989        -2.41801        -2.00054
LJ           5.11566          2.4054         2.05994
LJ           1.57247        -6.36793         6.03445
LJ           3.49066        -5.63848         4.56639
LJ           2.10868         4.83471        0.487845
LJ           5.29603         1.98273           4.244
LJ         0.0017386         2.74288          3.5103
LJ            0.3248         3.47595         2.02895
LJ           1.71814        -2.06206         3.62928
LJ          -1.51713       -0.103306          1.6889
LJ           1.12085        -3.15756         2.31507
LJ          -1.00372        -3.62115        -3.71798
LJ          -3.00373          4.5978       -0.597208
LJ          -3.01509         1.88178         4.92398
LJ          -4.48004         3.29598        -3.69346
LJ           3.03631         -4.8844         1.98583
LJ           3.00564         1.25005        -1.15306
LJ           4.84179         -2.4476         1.65696
LJ           1.97384        -4.51305        -4.86246
LJ           2.57828         5.03693        -4.50987
LJ           2.23173       -0.587119         3.54907
LJ           1.34891         3.05533         3.15143
LJ          -2.55329         -1.1064        0.467255
LJ           -5.5838         4.41688        -4.44739
LJ           -3.7675        -0.18082         5.30586
LJ          -3.44543         1.08322         2.10786
LJ          -6.00942         1.51293        -3.27552
LJ          -1.33684         3.19702        -6.28899
LJ         -0.756581         5.89501        0.180667
LJ           3.81281         1.44184        -4.57226
LJ          -2.68415         3.27041          3.9669
LJ           6.09603       -0.073041         5.01358
LJ          -3.48689        0.445236         4.48077
LJ          -6.42028        -2.11165        -0.81176
LJ          -5.05347         3.03272        -6.40645
LJ           5.79784         1.60509        -4.27649
LJ            2.6307        -3.09099         2.38285
LJ           2.42365         3.64219         3.51635
LJ          -4.39945        -1.84842         -0.6021
LJ          -3.33845        -3.43688         4.11343
LJ            3.1075        -0.61943         -4.0509
LJ          -4.94242       -0.509637        -5.02803
LJ          -2.60016        -4.17426        -1.67731
LJ          -4.88363       -0.527807         5.39266
LJ           2.77594        -1.58025         6.43266
LJ          -2.99003       -0.332077         1.45676
LJ          -4.06755        0.284882        -5.14656
LJ          -2.62321        -2.11533         1.02161
LJ          -1.08152        -1.93836         4.18646
LJ          -3.23631         1.87712         3.29866
LJ         -0.905754        -3.37231          -2.551
LJ           2.33539        -5.57854        -5.75189
LJ          0.271422        0.685045        -4.77404
LJ         -0.064138        -5.77659        -5.66213
LJ           -2.8361        -6.38127        0.787793
LJ           3.12881       -0.339315        0.125324
LJ           6.23853          1.6408         3.13489
LJ          -4.36258         -5.7539        -4.66414
LJ          -1.68712         5.21993        -4.65875
LJ          -2.68106        -5.38375         3.95416
LJ          -5.40549         1.28573        -5.26415
LJ          -0.34523         4.25757         1.08636
LJ            4.2836         3.49906        0.137533
LJ           2.94344        -1.43727        -5.43297
LJ          -4.88541         -4.1073        -6.37372
LJ          -5.42826          3.4704        -4.76009
LJ          -5.12359         3.88568        -2.12549
LJ           5.82278        -4.74138        0.309936
LJ          0.144308        -3.91306       -0.838662
LJ         -0.278043         4.33514         2.41106
LJ          -2.00243        -4.00257        0.972895
LJ          -3.94228        0.863037        -4.04662
LJ          -5.40938         4.36581        -5.72239
LJ          -1.13788        -1.10642        -3.12963
LJ          0.901176         2.52047       -0.353402
LJ           1.04948         3.18781        -6.35059
