108
#Comment!
LJ           2.18987       0.0849205       -0.475087
LJ          -1.45844         5.72848        -3.21034
LJ          0.512698        -5.57609        -1.43415
LJ          -5.88887         2.44462        -4.19975
LJ           4.72281        -5.51223         3.29043
LJ          -5.03523         3.84243       -0.818413
LJ           0.37931         5.79756        -0.19937
LJ           2.62316          3.5814        -6.27447
LJ          -6.28805          4.4309         3.37569
LJ           -1.4505         3.81914         6.29281
LJ          -1.55331        -2.66194         3.09678
LJ          -2.51596         1.90185        -1.85042
LJ           2.32389       0.0323988         2.34084
LJ           3.90899        0.323026         5.17039
LJ          -1.56473         2.71199         6.02583
LJ          -5.73435        -4.64842        -3.13618
LJ          -3.23475        -3.34669         1.73296
LJ          -4.08353         5.45974        -2.90007
LJ          -5.76408         1.48985       -0.248145
LJ          -4.98497        -5.21331        -2.95028
LJ           4.31407        -4.40218          3.7157
LJ          -5.07852        -4.37549         2.48874
LJ          -5.50748       -0.240075        -4.48914
LJ            3.4898       0.0236141         3.14096
LJ          -2.43401         1.50688        0.747599
LJ           -1.3002         0.64111        -2.26796
LJ           4.62603         2.00798        -1.27634
LJ          -1.71845         3.76694         2.81872
LJ           3.81389         4.98879        -3.25625
LJ            3.5858      -0.0805128        -4.29107
LJ          -3.53323        -6.38697        -3.36279
LJ          -2.50187         5.09683          1.3848
LJ          -5.43484          4.5356         0.54033
LJ            4.7043       -0.942529          2.1913
LJ          -1.61317         4.37664        -5.73674
LJ          -4.27131       -0.897857        -5.72123
LJ           4.08579        -2.73713         5.26947
LJ           5.75566        0.363912       -0.264773
LJ           2.67591       -0.814619        -4.01671
LJ          -5.49354         3.01606         2.90384
LJ           5.17821           2.827       -0.102447
LJ         -0.695604         1.92085         2.44085
LJ           5.17133         -4.7819         -2.7475
LJ          -5.83231        -5.91758         1.79311
LJ          -2.64937        0.706168        -5.01839
LJ          -1.58913         5.73822         3.75047
LJ          0.946136        -1.06692        -4.40937
LJ          0.113599         2.39343         6.27891
LJ           4.60618        -3.34054        -1.42137
LJ          -4.23463         3.26769       -0.316252
LJ          -3.95953        -1.02996        -1.20217
LJ           3.76091        -5.29311        -2.78254
LJ           -4.5106         3.50644         2.06007
LJ          -5.91692         4.03153         5.54166
LJ           -1.0135        0.322563         2.02864
LJ          -5.80448         5.10003         2.13842
LJ          0.152022          4.8512         3.28995
LJ          -5.12541         2.13153          5.9674
LJ          -1.66059         2.58936        -5.57453
LJ          -2.26942         1.92545       -0.604645
LJ          -5.12743        -4.32359          1.0593
LJ           -5.8945       -0.175152       -0.737053
LJ           2.61982        -3.00024        -4.07053
LJ           1.71595        0.899082        -1.21114
LJ           6.07817          -3.111        -1.78118
LJ            6.1204         1.81372         4.79308
LJ           2.70315         0.13021        -5.81747
LJ          -6.11925        -6.06991         -2.0038
LJ          -2.47881          1.6805         5.68379
LJ         -0.141683         1.97766       -0.634286
LJ          -3.06575        0.657598       -0.939639
LJ           3.48177         1.84523         3.34778
LJ          -5.30972         1.75771         4.41731
LJ          -5.85207        -4.57234         5.87519
LJ          -4.23043        -4.22468        0.472484
LJ          -2.87866        0.291367         1.05155
LJ           5.46503         -3.3604         2.91086
LJ          -5.54698          -4.824        -1.11806
LJ          -3.81834       -0.309323         4.71394
LJ          -2.21052         -5.9877        -1.49194
LJ            6.2407        -4.24565        -2.96678
LJ           1.27429        -2.31358        -2.91214
LJ          -4.54223        -6.05167         3.87821
LJ          -2.59098        -5.20409        -1.86922
LJ            1.8926         2.45608        -4.55579
LJ         -0.712315        0.309701        -4.25851
LJ           -6.3695         4.14144        -3.37584
LJ          -1.20627        -1.59201         2.86321
LJ          -5.52306         -6.4018        -6.39151
LJ          -5.87249        -5.05685        -2.03147
LJ           1.23559        -4.09467        -6.33258
LJ          -2.39689         4.34285        0.525064
LJ           2.65101         1.73673        0.181076
LJ          -1.13406        -4.16016        -2.61114
LJ           2.07364        -2.50069        0.824475
LJ         -0.501932        -2.74935        -3.06246
LJ          -2.76723        -2.58934       -0.845169
LJ          -2.26807        -3.29705      -0.0642618
LJ           6.00486         3.21138          5.0584
LJ          -1.72628        -3.76406         2.35811
LJ          -5.76064       -0.266294        -6.32788
LJ          -1.29952        -2.07983         3.86349
LJ           5.11378        -2.29613        -1.24915
LJ           -6.4608         4.73714         5.74286
LJ          -3.65801        -3.92564         -5.0566
LJ          -2.25209        -3.79705         1.23162
LJ            2.8632         1.89026        -1.33165
LJ          -6.28683        -1.79458       -0.697309
