108
#Comment!
LJ           1.45455        -4.48826         -5.4347
LJ          -5.56286        -3.22484           6.101
LJ         -0.803719         5.38864        -2.75075
LJ          -1.77934         5.68606        -3.33784
LJ          -4.16017         -2.2254        -1.75592
LJ          -3.40593         6.31284        -3.55785
LJ          0.179992         5.89619         6.20612
LJ           1.76278       -0.154674         1.20617
LJ           2.18347         1.01916         -5.1455
LJ           4.11865         5.32054        -1.03474
LJ          -5.88813         3.38722        0.772253
LJ           4.70898        -3.98027        -2.22424
LJ          -4.60657        -3.69675         0.67254
LJ          -1.52154        -5.17705           1.321
LJ         -0.489122        -5.13598          2.4083
LJ           1.82505         3.45369        -1.11418
LJ          0.465852         1.37576         3.39559
LJ           2.86299         1.30855         2.01563
LJ            3.4584        -6.18174        -6.38357
LJ         -0.149656        -2.68004        -2.84493
LJ          -1.16453         3.81737        -4.79602
LJ           4.84595        -4.12738         3.55852
LJ          -3.66972         3.33977         2.96706
LJ          -1.00835       0.0421392      -0.0281701
LJ          -6.14295         4.56213         5.31078
LJ           2.55328        -4.12041       -0.554879
LJ          -4.06085         2.41323         3.55004
LJ          -2.81695       -0.228277        -2.24897
LJ         -0.398186        -1.25453        -1.06128
LJ           5.12651         2.44157       -0.312979
LJ           3.89908         1.43294        -3.51315
LJ          -2.43341        -3.53034        -3.80985
LJ          -2.25922        -5.81718       -0.844613
LJ          -4.52994        -5.19087       -0.221968
LJ           2.85991       -0.348995         5.16034
LJ          -1.35287        -5.11421        -0.20677
LJ          -1.08538         -6.2853         3.31734
LJ           2.42762         6.28813        -1.52664
LJ          -2.36361        0.953348       -0.545313
LJ           5.45345          2.6531         2.70038
LJ           1.00693        0.103392        -2.97986
LJ           5.57329        -5.90547        -3.12203
LJ           4.65815        -6.11861        -6.17624
LJ         -0.734208         -3.8138        -3.88278
LJ          -1.55293        -5.18762          2.9243
LJ          -3.06618         1.72241        0.865877
LJ           5.39198        -4.63521         4.93995
LJ           -4.2129         4.88556         0.47752
LJ          -5.62518         5.37251        -1.22164
LJ          -5.82149         2.74435          3.1355
LJ          0.363506        -3.72283         5.99069
LJ          -4.34566            2.36         2.47538
LJ          -2.10581         2.47001         4.85447
LJ          -1.72077       0.0517162        -3.99998
LJ          -2.98982         5.41734        -3.02524
LJ          -4.24148         5.23288         6.00943
LJ           3.61016         -2.8628         4.20338
LJ           5.97806         5.33311        -4.46361
LJ           3.72561        -1.42583         0.57569
LJ           0.62173        -5.90167         4.99118
LJ          -2.24461        -4.21449        -2.63125
LJ           4.82213         5.33016         6.07343
LJ           4.07292        -5.15264        -1.72201
LJ          -3.90196          5.1815        -1.00651
LJ           4.33467        0.843689         2.69691
LJ          -4.98061         -5.0566         4.13895
LJ          -5.96385        0.728827         4.31904
LJ          -6.41385         4.76445        -1.35378
LJ           -3.1751        -5.85335         6.34124
LJ          -4.85172        -5.65564         -4.0972
LJ           3.51058        -1.70808        -3.36889
LJ         -0.508786        -5.80897        -0.77565
LJ           1.08372        -1.45157         -4.6111
LJ           4.23346        -6.33897       -0.867796
LJ           5.82297        -3.79556        -1.57767
LJ           3.32691        -5.38402       -0.927604
LJ           3.27297        -6.44269         2.67663
LJ          -2.44641         -2.6754       -0.837647
LJ          -5.27792       -0.358995        -3.71868
LJ           6.11796         2.25578         -4.5817
LJ          -0.15215        -2.08397        -5.40575
LJ          -2.93728         5.38633        -1.25282
LJ          -5.83473         4.04403           2.335
LJ          -2.87916          1.9794        -1.77185
LJ           5.71155         2.97415         -3.2272
LJ           4.97166        -5.72964       -0.736068
LJ           -1.3183        -1.47481       -0.574355
LJ          -2.07029        0.226687         5.64327
LJ          -4.12812          1.3553       -0.502907
LJ           -4.5254          4.0228       0.0519538
LJ            2.7016         2.68186         1.61278
LJ           4.15004        -4.94964         3.96618
LJ           2.55227        -4.37895        -3.28184
LJ          -2.28733        0.671046         2.76616
LJ          -6.27743       -0.704628        -3.35147
LJ         -0.979629        0.948194        -3.32359
LJ          -3.82561         5.48484         4.40979
LJ          -3.06637        -4.84265         2.57935
LJ           2.27366        -5.63672         4.79697
LJ           4.89277         1.50295        -4.98997
LJ           3.64068        -4.12411        -2.45207
LJ          -4.55385        -1.79054        -4.22117
LJ         -0.707075         1.68099        -2.42127
LJ           -1.9164        -2.72534        -6.43097
LJ          -4.54274         3.67595        -1.21866
LJ          -4.37984         2.96931        -3.99016
LJ           3.31375        -1.02159        -4.83749
LJ          0.824415         1.31649          2.3236
