108
#Comment!
LJ          -5.06025         4.02212        -6.23803
LJ           5.45264         1.27689         -2.6156
LJ         -0.558744         4.18151       0.0089909
LJ           3.63692         1.37327         5.53389
LJ           3.34541        -5.84808        0.147433
LJ            3.9171        0.315663          4.0806
LJ          -2.76681        -3.24502         1.36135
LJ          -2.67309         5.25419       -0.204916
LJ           5.09931       -0.908439       -0.329766
LJ          -5.14427        -5.52841         5.17242
LJ          -6.42134       -0.912955        -4.60228
LJ          -3.76644         6.07538         6.24391
LJ           3.12168         1.17178         1.34442
LJ          -4.38552         -3.8612        -6.12689
LJ          -3.06461         2.94009         4.86374
LJ         -0.303687         1.34081        -2.83376
LJ           5.56341        -3.28046        -2.21986
LJ          0.640187         1.91074        -2.24062
LJ           4.70221        -2.40231         4.99987
LJ           -1.9377        -5.18026         4.30523
LJ           1.91819        -1.73842         5.13395
LJ           5.59169         3.72483         1.71643
LJ           2.97876          4.4136        -5.13845
LJ          -4.84819         4.58442         4.24613
LJ           2.11616        -3.96756       0.0044963
LJ          -2.99078         6.05124        -5.27454
LJ           1.48628       -0.249102        -4.43272
LJ          -4.94941         3.46399         1.49242
LJ          -2.86327         3.52524        -3.35578
LJ          0.064875        -1.24632         3.71741
LJ           1.04883         2.97332         6.00357
LJ           3.26634         6.10941        -1.67754
LJ           1.80014       -0.119922       0.0727242
LJ           4.78472         -1.9056         2.94615
LJ           4.22357          2.3237       -0.473835
LJ          -3.76377        -5.02376       0.0839409
LJ          -2.86168        -2.01339        0.262606
LJ          -5.51225        -1.12778          6.3801
LJ         -0.732464         1.19144        -5.51321
LJ          -2.87205        -2.08859        -1.98233
LJ          -5.81216         1.53241       -0.874186
LJ        -0.0401335         5.47151         2.15764
LJ           1.88297        -3.29258         5.01503
LJ          -4.06381         2.06886         1.65895
LJ         -0.580669        -4.95781         4.76596
LJ            2.1769         5.87215        -4.09805
LJ          -2.35485         5.28963         4.36385
LJ           4.40914        -3.67188         2.95788
LJ          0.898814        -5.67227         2.89814
LJ           2.29879        -6.22402        -2.88712
LJ          -0.66563        -4.85599        0.602721
LJ           5.72872        -5.06685       -0.460528
LJ          -2.35828         2.95248         4.03539
LJ           5.54249        -6.27308        -5.56291
LJ           4.83851      -0.0460982         4.23984
LJ          -5.34381        -5.01402        -5.60038
LJ          -4.58316       -0.472747        -5.96732
LJ          -5.70737        0.731272        0.882879
LJ           4.45794       -0.132166         5.34639
LJ          -5.95501        -6.26681         5.53754
LJ         -0.530033        -3.67506        0.758641
LJ          -3.21056         -2.2854        -5.07175
LJ         -0.529346       -0.040232        -6.25878
LJ           -1.4319        -3.79781         4.38413
LJ          0.647899         5.38223        -6.26065
LJ           4.18227        -6.23088        -2.92512
LJ           2.75636         1.66135        -3.37574
LJ           5.79886         3.98095        -2.99126
LJ         -0.845419        -6.00836        -5.95516
LJ         -0.320881         4.83152         1.24551
LJ          -1.93326        0.292497         3.01619
LJ          0.648492       -0.485671         5.68818
LJ          -1.96886        -1.31482         1.67344
LJ          -2.88685         4.05606        -0.83626
LJ           -2.0728         2.46977        0.796316
LJ           5.25305         6.42247         4.14504
LJ         -0.427597       -0.972371         2.03676
LJ           1.47677        -4.30942        -3.48705
LJ          -5.65071       0.0250283         4.50989
LJ          -3.53246         6.30017        -3.63405
LJ          -2.16062         1.52933        -5.98381
LJ          -2.17575         -2.4858         2.99116
LJ          -1.45582        -2.60897         4.49116
LJ          0.193056        -2.02134         2.07186
LJ           2.65989        -4.27783         4.23751
LJ           4.63441         2.60474        -5.29877
LJ           4.11471         3.08921         3.49016
LJ          -3.41039         3.77439       0.0365308
LJ          -6.02497         1.55308        -2.48564
LJ          -6.29607         4.06507        -4.90563
LJ          0.514156         3.54435         3.03088
LJ          -2.44984        -6.03227        -4.06908
LJ           5.75692         2.29805         5.44841
LJ           1.78197         2.05802         5.73846
LJ          -5.91197        -1.13508        -1.28388
LJ          -3.09466         5.39262         0.75755
LJ           2.41454         2.43087        -5.08276
LJ           1.47434       -0.343787         2.29437
LJ          0.822442         6.43364        -5.54574
LJ          -4.02605         4.53139        -4.38239
LJ           3.49094         -4.8173          2.1937
LJ           -4.5995        -2.94915         2.62943
LJ           4.23262         2.00357         3.97333
LJ           1.29809        -4.33821         1.95784
LJ         -0.322391         2.11801         1.10745
LJ          -4.76048       -0.679123        -2.53961
LJ          0.714507         2.17003          5.2599
LJ          0.036667        0.725988       -0.315227
