108
#Comment!
LJ          -3.85682         5.70907        -5.90541
LJ         -0.835558         2.34413        -5.76759
LJ           3.60708         1.71883        0.903436
LJ          -3.13682         5.36957         -2.9298
LJ          0.557064        0.268982         3.39107
LJ          -3.00482         -3.6984         4.45414
LJ          -1.16211         6.26133         3.36215
LJ           4.96264         2.78982         1.30506
LJ           2.94434         1.18263         4.24895
LJ          -4.61779       -0.736648        -6.19561
LJ           4.16805         -1.7452         3.77444
LJ          -5.64289         5.09079        -4.46331
LJ          0.182344         4.11257        -2.10609
LJ          -5.32653         2.17869        0.419105
LJ            3.1204        -5.05776         2.77958
LJ          -3.77526        -5.52614       -0.867993
LJ           -6.3052         1.40861         3.37919
LJ           1.05236        0.466425        0.794503
LJ          0.667646        0.470983       -0.717115
LJ          -4.51203        -1.24009        -2.93238
LJ           3.93429         5.12603         -6.3265
LJ           1.15312         6.43121        -4.91343
LJ         0.0111867        -2.67112       -0.167012
LJ          -4.29356         5.42765        -4.90129
LJ           2.34246        -3.14711          4.5768
LJ          -1.03628         3.30915        -3.54465
LJ          -3.82112        0.969251        0.315021
LJ           6.32194         2.37651         6.12898
LJ           2.60213         4.49895        -1.50107
LJ          -4.38533        -1.48737        0.605003
LJ           3.42146        -0.40953         2.67001
LJ          -1.96781         1.69105         3.58419
LJ          -5.95123       -0.544007        -5.13013
LJ           -3.9559        0.875799         6.30729
LJ           -2.2746        -5.77995         3.56059
LJ          -2.58009        0.863019         3.67321
LJ           6.10002        -1.46035        -5.97653
LJ           1.18403         2.08804        0.256622
LJ         -0.304725        -2.60696         5.00379
LJ          -4.16659         5.45371         2.09093
LJ         -0.363793         4.15571        0.337688
LJ          0.174505         1.44803        -6.10676
LJ          -1.01293         5.27902        -2.66103
LJ          -3.52557        -5.19833        -3.98665
LJ          -5.98869        -5.32459         -6.1646
LJ           6.42971        0.350174        -2.75092
LJ          -1.66282         -1.5693        -1.74424
LJ           2.19247         1.49749          2.7979
LJ           3.08181         1.13381        -2.47028
LJ          -5.82725         1.72092        -2.11123
LJ          -6.00648         5.55522        0.778539
LJ         -0.807315         5.08187         3.48707
LJ          -1.68164        -3.69992         0.27164
LJ          -5.60482         2.17519        -6.36363
LJ          -6.29848        -4.37296        -4.10749
LJ           6.17651         6.21258        -3.78911
LJ          -3.98772        -5.31962         2.29002
LJ          -1.95172        -3.61967        -1.74877
LJ            6.4135        -5.42332        -2.66563
LJ          -0.72489         1.95265       -0.229895
LJ          -4.42917         6.09828        -2.46594
LJ          -1.83407        -4.86195         1.63757
LJ          -1.82086        -2.58925        -2.18971
LJ         -0.865459         3.95908          1.6996
LJ            4.1222        -1.91487         5.63006
LJ         0.0217628        -1.48404        -4.57726
LJ           3.26923        0.241564        -4.16028
LJ           -2.5752      0.00691385         5.83964
LJ         -0.194608        -6.05137         4.83691
LJ         -0.708366         6.16121        -3.29151
LJ          0.657181        -3.52473       -0.333978
LJ          0.606389        -2.61545        -6.01176
LJ          -1.88178        -4.03674        -4.21105
LJ           2.53572         3.59707        -4.53433
LJ            3.6432          1.7149         6.28776
LJ           1.97624        -3.65343       -0.228217
LJ          0.987576          1.3868        -1.20644
LJ          -4.09589        -4.09242        -6.15029
LJ           -4.6374        -5.39414         3.74464
LJ          0.214839       0.0732948          5.9781
LJ          -1.97713        -2.86006       -0.725644
LJ          -4.64519        -4.10552         3.47201
LJ         -0.349249         1.91627         -3.5473
LJ          -4.80935        -4.63676        -1.29711
LJ           1.44571         1.01199         4.82311
LJ         -0.644547        -1.32326          2.5401
LJ          -4.97478         5.62104         6.35249
LJ          -5.18405       -0.284218        -2.87733
LJ          -5.04877          -3.533         6.43391
LJ          0.411615        0.482174          4.7528
LJ           1.64743        -1.16941        -3.81143
LJ         -0.117831        -3.14814        -5.87559
LJ          -3.03039         2.12946         2.12917
LJ          -6.21028        -2.82988         3.53848
LJ           4.65672         5.34774        -4.18664
LJ          -5.35195        -1.49836         3.49211
LJ           5.23278         5.34513        -5.07287
LJ          -5.89631         5.48913       -0.380639
LJ            1.0202        -4.61073          4.0934
LJ          -1.90067         4.96072         5.54666
LJ           3.99661        -1.09956          -5.572
LJ           4.68691         6.33526         1.22837
LJ           4.14979        -4.39433         3.50003
LJ          0.389803         4.01662         2.09377
LJ           2.95848         4.62736           6.231
LJ           5.35295        0.968353        -4.67819
LJ          -1.97557         1.36243         1.28765
LJ           3.16671         4.29431         5.38663
