108
#Comment!
LJ           2.91118         3.45236        -4.14865
LJ           3.57873         4.45728       -0.503245
LJ         -0.113433        -4.46331        -3.81214
LJ          -1.61482        -3.80909        -4.51436
LJ           3.98489         4.75969        -2.53602
LJ           2.32716         2.93237         6.04463
LJ          -4.14105        -3.37708         1.71198
LJ           1.11123         4.62138         4.59986
LJ           4.79389        -1.46529        -2.34569
LJ          -3.50022          5.6552         5.54843
LJ         0.0960203        -3.18545          3.8006
LJ          -3.65937        -6.09493         6.20147
LJ           3.67062         4.77448        -3.94237
LJ          0.149731        -0.38415        -4.87043
LJ          0.329765         3.52051        -5.93822
LJ        0.00654888         5.27461         3.47503
LJ           1.71369         6.07401        -2.29156
LJ           2.12215         1.17643        -1.51206
LJ           2.19809        -4.41169        -5.95419
LJ          -3.07716        -2.00341          3.0137
LJ           3.68464          5.4302        0.047677
LJ          0.116223         1.17261        -3.64759
LJ            -4.817        -4.92017         2.30399
LJ          -2.88693        -2.26681        -6.18186
LJ           4.88455        0.176472         1.07421
LJ           2.94772         2.24201        -5.16253
LJ           1.16839          1.7002         -3.7332
LJ           1.85611         1.51151       -0.696222
LJ           2.33711         0.91484        -3.54648
LJ           3.36467         3.36726       -0.564619
LJ          -1.02393         5.38516          3.7061
LJ           5.62354        -3.67543        -5.55206
LJ          -4.58864         3.33576         2.75619
LJ           2.75634         5.34799         3.58807
LJ          -1.33241          5.8053        -0.80165
LJ          -3.33607         6.04575         3.76696
LJ         -0.129172         5.99968        -5.48631
LJ          -3.10153         4.79356         3.36701
LJ          -4.03783         1.56742         5.89407
LJ        -0.0239246       -0.519854         3.36753
LJ            5.9441       -0.694724         1.51433
LJ          0.623956       -0.370591        -3.90467
LJ           1.34491         2.96041        -3.73699
LJ          -3.64153        -3.14608        -1.47602
LJ         -0.870603         1.04665         2.21115
LJ          -3.94909        -3.76053        -5.62617
LJ           4.92492        -2.32003        -1.65967
LJ           4.26771         1.12702         4.71916
LJ           3.59159        -5.76753        -4.51565
LJ          -1.65291        -3.81981         1.64121
LJ           1.11595        -2.45259         3.45277
LJ          -4.38025         3.10762         5.33413
LJ           3.24868         2.32559        -0.35658
LJ           5.30368        -5.86918         4.36845
LJ          -5.68161         4.83161        -4.35904
LJ          -5.28809        -3.72992         5.20733
LJ           -5.3035           6.438         4.25849
LJ         -0.505862         6.03904         6.29217
LJ          -3.95896         5.67554         6.44583
LJ           5.51466          1.0589        -4.41027
LJ           3.14951        -3.77474         1.62698
LJ          -3.83958         4.28732        -2.81463
LJ          0.453923         5.87263         1.79205
LJ           2.45457        -5.70991         3.67859
LJ          -5.46925         2.12581         1.99544
LJ           2.27887         6.40501        -3.54716
LJ            3.8569        0.467818          2.3032
LJ          -3.47536        0.552928        -4.99162
LJ           3.39209          2.1493         4.60375
LJ            4.1324        -3.13282        0.728504
LJ           4.85386         3.99545        -4.94133
LJ          -3.17082        -1.15657         0.32954
LJ          -4.28633         -1.3934         2.44708
LJ          -1.98969       -0.890567        -3.90032
LJ          -1.46511         2.49026         1.81206
LJ        -0.0882923        -1.46325       0.0837177
LJ          -1.42721         5.34348         2.79378
LJ           1.63699        -4.83192        -1.12596
LJ           2.60328         4.33525         6.02027
LJ           -6.0696         -3.3862        -3.98029
LJ          0.749784          4.8655        -3.48665
LJ           2.32152         4.00929         -2.0391
LJ           4.43615        -1.42053         4.99181
LJ           -1.2836        -6.28065         2.77899
LJ          0.441126        -1.63314        -1.03771
LJ          0.890614       0.0596456        -2.45453
LJ          0.370022        -1.85924         1.92709
LJ          -3.78426         5.48039        -3.61739
LJ           1.00342         4.90749       -0.316277
LJ          -4.91119        -2.61546         1.05178
LJ          -4.14357        -2.20768        -1.25646
LJ           3.93768        -1.70479        -3.80532
LJ            6.3568         5.60226        -5.21223
LJ          -2.92335        -5.87299         4.05334
LJ          0.425707          1.3789         3.10781
LJ          -6.44769        -4.44923         1.86857
LJ           4.54951        -3.71285         2.82092
LJ          -1.24749       -0.358702        -6.27223
LJ           2.62319         5.85457        -1.59185
LJ          -5.66645         5.27381         6.34265
LJ           3.29674        -1.44996         4.79168
LJ            5.1709       -0.490725        -3.76233
LJ           1.64662        -2.27253         5.01256
LJ          -2.05708         4.49156         3.04579
LJ           -1.7905        -3.39446        -1.75956
LJ           4.59721       -0.851648         1.58385
LJ           3.48584         5.19571         4.36059
LJ           5.06449        -6.21955         5.67016
