108
#Comment!
LJ          -2.34999          1.9907         6.21629
LJ         -0.445921         6.01684       -0.125849
LJ           1.19618         3.81982         6.05997
LJ           2.95781        -1.33124        -4.55686
LJ           -5.0339       -0.157122         1.67426
LJ       -0.00376208        -5.95342         6.13569
LJ          -5.51989       -0.117023         6.29667
LJ          -1.81479         5.65106         5.73036
LJ            3.7246         1.12033         6.35306
LJ            4.4097        -4.34193         5.05246
LJ          -3.72371      -0.0618061       -0.345204
LJ          -1.31817        -2.33227         4.93011
LJ         0.0640359        -5.70306        -5.12277
LJ           0.81168        -5.22917         5.61956
LJ          -2.95704         4.32442        -3.01694
LJ          -1.77244        -5.89715         1.45352
LJ          -4.06287        -4.30351        -1.52988
LJ          -2.04778        -4.89705       -0.632137
LJ           1.67424        -1.17928         2.95326
LJ          -2.81953         1.97772         2.25131
LJ           6.02667         5.85619      -0.0763116
LJ          -2.65647        -6.19204         6.43299
LJ          -5.13585        -5.07344        -3.88119
LJ          -1.51083        -4.78456        -1.45602
LJ          -5.04615        0.986762       -0.439594
LJ          0.584378        -4.74113        -3.46506
LJ           2.59705         1.27668        -1.84089
LJ           2.86827       -0.883886         5.87016
LJ          -6.18781         3.90285         -4.0015
LJ           5.49794       -0.918992         5.14236
LJ          -3.88911        -1.12387         3.67475
LJ           1.88782        -4.36231         6.03888
LJ          -2.64467        -2.63814         6.13459
LJ           4.68538         6.38105       -0.496117
LJ          -4.83899        -1.14937        -5.15867
LJ           4.10892        -5.41812         2.19515
LJ           4.50803        -5.35285         3.94139
LJ           1.84103         4.01707        -1.07882
LJ           4.63421          1.5945        0.641509
LJ           5.33162         6.41316        -4.13256
LJ         -0.323333         -3.3823         1.70132
LJ         -0.353458        -1.19398        0.818455
LJ           -3.3917        0.168583        0.626775
LJ          -4.08415         5.38666       -0.465178
LJ         -0.448625          1.7948        -1.05091
LJ           6.41439       -0.230582         2.04787
LJ          -5.35683        -2.66314         1.60896
LJ            1.8693         4.77243        -1.57221
LJ          0.655195        -2.05141        -1.07182
LJ          -1.13529        -6.32393        -4.95814
LJ           4.73024        -2.30935        -5.36847
LJ           2.44083        -5.66985         1.57905
LJ          -3.32133         5.02885          4.6125
LJ          -3.00626         4.62922         6.04885
LJ          -4.11123         1.04718        0.912245
LJ         -0.892784        -2.81361        -4.72044
LJ          -6.40414        -3.44325        -0.51366
LJ          0.618246        -5.85477         3.18312
LJ          -1.88054        -5.15949        -5.41703
LJ           5.08312         2.87945        -4.54262
LJ           2.53143         4.42841          5.6835
LJ          -1.50777        -4.60172        0.222633
LJ           4.95464         1.44861        -4.84415
LJ          -6.27637        -1.95663       -0.312629
LJ          -5.83705         2.77631         4.13359
LJ           3.04962         3.96333         6.42345
LJ            6.3542         6.00368        -5.14245
LJ           3.32627        -3.33015        -3.93998
LJ           4.67189        -5.39832         5.74917
LJ          -5.15467          1.8538          1.9859
LJ          -3.06913        -5.33999       -0.964608
LJ          -5.88593        -4.05148         6.22176
LJ           1.05034         5.31065        -4.58861
LJ           1.62068         6.09321       -0.854745
LJ          0.634699         0.87363         1.46891
LJ         -0.789543         1.07084        -4.29828
LJ          -2.20961         -2.2959        -1.15142
LJ          -3.53935      -0.0647288        -4.70994
LJ          -2.01304        -3.87951        -1.81805
LJ          -5.03682         5.73993         2.01628
LJ           6.07666         3.19088         3.56794
LJ           1.37978         1.13351        -6.13815
LJ          -6.13801       -0.966145       -0.233888
LJ          -2.89314         5.63168          2.4971
LJ           5.03216         3.78492          4.1069
LJ          -3.19235        0.217646         -3.2893
LJ           3.37523        -5.61607         6.22938
LJ           -2.8689         -2.5598         1.37636
LJ          -6.08506        -1.81061        -5.38291
LJ           1.27054         1.97316         4.26169
LJ           4.56674        -1.25934        -4.41869
LJ           2.97522         -2.7623         1.87572
LJ           2.04559       -0.173076         4.87734
LJ          -6.29146        -3.22867         -6.2939
LJ           2.36632         6.38163        -2.76764
LJ          -2.55869        -3.06527        -2.79446
LJ            5.0241        0.984094         4.18664
LJ           4.89153          2.2134         2.37364
LJ           5.41599        -4.50674        -4.12918
LJ         -0.259355         3.36486        -0.11899
LJ          -2.73162        -3.41788        -6.07442
LJ          -3.35879        -2.57877         3.64621
LJ           5.62423        -2.43781         6.00561
LJ          -5.60773        -5.79035        -3.14502
LJ          -3.12729        -4.71022         6.05046
LJ          -2.39386         -5.1962        -2.06674
LJ           5.87623         5.37869        -2.95071
LJ           2.09772         -5.3081         3.24454
