108
#Comment!
LJ          -4.58306       -0.844281         4.73607
LJ          -3.19239         5.43254         4.48797
LJ         -0.050568         2.83075        0.501637
LJ           4.43117         4.81237        -4.95877
LJ         -0.756636        -5.97913        -5.54138
LJ           4.58192        -5.21809         2.05886
LJ          0.091186       -0.815199        -4.39003
LJ           4.68552        -3.96778         4.64154
LJ           3.58167         1.69386         3.86186
LJ           5.95277          2.1227         4.25239
LJ          -3.31529        -2.90245       0.0967026
LJ          -5.66987         0.62868        -5.51666
LJ         -0.347074         5.80136       -0.188569
LJ         0.0564842        -0.11477       -0.299142
LJ          -2.93143        -1.78157        -4.01936
LJ        -0.0828812         4.36227         1.47169
LJ         -0.962813         5.99065        -1.40034
LJ          -6.36969        -1.54091         3.58649
LJ           5.90847       0.0969862        -4.48115
LJ          -2.78147         6.38443        0.258357
LJ          -2.38623       0.0645217         -4.1225
LJ         -0.601799         5.85028        -4.66895
LJ          0.957273        -5.66317           5.381
LJ           5.28651         5.00926         -1.6625
LJ         -0.458425        -3.08058          4.7243
LJ            3.8764        -1.43124      -0.0117839
LJ           1.31863        -1.69883        -5.22835
LJ          -2.32328        0.990506        -3.16387
LJ          0.228435          1.3935         1.14608
LJ           5.23723         4.00944        -3.54132
LJ          -1.48563        -2.19435         1.37592
LJ            2.9395         -2.2002         1.52386
LJ           4.80013         5.12113         3.63485
LJ           2.09691       -0.713022         5.27771
LJ          0.715413         1.54097         2.49801
LJ          -4.83253         5.86282       -0.946685
LJ          -3.81285        -1.79686        0.175635
LJ           1.53285         2.50736         1.97604
LJ           2.81901        -1.09819        -5.44568
LJ          -1.95079         4.22281        -3.66263
LJ            3.0142          2.1283        -5.90897
LJ           6.00597         2.38125       -0.516991
LJ         -0.284447        -4.61872         -5.3669
LJ           4.00589         4.61852         3.53298
LJ          -6.28114         6.41068       -0.984657
LJ           2.03535         4.30998         4.31753
LJ           -6.4596       -0.743036        -5.77824
LJ          -5.26519       -0.401952        -2.50377
LJ            2.8268        -1.15669         5.98404
LJ           2.30774         3.33402         5.10877
LJ          -5.47706        -4.06701        -0.94294
LJ           5.17282        -3.72123         2.34243
LJ          -5.54374       -0.107888         4.79159
LJ          -6.23823         6.31794         5.97594
LJ         -0.493671         3.38645         1.88695
LJ          -4.61776         -3.1406        -2.51437
LJ           4.18093       -0.648695         4.82533
LJ          -3.50112        -2.57741         1.84122
LJ          0.984734       -0.253465         3.77041
LJ           1.19606         6.16149         4.72007
LJ          -3.95803         5.38629         4.01723
LJ          -2.84887        -4.23572        -3.48629
LJ           -2.5174        -4.32075        -1.65142
LJ          -4.77888         6.31892         4.53135
LJ           3.59115       -0.555945        -6.06198
LJ          0.436471          5.8506        -3.96657
LJ         -0.296241         5.40075         4.80889
LJ           1.35019        0.367453        -2.20471
LJ           1.34884       -0.913184        -4.66436
LJ          -4.28229         1.04033        -3.26438
LJ          -6.32301        -5.02314          1.3379
LJ           2.07105         -4.0737         5.89601
LJ            5.9324        -2.85813         1.77022
LJ            3.6082       -0.427294        0.314023
LJ           2.42482        -5.03655        -2.30591
LJ          -4.34239        -5.64198        -5.63742
LJ         0.0888036        -3.86602         4.33148
LJ           5.09909         0.57177         3.73149
LJ          -1.93713         5.43778         3.80199
LJ           1.98622        -3.98616       -0.711155
LJ          -2.24498         3.77855         3.16459
LJ           2.36771        0.513136        -5.27261
LJ          0.165408         3.81838        -2.92315
LJ          -3.60202        -3.89964        -6.05331
LJ           2.20115         4.61511         2.44606
LJ          0.815529         4.69982         2.81612
LJ          -2.17367         4.82869          4.7744
LJ           6.02159        -2.23285         3.03784
LJ          -3.54099         4.91427         3.20759
LJ           3.81763       -0.367888        -3.62243
LJ           2.58242         2.44697         3.08339
LJ          -1.45254        -1.94488         3.42385
LJ         -0.364174        -6.43307         4.39818
LJ          -2.23546        0.273443         3.71619
LJ          0.303597      -0.0404536         6.29897
LJ           2.31837        -5.60089        -4.65953
LJ          -3.92653         5.97617         1.44837
LJ         -0.389788       -0.162656         1.48541
LJ          -5.09521         4.14688        -4.99854
LJ          -5.02124         3.30913         4.50503
LJ          -5.21949         1.95689        -4.41285
LJ          0.556929         2.15981         6.42853
LJ          -3.53373          -1.177         1.28353
LJ           3.67921       -0.707693       -0.931806
LJ           3.86701        -3.70286         -4.3888
LJ           1.47734         2.38024        0.628648
LJ         -0.434728         1.56798         4.49191
LJ          -5.16783         1.95309        -3.32682
