108
#Comment!
LJ            3.8436        -3.91893        -2.14542
LJ          -3.99001        -2.64118        -4.25475
LJ          -1.11568         1.33057        -1.65316
LJ           1.54654        -1.28621        0.694009
LJ         0.0172885        -4.46773       -0.317128
LJ           3.23839         2.19098        -6.12134
LJ          -6.15138        -1.83938       -0.745689
LJ          -5.67286         2.40681         4.52049
LJ            3.4087        0.916984         1.48121
LJ           -4.6809        -3.96776        -5.76687
LJ          -3.68886         3.98874          5.4546
LJ          -1.01289         4.26339         3.83001
LJ            -2.149         3.94662         5.58592
LJ          -6.25342        -6.45234         -1.8244
LJ            3.9369         4.41423         4.61725
LJ           5.98996         -5.8694         3.82771
LJ          -5.90395        -3.07048       -0.429094
LJ           3.52533        -6.45839        -2.10514
LJ           1.95754        -0.71708        -2.24141
LJ           1.46872         5.14368        -4.77026
LJ           4.42363        -2.15056         1.52691
LJ          -2.37998          6.0488      -0.0558361
LJ           1.78459        -4.41436        -2.52955
LJ          -5.00784         5.94056         6.32028
LJ           -1.5951        -4.30503        0.102774
LJ          0.138281       -0.844377         4.30381
LJ          -5.77662        -2.98873        -5.10313
LJ           -5.6562       -0.835259       -0.380286
LJ          -5.69538        -3.01654          -2.916
LJ            3.3982        -2.32365         3.21414
LJ           1.93624        -3.87446         1.44123
LJ          -2.31547         1.46041         5.48998
LJ          -1.97364        -4.43501         -2.9629
LJ          -3.81102        -3.68511         5.24787
LJ           3.37541         1.50686         3.64449
LJ          -4.11796         1.98231        -4.01492
LJ          -3.06374        -3.61064        -3.63164
LJ          -5.46325        -5.78635        0.169515
LJ          -4.67673         6.12637        -3.41052
LJ          -2.34196        -5.92118        -2.42436
LJ           -4.4546       -0.735506       -0.937748
LJ          0.790189         1.23215        -0.52442
LJ          -4.39387        -3.39608        -4.73102
LJ           -1.0451         1.38903          5.6182
LJ          -6.29535         2.41988          2.5348
LJ          -5.87741         5.78764         -3.6315
LJ           6.25543        -3.36227         3.40499
LJ          -3.16751         2.68999         4.83389
LJ          -1.93289        -4.19028        -5.81555
LJ          -4.66262         2.72358         3.77357
LJ          -4.51402        -4.33154         -3.4985
LJ           4.53847         3.99599        -3.90545
LJ           5.32173         4.06492         2.95769
LJ           5.13229        -6.28801        -5.29988
LJ           3.68601         3.98552         6.41116
LJ        -0.0705609        -3.65624         1.68605
LJ         -0.720051         4.76465         6.45844
LJ          -2.72957        -5.00971        -3.43371
LJ          0.413051        -1.43904        -1.93859
LJ            3.5883        -5.25559         1.33923
LJ           6.16812         1.01965        -3.86269
LJ           4.12729        -5.89508        -3.16171
LJ            3.6401        -4.06289         3.28508
LJ         -0.315679         4.17575        -3.26611
LJ           5.96355         4.16159         0.86139
LJ           1.30894       -0.732348       -0.490877
LJ          -4.75201        0.414722        -2.51221
LJ           3.30905         4.04315          2.1802
LJ          0.351603        -2.42056        -2.51736
LJ           5.34548         3.74157         5.71021
LJ          0.696556         2.07429         5.76307
LJ            2.5367        -1.75656        -5.78635
LJ         -0.383066          2.1278        -6.32462
LJ          -4.54565        -4.80441          2.5325
LJ          -5.02001        -2.21636        -5.95144
LJ            3.3177         3.49642         4.43402
LJ         -0.909345        -5.69381         5.30589
LJ           4.36234        -4.42502        -6.13208
LJ          -1.88344         5.47734        -3.76447
LJ          -1.75827      -0.0663194         3.03082
LJ           2.79318         2.33005         2.69723
LJ            6.1065         3.09567        -4.28712
LJ           1.41279         -5.9859        -1.33691
LJ           2.72958        -1.19788        -1.83367
LJ          0.331654        -1.93564         6.23427
LJ            6.2847        -3.12032        -2.48185
LJ           5.26719         3.80131         1.88362
LJ           1.25094       -0.725235        -4.54263
LJ          -3.96789        -6.22799        -2.51119
LJ          -6.01904         -5.2139         3.50766
LJ          -4.45302        0.167018         4.43638
LJ           1.45508        -2.08382        -2.17341
LJ          -1.66458         1.78032       -0.798021
LJ          -5.93901         -4.1975         4.87668
LJ          -6.17932        -5.49894         6.31769
LJ           4.52739         1.60352       -0.562353
LJ          -5.42847         1.75189       -0.206258
LJ           4.52308        -2.38169        -6.03522
LJ           1.25313         4.41549        -2.89264
LJ          -2.51498         1.76205        -6.22974
LJ           2.12517        0.771072         3.40775
LJ         -0.471479         6.31419         -6.1377
LJ           4.17071        -3.41834         1.33113
LJ          0.968838         2.08705         -3.8972
LJ          -1.24447        -5.68319        -2.63585
LJ         -0.359215        -2.50314        -4.71848
LJ           5.51277        -5.25964        -4.98695
LJ           -3.6949        -4.82097         1.63463
