108
#Comment!
LJ           2.19402        -2.84154        -4.04537
LJ           6.16047        -3.86306        -5.63853
LJ          -6.12802         6.19443        -5.41672
LJ         -0.847191        -4.88316         5.56335
LJ         -0.332402         1.58942        -2.01615
LJ         -0.212332         3.57252         2.55215
LJ         -0.368153        -0.39786          2.7681
LJ           1.54075         2.07699        -5.35602
LJ           1.33003         -1.3006        -4.10732
LJ           2.63595         3.93469         -3.3614
LJ          -5.71022        0.639867        -2.11057
LJ           -6.2997        -1.82891         1.53811
LJ          -3.67217        -5.59252        -4.78837
LJ         -0.849896         2.30624        -3.33809
LJ          -3.43895        -6.38402         4.50037
LJ          -1.70948         4.07251         -2.8108
LJ          -4.17075         1.63715       -0.670024
LJ          -5.67823        0.568971        0.695236
LJ          -6.07336        -3.02357        -4.88354
LJ           1.42305        0.979184         5.16548
LJ          -1.13984         -5.9428          5.3234
LJ           5.05304        -4.24254         5.30695
LJ          -3.52265         2.23177         1.20683
LJ            6.2628        0.122794         2.89404
LJ          0.644936         2.17951         2.30976
LJ          -6.21428        -1.86359        0.166145
LJ         -0.655716         -2.9759        -4.15992
LJ           1.15411        -2.44436        -3.24646
LJ          -3.48386         2.43285         3.25353
LJ           -0.1428         -5.3128         3.65068
LJ           5.30988       -0.183845        -0.22345
LJ         -0.937257        0.262783        -3.29976
LJ           3.36665        -3.93631        -3.96245
LJ          -2.50052        -3.23026         -6.0225
LJ          -2.12578        -4.68665         3.11528
LJ          -1.17099        -5.29841        -2.36412
LJ          0.333399        -2.37336         4.86628
LJ           3.14692        -2.75924        0.252357
LJ          -4.17218       -0.355747          1.7607
LJ           2.14731        -1.29638         1.32975
LJ           1.26647         1.71511       -0.454355
LJ          -4.25955        -4.75501         1.46093
LJ           1.10549        -4.82483        -4.42733
LJ          -6.34264       -0.387282        -2.51003
LJ          -2.85188        -4.50447        -2.37014
LJ          0.804954         5.04714          -2.366
LJ           5.83563         4.58297        0.982429
LJ          -1.85534        -4.90253         4.59531
LJ          0.367565        0.803502       -0.233405
LJ         0.0156846       0.0979051       -0.917485
LJ          0.524662        -5.51534         2.18187
LJ          -4.43157         2.95395         1.29858
LJ          -5.29226        -2.78848         6.28269
LJ          0.417926         3.25476         3.67667
LJ         -0.110825        -4.12518        -3.34542
LJ           -4.9726         5.01611         4.45875
LJ           4.68008       -0.843072         5.42327
LJ            2.8135         4.99239        -2.74283
LJ          -3.24806        -5.11304         3.27753
LJ           4.22319        -1.65239        -2.93823
LJ          0.869799        0.876198        -3.56913
LJ          -3.00513         4.60044         5.45382
LJ          -5.81681         4.74053         -4.7441
LJ          -4.47709         1.65784        -2.82928
LJ          -6.29882       -0.188111         5.74326
LJ           3.21326       -0.116757         4.85844
LJ           3.98215         1.47485        -6.22803
LJ           6.00997         3.41269         3.72886
LJ          -5.41664          5.5152        -3.95272
LJ          -6.12365        -4.40795         1.35168
LJ          -5.59747        -1.24636       -0.565541
LJ          -1.18148         -4.2229         1.71371
LJ           5.04439        -4.18375         2.61222
LJ           2.34964         2.07411        -4.10158
LJ           5.25735         -2.6819        -2.50213
LJ          -1.08678         5.76564         4.61006
LJ           4.58523        -6.09157         5.99297
LJ          -5.59741        -4.97592       -0.240363
LJ           2.88316         2.89457        -4.75039
LJ           4.99179         5.89812        -1.66862
LJ             5.963       -0.812502         4.74277
LJ          0.121709        0.276999        -4.09178
LJ          -1.62522        -5.18086        -0.50022
LJ         -0.625218        -2.76638        -2.63667
LJ          -4.61634        -5.95216        -5.64326
LJ           5.86101        -1.14704        -2.97775
LJ           1.47841         5.93097        -1.00128
LJ           5.20735        -3.58367        -3.35335
LJ           6.00021         1.70057        -2.38316
LJ          0.611667          -5.829         1.16372
LJ          0.875657        -4.66946         3.84884
LJ           4.78197        -3.55669         4.46254
LJ          0.494417       -0.691625        -4.05153
LJ          0.175293     -0.00422932         1.60929
LJ            3.3328        -1.30033        0.467699
LJ           1.75918         6.46127        -4.64601
LJ           4.56376         -4.8794         -2.2249
LJ         0.0629251        -3.87162         4.85113
LJ            3.2653         -5.1427        -3.47656
LJ            4.6679          3.9867        -3.44397
LJ           4.67258        -5.12664       -0.690508
LJ           4.91651        -2.10352        -3.96569
LJ          -1.95249        -1.88544        -2.58278
LJ          0.504097        -1.31441         1.42442
LJ           1.67458         5.21099        -5.25097
LJ           -1.6535         5.69829        -5.17107
LJ           -5.1443       -0.786204        -1.86052
LJ            3.5857         2.90992         1.35003
