108
#Comment!
LJ           2.52116        -3.83313        -4.44232
LJ           6.34684         2.51268        -2.55954
LJ          -2.60767        -4.72988         3.74286
LJ          -2.60928        -2.92507        -5.86075
LJ            4.8537         3.89062         -5.5585
LJ           1.44136         4.29238        -4.75008
LJ          -6.12959         5.59766         3.59411
LJ          -2.38512        -5.56724        -5.56349
LJ          -2.35419         5.65378        -6.15772
LJ          -4.33506        -3.28872         3.34388
LJ          -2.17496        -1.32393         -6.3702
LJ           2.24957        -6.37333          1.2639
LJ           2.69612        -1.94557        -4.09188
LJ          -5.16016         5.57422      -0.0707188
LJ          -5.68784        0.800235         3.20878
LJ         -0.296512         5.61156        -4.32064
LJ         -0.458358         1.45855         2.84747
LJ          -5.24372         3.95967        -6.36187
LJ           3.56757          3.6984        -3.31527
LJ           3.47976         4.88483         2.78135
LJ           2.17007         3.86632         4.32842
LJ          0.782385         -1.8001        -2.53487
LJ          -3.29176        -1.22236        -5.98983
LJ          0.212122        -2.58548        -5.08491
LJ          -6.14635        -5.31981        0.754234
LJ         -0.598535         5.08014         1.56397
LJ           4.53109         2.80579         -2.8023
LJ           4.81436         4.38016        -3.41672
LJ           -1.8541         2.65593        -1.94289
LJ          -6.28217         -4.5928         5.09658
LJ          -5.48974       -0.141278        -5.92798
LJ          -1.77757        -5.46079        0.673944
LJ           4.37475         5.39784         1.20671
LJ          -5.75843        -3.54416         -6.4042
LJ           1.78465        0.446671        -1.73038
LJ           3.92089         4.79357        -4.57385
LJ          -2.58543        -1.02366        0.216169
LJ          -2.29743        -1.66997         1.75798
LJ            1.5056         6.21042        -4.89303
LJ           2.53313        -4.44767         1.32764
LJ           2.34558          6.1932          4.3186
LJ           5.91936         4.80083        -3.84651
LJ           3.03375         5.29448         -1.2632
LJ           2.84856       -0.326847          6.1799
LJ           3.99217         2.21399          5.6789
LJ           3.71083        -6.00594         1.62651
LJ          -2.51899         5.24705         4.76624
LJ           -2.5421        -2.27222        -2.31016
LJ          -1.84499         -5.3618         1.75378
LJ           -3.2288         6.41499        -6.03931
LJ           4.81653        -1.25618      -0.0999949
LJ           1.64914         3.81338        -1.83624
LJ           4.23712          2.0712         4.24849
LJ          -1.09541        -4.76361         -6.2025
LJ          -4.35268         4.87534         6.04209
LJ           4.59954        -4.98169        -3.03346
LJ           -1.8882         3.06809        -3.27944
LJ           0.90011        0.190629        -3.22799
LJ           6.10347         -2.5282        -5.66799
LJ          0.431139        -3.75487        -3.16283
LJ          0.486832        -2.54979        -0.41972
LJ          0.466373         2.87969        -1.15808
LJ          -2.27511        -3.29294          1.6601
LJ        -0.0485386         3.48674       -0.391299
LJ          -0.90609        -4.22398         4.89683
LJ           4.51979         1.56623       -0.598363
LJ          -4.96616        -4.14679         3.19021
LJ           2.09436        -5.48961         2.78352
LJ           3.27752         2.48945        0.507351
LJ           5.84869        -6.25483         4.13215
LJ           3.17062         6.24499       -0.119883
LJ           6.23565        0.630271         2.66333
LJ         -0.482162       -0.635293        0.771103
LJ          -5.02225         5.76273          6.0888
LJ          -1.90014         4.17468         3.49867
LJ          -1.78631         -2.8188          5.1486
LJ           3.00082       -0.513717        -2.41738
LJ          -1.34381         3.81408          5.9825
LJ          -2.16827        -1.01487         5.55118
LJ          -4.72481        -3.76643        -3.68813
LJ          -3.32956        -3.54389         6.17992
LJ           4.28425         4.56064       -0.858537
LJ           6.42315         3.99093        -5.40576
LJ            3.4162        -5.48546        -6.25414
LJ            3.6936         3.10842          -1.063
LJ          -5.79926        -3.09855        -4.44071
LJ          -2.08155       -0.906055        -4.14769
LJ          -3.08077         4.47658        0.517757
LJ           2.55582        0.148427         1.39187
LJ           1.75439        0.473315        -5.22222
LJ          0.707135        -4.48398        -1.87167
LJ          -2.77376        -3.64044       -0.446606
LJ           2.58882         1.70605        -3.65746
LJ           5.69655       -0.236347         2.76016
LJ           6.31239       -0.196973         5.21222
LJ           5.78224         -1.8401        -2.44567
LJ           5.77117         2.94256       -0.558474
LJ          -3.14351        -3.96905        -3.65908
LJ          -4.50664        -1.03491        -5.83946
LJ          -3.59067        -1.87964        -2.40849
LJ            5.8426       -0.726929       -0.898098
LJ           2.67067        -1.05225        0.360328
LJ        -0.0244292        -1.29448         5.89699
LJ           3.38484         -1.0738         5.24542
LJ           5.58903         5.57164      -0.0684753
LJ           2.90522        -6.03557         4.07053
LJ          -5.59711         4.12394        -3.70335
LJ           1.68804         5.69915        -0.45988
