108
#Comment!
LJ           4.44733        -4.62857         2.61054
LJ          -4.95722        -5.86042        -5.88246
LJ          0.865612         5.43216         1.32575
LJ          -5.08921         1.41803        -5.26997
LJ           1.43521         4.90828         3.54847
LJ          -5.65914         3.69796       -0.105814
LJ           4.87205          3.8934        -1.29646
LJ           1.16378        -4.81238        -2.65624
LJ           4.05855         2.16672        -1.14602
LJ          -3.51086         2.33945        0.609499
LJ           4.45105         3.24311        -5.21031
LJ          -4.72191       -0.179857        -5.38682
LJ           3.24375        -3.05451        0.816249
LJ           4.88092         1.67399         5.81745
LJ          -1.89344        -4.65307         -6.4496
LJ           6.35392        -6.23828        -2.24774
LJ          0.333668        -2.79339        -3.74433
LJ          0.303187        0.239698        -3.64416
LJ         -0.707828          -0.976         6.40315
LJ          -4.62098        -1.74194        -5.45089
LJ          -3.27263         4.30361         5.86116
LJ          -1.35811        -1.34864         1.55557
LJ           2.22406         6.27617        -1.74597
LJ           -1.8154        -2.38595       -0.794088
LJ          -3.60849        -2.41677        -4.92379
LJ           3.36808       -0.750199        -2.22284
LJ           5.01833         -1.1848        -4.26329
LJ           5.93703        -5.16983         4.52893
LJ           2.97198        -3.64856         4.17564
LJ          0.994624        -3.93846         2.66572
LJ          -5.16583         3.66292        -2.64753
LJ           4.43224         4.21314        -4.87438
LJ          -3.91006        -2.88376        -1.63082
LJ           5.61223        -5.30008       -0.787914
LJ           4.04039        -5.36075          4.6607
LJ          -1.26814        -5.72173        -5.37653
LJ          -2.59292        -1.48238        -1.70478
LJ           4.96461        -2.87897        -3.55866
LJ          0.420971         3.19072        -3.24607
LJ           1.97471        -1.63936         -3.3588
LJ           5.42756        -6.45737        -2.20646
LJ          -2.09299        -2.89413         3.83473
LJ           3.13151        -1.43619         1.75362
LJ           -5.2218       -0.910489       -0.193478
LJ           5.51011       -0.188482        -5.82954
LJ         -0.997798        -5.13621        -3.68018
LJ           1.13495       -0.982817     -0.00123608
LJ          -5.30704        -2.43852         2.16384
LJ           4.69498        -4.65216        -1.15127
LJ         -0.633132        -2.30009        -4.93018
LJ          -1.69649         3.25756        -6.38811
LJ           1.61062        -2.19602         2.11209
LJ          0.255741         1.75937         -6.0771
LJ          -5.12011        -2.43901        -4.48457
LJ          -4.35905        -1.80109         3.35469
LJ          -3.20629        -5.68288        -4.19414
LJ           1.81474        -6.21635        -3.41332
LJ            3.8518         4.32175         3.74256
LJ           4.69722        -3.29567         1.79991
LJ          -3.46327        -3.80545         1.28955
LJ         -0.691414        -1.88044        -1.20338
LJ           1.19128         1.99058        -3.96169
LJ          -6.35389        -6.01061        -4.18319
LJ         -0.374674         2.82571        -5.96632
LJ          -3.41698         5.87648         -6.1535
LJ          -5.06311         5.16922        -1.95236
LJ           3.98042         1.56549         4.40916
LJ            2.2808         1.28228          2.5095
LJ          -1.90247       -0.341962         1.66293
LJ          -1.01226        -2.46228        -2.92199
LJ          0.894379         1.41929         4.56534
LJ          0.419374       -0.506318         1.34421
LJ          -3.17067        -1.44852         3.74134
LJ           4.10472         4.80335        -3.00488
LJ           2.71978        0.238789         2.81681
LJ           3.33446        -6.20731         0.99109
LJ           4.53531         5.32841       -0.443815
LJ            4.8114        -1.70411         2.97863
LJ           4.98389        -4.05763        0.576243
LJ         -0.355127         4.30492         5.05529
LJ          -5.77905         2.63568        -4.78129
LJ          -1.33645        -2.81155        0.285091
LJ           3.12153        -2.80947         3.77443
LJ          -5.32142         6.26674        -3.98416
LJ           6.31368        -1.32292        0.366132
LJ          0.387142        -1.00925        -5.02492
LJ         -0.982798        -3.53213        -4.82109
LJ            3.5915        -4.90306        -2.90569
LJ         -0.452155        -3.06073        -6.09149
LJ          -1.07435        -4.08468         1.74337
LJ            -2.726        -5.75222        -1.99167
LJ          -5.10871         5.80041         3.63062
LJ           3.45024       -0.224093         4.81196
LJ           6.14428        -3.72036        0.759188
LJ           -1.6742        -2.32849        -5.39644
LJ          -5.95961        -4.82572         6.06723
LJ          -3.35581         -2.9384         1.97007
LJ            5.6378         1.35069        -3.00759
LJ          -1.64202         2.16183        -2.69562
LJ           5.87906        -3.82476         6.45802
LJ          -2.61719        -4.73945        -5.38453
LJ          -5.50945          4.9396        -3.83442
LJ           5.73124        -2.96842         3.79897
LJ           2.43063        -5.34944         2.41708
LJ          -1.10533         2.40459         2.84693
LJ         0.0222076        -4.53733        -3.25805
LJ           3.97898        -6.36459         5.26755
LJ           1.55205         5.78994         4.60283
