108
#Comment!
LJ          -3.33337        -5.38104        -5.70091
LJ          -6.45064        0.288147         2.23011
LJ           2.42768        -0.38232        -6.23719
LJ          -2.36177        -5.49503        -3.38397
LJ           2.76611        -5.22184        -1.12316
LJ          -5.31962       -0.844569          2.8456
LJ            5.7521         1.65206        -1.08906
LJ         -0.143816       -0.604502         4.83705
LJ           3.53419         5.33153        -5.12093
LJ           3.21444        0.893698          5.4773
LJ            2.3939         3.63492        -2.29346
LJ           4.78839          3.3857         2.47651
LJ          -6.07236          6.1175        -5.18405
LJ           5.33089       -0.929411         2.44838
LJ          -3.70199       -0.799543        -1.61446
LJ          -4.96327        0.699914        -2.45475
LJ          0.619052        -0.64513        -4.76751
LJ          -3.06999          -3.524         4.89399
LJ           2.59212        -6.28148         1.84517
LJ          -6.24416         5.88888         5.50784
LJ           4.97522         3.84961         4.43137
LJ          -5.04457        -3.56672         5.43785
LJ          -4.01512         3.57742       -0.252841
LJ           4.02423         1.85512         1.53215
LJ          -2.71981         6.01697         1.15426
LJ           2.40291        -2.68185        -3.46812
LJ          -5.27213        0.385966        -6.20775
LJ            2.1214        -3.38622        -2.64007
LJ          -1.10136        -6.03634          4.9836
LJ          -6.14204        -3.89927        -4.19883
LJ          -4.78958         3.46424        -2.00997
LJ          -2.69954         3.58674        -4.68791
LJ          -5.53975       -0.245749        -4.17825
LJ          -3.86601        -1.21853         3.07558
LJ          -5.00038         3.04603        0.700482
LJ          -2.29261        -3.60603         1.09971
LJ           6.43913        -3.07203        -2.37555
LJ           3.51412        -1.70256         -1.1041
LJ         -0.797327        -1.35639         3.68295
LJ          -5.69747        -1.51515        -3.71897
LJ           1.04053         1.54478        -2.83341
LJ            3.2579        -4.37841         4.28585
LJ           2.39995        -4.07689         5.46013
LJ          -4.40879        -5.01131        -2.49142
LJ           4.68465        0.562496         2.75067
LJ          -1.03805        -2.80742         2.59442
LJ          -2.51125         1.20959        -4.04484
LJ          -3.04729        -3.26783        -1.58447
LJ          -4.91017        -6.14658          3.4448
LJ          -4.16812         1.62083        -4.07562
LJ            -5.623        -1.11336         3.78628
LJ           4.62285         3.86199        -1.67214
LJ         -0.519219         2.86195         2.65616
LJ             4.937        -5.31674           4.712
LJ            1.3198        -3.94039        -3.19407
LJ           3.71203         4.90226         4.52384
LJ          0.796501        -4.80214         0.39093
LJ           5.19659         4.47497         5.46814
LJ          -2.16627         1.83123        -6.12179
LJ          -2.23973        -1.04897        -2.24133
LJ          -1.78215         1.77421        0.118068
LJ           3.95865       -0.195161         4.45749
LJ          -5.84934         2.41169         2.33785
LJ          -1.79173        0.725002         5.31351
LJ          -3.16563        -1.19067         1.10209
LJ           6.08285         1.94099         2.15084
LJ           6.00493        0.818717        -5.63284
LJ          -1.18824         2.09305         5.22484
LJ           3.77457        0.564014        0.479541
LJ           5.74467         -4.9601         2.49581
LJ           6.32774       -0.283849        -5.59141
LJ           1.80238        -4.94109         4.98937
LJ           4.76653        -6.22076         -4.9883
LJ          -2.57686        -6.13686        -1.01714
LJ           1.22789         2.76949        -3.21891
LJ           3.84641        -6.41077        -3.83599
LJ         -0.263344         2.69152        -1.82477
LJ             -3.59         3.62393         1.29293
LJ          -6.31131         4.07596         6.09452
LJ            3.9025        -2.54989         2.31392
LJ           3.63814         4.87008        -1.13868
LJ          0.612969         4.41632        -1.06693
LJ           2.96624        -0.97439        -5.55055
LJ          0.993689        -3.79278         5.65809
LJ          -2.10709        -2.34249         4.55899
LJ          -5.94241        -4.33759          4.4314
LJ         -0.148294        0.224051         3.38472
LJ           5.43235          1.7871        -5.37891
LJ          -2.05272         3.64731          5.4079
LJ           1.76171        0.737929         4.42447
LJ          -5.28846        -2.85081        -5.54486
LJ         -0.968916        -4.75138         4.13165
LJ          -2.50596         5.14435         2.52357
LJ          -4.17051        -6.05038        -1.07775
LJ         -0.869088         5.39984        0.383772
LJ          0.900908         6.37477        -2.68702
LJ           5.36424         2.28597         6.20474
LJ          -3.08925         0.82875        -1.21725
LJ          -1.06194         3.71978      -0.0948295
LJ          -4.52232         5.91094         1.97652
LJ         0.0570405         6.10445         4.65011
LJ           6.11138         6.03112       -0.616325
LJ          -3.08631        -4.64605        -2.37638
LJ           4.28717         5.53434        -1.77143
LJ           3.40396        0.697286        -5.15598
LJ           5.63923       -0.242559        0.173064
LJ           3.36529        -1.50631         0.11066
LJ           2.61745         5.57306         5.34525
