108
#Comment!
LJ           3.69877        -3.54804        -4.52108
LJ           3.77588         4.18886        -5.45308
LJ           1.53439         4.35599         4.21189
LJ          -3.75617         5.10724        -4.52807
LJ         -0.604135        -0.41242        -1.42271
LJ           4.03636        -2.49909         2.47987
LJ          -4.07152       -0.941444         6.38656
LJ           4.82032         1.99749        -1.30579
LJ           -5.7534        -3.65509        -4.96824
LJ           2.99903        -2.37028        0.794876
LJ           6.10309        -2.25894         -4.1196
LJ          -4.15532        -4.71381         6.30155
LJ          -6.45885        0.108683        -2.93324
LJ           2.16745        0.819115        -4.15879
LJ           4.94209         1.27373         5.82868
LJ          -4.79164         5.60805        -3.08173
LJ           3.59774         5.87495        -3.21308
LJ          -6.35641         4.77124         4.12318
LJ           2.56015        -6.29202         3.49971
LJ            1.6305         5.76423       -0.680845
LJ           2.07752        -3.05537         2.35487
LJ         -0.312178         4.75178        -4.34262
LJ           -4.1258        -4.78333         4.32371
LJ          -4.33926         -5.1176        0.194035
LJ          -3.89891        -1.44199        -5.38412
LJ          -1.87995          -4.539        -3.37107
LJ           5.16409         1.75359        -3.18766
LJ           4.45509         2.87911        0.963322
LJ           5.23076        -5.67425         6.14027
LJ          0.692238        -2.38549        -6.27784
LJ           3.41818         5.09491         5.62318
LJ          -1.28741        -5.76834        0.927002
LJ           3.24396         1.15675         1.94029
LJ          -3.59619         4.49723        -6.23731
LJ           4.42817        -6.23389         1.82648
LJ          -1.28844        -3.11169        -4.98943
LJ          -3.54403        -3.00763         1.38878
LJ          -2.48289         5.04966        0.651197
LJ           3.20547         5.91362        -1.50624
LJ           -5.2937         2.62446       -0.979842
LJ           0.94465         2.75926        -1.93217
LJ           1.52638          1.0044        -3.15272
LJ          -1.83754        -1.81525       -0.871815
LJ          -3.38684        -4.32361        -3.55067
LJ          -1.13807         5.95503         5.35359
LJ          -2.31691       -0.622478        -5.40467
LJ          -5.15343        0.710841        -6.21773
LJ           3.01027        -3.98111         2.51166
LJ          -3.68803        -4.33664        -1.14231
LJ          -5.03074        -3.26733         5.98515
LJ          -2.90713        -2.46945         5.57289
LJ          -5.93756         1.63716         2.68743
LJ          -5.76055        -0.95255         3.60615
LJ           6.12211        -4.34427        -4.76688
LJ           4.28216       -0.175455        0.254184
LJ          -3.49615         6.18723        -1.70314
LJ          -1.16193         5.08115         1.87127
LJ           -1.5492         5.50366         1.01089
LJ          -4.82562        -2.67467        -1.33554
LJ           1.94413         4.63398         6.03253
LJ           3.78571        -1.30326         3.15132
LJ           -3.0106         5.45179         4.04955
LJ          -4.30318        -2.52698         6.31755
LJ          0.691638         2.46647        -4.99002
LJ          -1.59725         3.32173          0.3252
LJ          -3.01873         2.11646         5.47788
LJ          0.849107         1.35314        -6.36299
LJ           1.98798        -2.26276         6.14088
LJ          -5.20932        -5.15555        -6.15165
LJ           1.55149        -4.57922        0.808983
LJ          -2.87081        -5.34925        -3.26358
LJ         0.0197023        0.703775         5.54819
LJ           -5.9552        -3.46542         3.27582
LJ          -3.33397        -1.33068         5.01188
LJ            1.4871        -2.62814        -3.70415
LJ         -0.299009         2.41775        -6.31946
LJ           3.90237        -4.75533         3.89496
LJ          -3.13519         -5.6315        0.703647
LJ           5.45961         -3.1495        -4.86215
LJ          -5.35207        -5.37673          4.4723
LJ          -2.84556        -5.20669        -5.96314
LJ           1.56113         1.06835        -5.11292
LJ           2.88793        -2.99991         5.81767
LJ           2.19559        0.678207         3.67412
LJ          -1.92008         5.88264         2.34215
LJ          -5.32325        -4.52782         3.73695
LJ          -4.94996         5.02331        0.526053
LJ          -3.37048        -4.82999         5.28292
LJ            3.4158        0.970102        0.799877
LJ           2.10102         4.01996         1.64579
LJ          -5.76904        -2.48426         3.66166
LJ           3.73747         1.43523          5.5032
LJ           1.58884        -2.12641         2.15675
LJ          0.117504        -2.28691         2.10502
LJ           2.96183          1.4825        -1.04339
LJ          -6.09721        -4.48204        -1.87821
LJ          -4.16176          2.5433        -2.23519
LJ          -4.16394         1.38141        -4.83878
LJ           1.01262        0.718563        -4.12335
LJ            3.1753         3.90737         4.64472
LJ          -3.66505         5.80043        -2.96468
LJ           5.59472        -4.64013        -5.87418
LJ          -3.25066        0.462554         5.08603
LJ           3.51306         1.10757        -3.46823
LJ          0.853215         1.94907       -0.698105
LJ           4.58405         5.82461       -0.810659
LJ          -4.07137         5.34244        -2.02059
LJ        -0.0405515         4.28292        -5.25883
