108
#Comment!
LJ             3.692        -2.59106        -2.06831
LJ          -6.32244        -4.60233         1.30781
LJ         -0.660255       -0.304827        -3.76498
LJ          0.596423        -4.17558        -3.79246
LJ          -4.96901        -5.07251        -4.18425
LJ          -5.58275          5.9088        -5.20555
LJ          -3.59761        -3.22724         2.81042
LJ           5.81045         5.66633         6.04218
LJ           5.75384       -0.139943        -1.05901
LJ           4.45654         3.74333         5.13155
LJ           2.74837        -6.27138        0.209656
LJ          -1.99328         4.57751        -5.41685
LJ        -0.0330359         3.13325      -0.0957496
LJ          -4.67401        -1.36207         1.04387
LJ           6.40171          1.2934         6.13225
LJ          0.576956        -5.22998          3.5762
LJ           2.76644        -2.99905       -0.975203
LJ         -0.427179        -5.26432        -4.69045
LJ          -5.61462        -6.12523         5.82131
LJ          -2.96698         0.71159         1.64909
LJ           5.54039        -4.62456         3.16283
LJ          -1.95066        -5.61146         2.45393
LJ             3.858        0.164886         1.32458
LJ          -4.32798       -0.869758          3.8223
LJ            1.8195         -0.7068        -1.36277
LJ           3.33469        -5.33056        -4.72224
LJ           4.14015        0.633622        -3.58053
LJ           4.98307         2.81765         3.69377
LJ            3.6016        -6.07918          6.3184
LJ          -3.89505         1.92831        -4.52083
LJ          -4.00343         4.41585        -4.01462
LJ          -3.46051         1.28051         3.64317
LJ          -6.01611        -3.62797          2.5759
LJ          -5.96757         5.15051       -0.194576
LJ            5.9294         4.89367          3.3503
LJ            2.7271         4.65273          -6.132
LJ          0.605416        -1.92229         5.78773
LJ           2.86047         5.91113         4.47391
LJ           5.51274        -2.31526        -1.98541
LJ          -0.89644         4.77566        -6.43067
LJ           4.69264         2.57101         5.26671
LJ          -2.14702        -3.76711         5.08141
LJ            0.4033        -4.62497         6.26506
LJ           5.81658        -5.67439        0.548622
LJ           5.02136        -1.76158        -5.35583
LJ           4.29219        -5.14446         6.36723
LJ          -6.40144         4.07175         3.59627
LJ           4.12903          4.5997        -6.33746
LJ           1.86155        -1.68697        -4.02205
LJ          -5.56656        -5.20941         2.94748
LJ           -3.7032         4.61219         -5.4987
LJ           -1.0386         4.07818         1.05511
LJ            5.4782         3.43088         1.28984
LJ          -4.86013          5.1407       -0.710709
LJ           5.86975         6.30698         1.01404
LJ         -0.488675         1.32686        -3.94462
LJ         0.0688321       -0.350053         4.24003
LJ          -2.71709         3.27356        -1.79844
LJ         -0.356853        -6.40668        -6.19635
LJ           4.89491         3.96576         -2.9169
LJ          0.427629         5.15863         3.67861
LJ          -2.91473         4.95286         -1.5714
LJ          -1.25169        0.617815         4.89231
LJ            5.1894       -0.325968         1.17809
LJ           2.35928        -1.34391        -2.51897
LJ          -4.10544         1.91746         4.06778
LJ            -0.163       -0.661576        -2.80182
LJ           1.15612        -3.54645         1.74035
LJ          -5.36906         1.91464         6.34374
LJ           -5.9786         2.12508       -0.699508
LJ          -1.13541          5.6311        -4.83316
LJ          -3.80499        -1.10953        -5.18742
LJ          -4.55283        -4.08167         6.33513
LJ          -4.50848        -4.72458         4.19171
LJ          -5.90257         4.25708        -3.62051
LJ          -6.04926         1.76095        -1.84035
LJ           5.76017          1.4025        -2.96164
LJ           5.54003         1.08046         5.41952
LJ            5.5424       -0.994633        -2.95076
LJ          -3.54233         4.24498         4.92415
LJ           3.98643          1.7484         -2.6568
LJ          -2.39489         2.74902        0.324208
LJ          -4.56358        -1.75788         3.10891
LJ          -6.11761         5.17852         4.57298
LJ          -4.88899         2.22787        -4.83471
LJ          -6.39825         1.46054        0.296547
LJ          -2.44175          1.4804         3.50035
LJ           2.58989         5.39057         5.34325
LJ           2.47287        0.590829        -4.61934
LJ          -2.98744        0.420229         6.28952
LJ            5.2635         5.49567         1.86162
LJ          -3.42088         2.12018         1.08053
LJ          -5.75752        -5.40428        -2.76532
LJ           2.81476        -2.81236        -2.48687
LJ          -2.64796        -6.06907        -1.80325
LJ         -0.596595         6.23533         1.64094
LJ          -2.24718         4.05777         5.64568
LJ           -2.1728        -5.07135        -5.95936
LJ           1.44617        -2.44221         1.39356
LJ           -5.4544         5.77265          3.0783
LJ          -5.76941       -0.256972         3.18274
LJ          -6.42462         -2.9035         -4.4705
LJ           3.04378        -3.96864         1.44338
LJ          -4.45166         3.25123         5.23957
LJ           2.02639        -4.10188         1.89211
LJ           6.38176          2.9425         1.85819
LJ           2.85133         4.55271         4.47901
LJ          -1.90771         1.36484         1.75035
