108
#Comment!
LJ           4.99706        -4.43445         2.36628
LJ          -0.81315        -4.73817         1.15061
LJ           6.45763         3.03494        0.901543
LJ          -3.98953         1.77236         -4.6267
LJ          -4.00568        -3.09081        -1.90124
LJ           5.27817        -6.16905         0.28191
LJ           2.52613         6.12894        -1.10952
LJ           1.23699         4.18199         6.18974
LJ          0.479099         4.08144         3.66389
LJ           4.06178        -1.25962         5.73708
LJ          0.241647        -4.29053          5.0755
LJ            3.2653         -2.0561        -1.72393
LJ            4.3152       -0.869528        -4.04738
LJ          -2.04625          6.4104        -6.39739
LJ          -4.73675         1.81536         3.92074
LJ          -6.12147        -5.06846       -0.838342
LJ          -2.89865         1.83897        -1.19603
LJ           5.31922          1.9082        -2.90809
LJ           -2.6308        -5.44017         2.45322
LJ           0.42874        0.541381         3.29084
LJ           -2.7284         2.33097         3.08573
LJ          -6.29251       -0.665468        -2.91177
LJ           3.85945        -3.05266         2.78093
LJ         -0.948423          4.3584          5.9928
LJ          -1.23265         4.80938        -2.53002
LJ          -2.35226        -6.34705        0.215798
LJ           6.36575        0.507817         1.45517
LJ          -1.24083         -1.7705         2.73986
LJ          -4.15703         1.86031        -3.12566
LJ          0.847796        -1.57848        -3.10879
LJ          -1.55098         3.58213          3.0223
LJ           3.34505        -3.88835         5.30308
LJ          0.860022        -4.26401        -1.18654
LJ          -1.04455        -1.08882        -1.67144
LJ          -4.47309      -0.0765634       -0.683692
LJ          -4.61949        0.996793        -5.23113
LJ           4.58529        -5.24093         1.07151
LJ          0.394253         3.40199         6.46143
LJ           4.61292        -1.96284         1.48755
LJ           2.72235        -2.01133       -0.522403
LJ           2.26882        -4.78699          -1.831
LJ           3.48217           4.956         -1.2372
LJ          -5.33574         6.11143         2.89184
LJ          -3.62118         4.93939        0.241677
LJ           2.01047        -5.94755         3.70167
LJ           1.41659        -2.42545        -4.54605
LJ          -1.10414       -0.273202         1.44092
LJ          0.257292         0.87138         6.18077
LJ           5.89523        -4.52476          1.3211
LJ            5.2677         2.89641       -0.942644
LJ           2.38278        -3.60881       -0.631829
LJ          -5.30628        -4.78416         4.05934
LJ           2.32455        -3.47082         4.36232
LJ           2.10282       -0.112448        -3.66231
LJ          0.175351        -3.43284       -0.298744
LJ           6.38426          4.5016         5.52152
LJ           3.45072        0.861485          2.9423
LJ          -3.46973         -5.9996         3.58587
LJ          -4.17649        -2.39097        -3.64822
LJ         0.0331974            2.45        -4.75846
LJ           6.17967        -5.77962         1.28637
LJ           6.42942        -4.02731          -2.373
LJ           3.20297       -0.862104         1.63914
LJ          -5.72296         6.41583         1.31661
LJ           5.63052         4.10854         2.63914
LJ           3.49028         -3.0104        0.149016
LJ          -4.28307         3.50217         2.61912
LJ           5.48157       -0.658479         0.69411
LJ           1.66048        -6.29198        -4.45849
LJ          -6.22369         4.48756         1.68351
LJ           -3.8774        -3.30067         2.76678
LJ          -5.25926        -4.53513        -5.13652
LJ          -3.74246        -4.12154        -4.37732
LJ          -2.76979          1.2038         5.88525
LJ          0.656497        -4.77036        0.694971
LJ           2.21706       -0.421452         6.17754
LJ          -5.98828        -6.20252         3.99726
LJ           2.35116         4.51652          2.8917
LJ           2.29809         6.13768         2.35727
LJ          -2.47464           6.123        -4.52045
LJ           3.72433       -0.289122         4.34696
LJ           2.77457         4.43765         4.87386
LJ           5.74984         3.61233        0.475507
LJ           -5.4793         0.64722        -5.20416
LJ          -2.75754          -1.616        -1.99021
LJ          -6.12953        0.743618         2.92023
LJ          -1.40459        -2.36373        0.286726
LJ           2.75294         -2.4582         4.03455
LJ           -4.1949        -4.41575         2.19535
LJ           3.10322        -4.23249        0.976753
LJ          -6.35028         6.41297        -2.02045
LJ          -5.26341        -5.52045        0.251997
LJ          -1.90269         3.62033        -1.78906
LJ          -6.45059        -2.76675        -3.87905
LJ          0.296502        -4.54821        -4.62883
LJ           2.64937        -2.98679         -5.3347
LJ           1.75793         -5.2952         2.43864
LJ           3.53326        -4.37092        -2.29997
LJ            6.3803        -1.68205        -3.15958
LJ           2.99874       -0.534228         3.39833
LJ            4.4386        0.855533        -3.11651
LJ          -2.57174       -0.504882        -5.95765
LJ           5.09221         5.17187         3.22372
LJ           6.09129         5.13585         3.52367
LJ          -3.01871        -2.61954         5.08824
LJ          -5.06534         1.35731      -0.0186523
LJ         -0.402841         3.75958         -1.2077
LJ          -2.56709        -2.98488         3.34796
