108
#Comment!
LJ          -5.04238        -2.69075        -3.18671
LJ          -3.09528        -5.87296         4.51667
LJ         -0.702901         1.16971        0.521306
LJ          -1.57127          6.1345         2.15764
LJ           1.26389        -2.66362        -5.12034
LJ           2.37742        -2.20997           5.066
LJ           4.79711        -5.70544         6.07995
LJ           4.55334         1.41915         5.07434
LJ           5.03845         5.08743          4.6573
LJ           6.29177       -0.734032        -2.58459
LJ          -3.48845         1.50185         -4.4247
LJ           4.29659         3.96691        -2.17093
LJ           4.37597        -6.23516         3.18189
LJ           4.35842         2.37413        -5.26818
LJ          -3.41248         4.36012        -5.06003
LJ        -0.0373581         3.12509         1.24376
LJ           4.70345         3.25927        -6.28659
LJ           5.58967        0.533099        -3.19055
LJ           1.72774        -5.66529        -1.18568
LJ          -1.77058         1.61984        0.100609
LJ           1.50468       0.0573044        -0.77191
LJ           3.72816         1.72561         1.23085
LJ           2.74845        0.400605         1.04888
LJ          -5.48204         -6.0572         3.53031
LJ           3.44661           -4.13        -1.55382
LJ           -4.4116         2.32358         4.04139
LJ          -2.17225         6.11266         4.18231
LJ          -4.11976        -1.36339         5.02397
LJ           2.23199         3.66169        -6.05591
LJ        -0.0833508         1.72532         3.68727
LJ         -0.915058         4.46218         4.44245
LJ          -6.14347        -5.66408        0.170281
LJ          -4.71621        -4.23247        -3.85492
LJ          -0.86139         -2.3649       -0.736161
LJ           2.72768        -6.33411         5.13237
LJ           5.25874         5.65767        0.575202
LJ           5.37951        -5.31063         2.89753
LJ            4.4773         3.13485        -0.97772
LJ           5.66333         1.34288        -1.26688
LJ          -3.92916        -6.08163          5.4513
LJ          -4.02683       -0.998075         2.99359
LJ          -3.77339      -0.0204975         6.10808
LJ           1.57142        -2.24806         5.61864
LJ           1.93796         3.22027        -4.80427
LJ          -1.16789         4.33312          6.1782
LJ           4.75716        -4.81898         5.15472
LJ           1.73904         2.28001        -2.47243
LJ         -0.502355         2.79228        -5.74067
LJ          -1.68212         5.48116        -4.15786
LJ          -1.47953      -0.0995902        -4.52098
LJ           6.17239        -4.43519          1.3706
LJ          -2.80803         1.41954          2.2421
LJ          -5.30118         5.37091         2.48177
LJ            5.4886         3.90747        -2.25424
LJ           4.22407         5.79969         1.19817
LJ          -3.41301          4.3594        -1.63283
LJ           2.95818        -4.39042        -2.95598
LJ          0.864469         1.38526       -0.834362
LJ          -4.01857        -0.43634        -2.41647
LJ          -5.65353         3.16723          2.8207
LJ          -3.30843        0.055078         1.10342
LJ           2.73789         4.98967        -3.55392
LJ          -2.39538         3.73031        -4.43042
LJ            5.5241        -2.21859         2.08551
LJ          -1.14758        -2.64616        0.650217
LJ            5.2052          1.3066         3.84076
LJ          -3.24277        -2.98503        -1.61268
LJ         -0.350605        -2.42089        0.115738
LJ            3.3022        -1.75335      -0.0702049
LJ          0.990947         1.32511         2.70169
LJ           1.92378         1.24337        -3.60048
LJ           3.65152         4.26423         2.04791
LJ          -3.24792         1.96642        -3.38466
LJ          -5.39007        -2.15185        -4.16809
LJ         -0.272546         6.17734        -4.12158
LJ          -5.77139         1.12643         4.58093
LJ          -3.34284        -1.78306         2.88215
LJ          -3.26857        -5.88928        -4.58312
LJ          -1.66064        -3.57546        -1.01874
LJ          -4.78777        -4.81516        -1.43515
LJ         -0.526275         -2.4608        -6.03757
LJ           2.60161      -0.0408079        0.112629
LJ          -4.69353         2.47419          2.6202
LJ         -0.831687        -1.22501         3.46631
LJ           4.37692        -1.88529         4.64648
LJ           2.63253        -6.15512        -1.37966
LJ          -5.18139         3.51151         5.77018
LJ          -2.28539        -6.32162         3.19387
LJ          -5.19797      0.00798557        -1.49395
LJ           4.69251        -6.21115         4.97431
LJ         -0.141103         3.35581       0.0971267
LJ           4.06525      0.00227794        -5.98609
LJ            5.3725         1.34351         1.60157
LJ          -5.56186       0.0273206         -3.9709
LJ          -5.90505         1.74195         3.41567
LJ         -0.606669       -0.970982        -6.18049
LJ          -4.75689        0.062991        0.215157
LJ           3.47009        -4.37458       -0.248849
LJ           1.19485        -5.93655       -0.138177
LJ           3.26717         5.73173        -4.42528
LJ           1.91542       0.0766696        -5.99497
LJ           0.12465         1.82486        -2.37566
LJ          -1.73532       -0.274238        -5.47005
LJ          -2.87622          -0.164        -2.81465
LJ           2.28389        0.314507         5.91004
LJ          -1.14986        -3.45301        -2.03949
LJ          -5.37545       -0.161279         4.05635
LJ           6.06279         1.16466         5.32029
