108
#Comment!
LJ            1.4253        -4.53466        0.625224
LJ          -5.18318        -6.30156      -0.0169393
LJ          -6.41882        -4.48833         1.82727
LJ         -0.829404        -3.82787          -5.078
LJ          -4.41258        -4.47914        -1.63918
LJ           5.22232        -4.32325         2.65072
LJ         -0.428856         2.54452        -4.48688
LJ         -0.591569        -1.41351         3.43333
LJ           4.05233         3.36817         1.55895
LJ           3.58466         5.76656          5.8684
LJ          -6.28985       -0.652142         5.17999
LJ          -5.40873          2.5454         4.66078
LJ          -4.79994         1.30692         5.51877
LJ           3.38372        -6.44028        -1.93844
LJ           4.26144         4.90517         1.48444
LJ           2.90422        0.545168        -5.83352
LJ          -3.52383         6.28129         1.61828
LJ           3.07466        -4.90473          4.8266
LJ           6.37339        -6.45536        0.849329
LJ            2.2706         5.05888         2.97278
LJ           2.21123          2.9825       -0.562995
LJ           5.31894        -3.87331          5.6945
LJ           1.16115         4.91093         3.76693
LJ          -4.09856         4.62058         6.00489
LJ          -4.28288         -2.8589         4.35617
LJ           1.73555        0.175464        -3.19583
LJ          -3.25885       -0.292742          1.5671
LJ           5.33427        -6.09882         -3.2443
LJ          -4.64367       -0.440954         4.27658
LJ           4.03258          1.6707         3.23929
LJ           2.54929         3.99133        -5.98737
LJ            1.7501        -5.01068         6.39188
LJ            6.4626        -2.64797        -2.66529
LJ           3.98231       -0.255337        -2.79372
LJ          -3.08697         -3.7319        -3.74549
LJ            5.2659        -3.53301         1.86119
LJ         -0.775473        -1.62246         2.33952
LJ          -6.43063        -2.19237        0.873026
LJ        -0.0278976         -5.6055        -1.99455
LJ          0.423311         -3.5098         2.37778
LJ           6.02071         -5.1151        -5.04229
LJ           3.18346        -2.08526         2.83191
LJ            1.5133        -2.55117         1.28923
LJ           5.73324        -5.09248        0.430455
LJ           5.01843        -1.20253          5.2187
LJ          -2.43453        -5.47674      -0.0104836
LJ           5.18923         3.09365        0.466392
LJ           4.09106        -5.98606        -2.75027
LJ           4.99113         -2.7949         6.29243
LJ          -1.67528         4.77849          2.5542
LJ           1.19856         1.36661        0.541982
LJ           5.38733        -2.91245           3.975
LJ           4.02468         3.71793        -6.40343
LJ          -1.50512        -2.76837        -1.11593
LJ           4.30926        -3.58438        0.810808
LJ           -3.6439        0.526226         3.87208
LJ          -5.69216         -5.3143         6.25589
LJ          -3.97945         3.28254         5.07939
LJ           2.98593       -0.860037        -2.11886
LJ           1.60718        -2.31208         6.42614
LJ           4.21916         5.78295        -2.75557
LJ           3.05058         0.28705        -3.55601
LJ         -0.408455         2.24133         1.28293
LJ          -1.90874        0.544848         1.73561
LJ         -0.756694          3.2859          3.4616
LJ           3.01381          2.4768        -5.23188
LJ          -4.08558        -3.60434         5.42188
LJ           2.42734        -2.23606        -5.62317
LJ           2.04758        0.975038          5.4423
LJ          -4.13491        -5.21433         5.12835
LJ            2.2396        -4.30232         3.08413
LJ          -3.80701         5.85072         2.66103
LJ           2.19907        -5.32073        -3.68565
LJ            3.5077        -3.86956       -0.317252
LJ          -1.05302        -4.22117         1.36672
LJ           -2.9241         4.87169        -3.71638
LJ          -2.24916        -1.73703        -3.90383
LJ          -3.34877        0.613003         2.96747
LJ          0.755342         -2.6283         2.98651
LJ           5.51578        -2.74345        0.812147
LJ           2.23516        -5.69319        -5.70046
LJ           2.11688       -0.234539        -5.53597
LJ           3.04936         5.41689        -1.81733
LJ          -4.31616        -3.95122       -0.183563
LJ           -4.7161        -0.77744        -1.74504
LJ          -3.40029         5.59145        -4.37428
LJ           3.05535         1.54919        -4.43156
LJ          -2.36221         2.65103        -3.51555
LJ          -3.96389        -5.20315        -3.85798
LJ           3.51219      -0.0442605        -4.42233
LJ          -6.01696         -4.2007         4.74808
LJ          -6.01764         -6.3138          2.3645
LJ           3.31808         -2.9906       -0.948356
LJ          -5.12482       -0.845346       -0.794939
LJ          -5.34198          6.3432        0.988232
LJ          -2.82099         4.80172         2.80316
LJ           5.77196        -2.57099         2.78593
LJ           1.00985        0.399046       -0.144123
LJ           2.80022        0.497036       -0.119638
LJ          -3.80072        0.168829         4.95177
LJ          -1.75389        -2.76907         2.03633
LJ           5.26835         3.74858          2.2706
LJ        -0.0427011        0.473439        -1.70501
LJ          -1.22052        -3.58858         4.39709
LJ           2.26753        -5.12195         1.49354
LJ          -2.47368        0.176702        -1.45504
LJ          -4.62574        -4.46178         4.17746
LJ          -3.46421         5.52261        -6.43795
