108
#Comment!
LJ           3.68275       -0.317383        -1.07943
LJ           6.44593         -1.2683         5.64101
LJ           2.05262         3.17705           5.382
LJ          -2.15771         1.88127         4.39451
LJ          -2.18375       0.0747061         1.77281
LJ           4.95074         4.04071         2.07691
LJ           4.22673        -3.23724        -5.90557
LJ           3.64106        -3.36361        -5.03225
LJ          0.542871        -5.49447        -4.91559
LJ           2.35619         4.26231       -0.918285
LJ           4.23575         4.83251        0.459509
LJ           -4.2206         4.61955        -4.97095
LJ          -5.21828        -1.75077         6.14274
LJ           5.88133        -1.07644         1.73473
LJ          -6.13975         5.97249        -1.77006
LJ           1.11973        -2.35051        -6.29493
LJ          -4.61444        -5.37908         2.60782
LJ           1.79265         5.46653         2.98512
LJ          -1.11964        -5.32163        0.467586
LJ          0.968878         4.18479        -5.52051
LJ          -4.83736         1.23933         6.36738
LJ           4.38109         1.66746         1.30343
LJ          -1.38698         0.43048         3.14276
LJ          -6.23449         3.26895         4.51193
LJ           4.15734         4.33821         3.26621
LJ           3.67232         2.16033       -0.787395
LJ          -2.02676         4.73005        -3.57682
LJ           4.05604        -1.78806         4.36962
LJ          -4.81714         3.68864        -2.28155
LJ           3.59857        -5.05029        -2.34103
LJ           1.24558         -4.4654        0.526536
LJ           1.12765         2.17817         1.52287
LJ         -0.392934        -3.14027        -3.78695
LJ          -4.36488        0.645342        -4.63339
LJ           2.66154        -2.81063        0.539401
LJ          -1.46972         5.51886        -3.05178
LJ          -0.41309        -1.15993        -4.68065
LJ          -4.68022         3.37084         3.23516
LJ          -3.09612        -5.67339          3.2703
LJ          -5.04612         2.58104         3.73805
LJ          -1.89191         5.52431         4.74839
LJ          0.847514        0.382439         4.66335
LJ          -6.11671        0.135642        -3.28294
LJ          0.670071         4.73616         5.63623
LJ          -2.52702         2.98223         4.97171
LJ          -4.15482        -2.52749        -4.32746
LJ          -2.61512     -0.00872153       -0.166299
LJ         -0.765014         3.19585         5.24059
LJ           1.27821         4.16378         1.02091
LJ          -5.10148        -2.36673        -4.59298
LJ            5.4713         4.84019       -0.506792
LJ         -0.376602        -1.28223          6.4067
LJ           1.23502         1.29691        -4.72781
LJ           3.41982        -5.88539        0.246482
LJ            6.0706          4.4286        -4.01232
LJ           5.82484      -0.0161298        -2.85946
LJ           3.07224         2.01459         6.39061
LJ          -2.73241       -0.529167        -4.23221
LJ          -1.69543        -1.21257        -2.59702
LJ          -1.29115         4.91775        -5.53835
LJ          -3.84793         5.89603         4.89592
LJ           -2.4546        -1.47139        -3.20239
LJ           6.41931        -0.11367         -1.8433
LJ           -1.8409         1.35986         2.81811
LJ           5.16481         3.59894        -5.72769
LJ           2.35356        -3.81958        0.595882
LJ            4.5724         6.23429        -2.45045
LJ           4.50834        0.257424       -0.382787
LJ           -2.9982         3.07585        -2.85395
LJ           2.61109        -1.02665         3.94537
LJ           5.44738        -3.78726         5.82195
LJ           5.94402        -1.55696        -2.09743
LJ           1.37947         -5.6038         1.24313
LJ          -6.18603        0.606434         2.81676
LJ         -0.775702        -2.35424        -3.18022
LJ           4.46622        -5.74548         4.62279
LJ           5.60584        -1.00479          3.9069
LJ           3.53588       -0.240065         4.17425
LJ          -4.20178        -6.02901         4.72093
LJ           2.13898         5.40163        0.677853
LJ          -1.54335       -0.936204          6.0371
LJ          -5.36931         4.75451        -2.19926
LJ          -1.68068         2.72442         -5.3652
LJ           4.97579         6.06044         1.07535
LJ           -5.4112         6.28447        -2.52103
LJ          -4.29615          1.1461          5.3784
LJ           2.46904        0.373915        -3.27823
LJ           1.90862       -0.880736        -4.24062
LJ            3.0951       -0.469274         5.89762
LJ          -6.33196          2.0623        -3.51833
LJ          -4.09705         1.87346         3.44348
LJ            4.8141         1.56328         3.38287
LJ          -6.37698        -5.02272         2.74132
LJ           2.19559        -4.96977         3.93147
LJ           1.74081         5.33531        -4.50805
LJ           2.91896         5.61761         5.08138
LJ           -5.0307          2.6051         2.21738
LJ          -4.02459         -6.2189         5.59512
LJ           3.25718        -4.86141         4.81326
LJ          -2.78231         6.17514         5.96636
LJ           5.55674        -4.97568        -2.62836
LJ           2.39671        -6.16195         6.45341
LJ          -5.31518        -2.25661         4.95552
LJ           -1.4378        -5.29692        -5.12617
LJ          -3.49266        -6.08078         1.81533
LJ           -4.8635       -0.883082         5.57263
LJ          -3.23442          4.9962         -4.0114
LJ           2.76008        -4.56996         3.24045
