108
#Comment!
LJ          0.271855       -0.615055         2.92207
LJ           -1.3509        -2.85762         4.69967
LJ           3.81043         3.40811        0.176763
LJ          -3.56421        0.745593        -3.67154
LJ          -4.76092         -2.3432         3.94018
LJ          -5.15788         2.49249         4.08467
LJ           5.23609         1.36919        -4.37734
LJ           -4.9729        0.524608          1.6884
LJ           2.27682        -5.04657         4.83049
LJ           6.19608          1.4572         1.95003
LJ           4.41413         3.31457        -4.02567
LJ          -5.60383        -3.39231         4.99867
LJ           2.18228         -1.3399         4.62717
LJ           6.43981         2.37651         4.14361
LJ         -0.830605        -1.05843         5.80915
LJ          -5.34591        -5.26001      -0.0631798
LJ         -0.113841        -4.26122       -0.543671
LJ            3.4307         2.72673        -2.83553
LJ          -1.24398        -1.67195         4.78412
LJ          -6.12668        -1.66226        -4.36392
LJ          -2.51604         3.38771          -4.572
LJ          -4.49616       0.0817607        -2.67882
LJ           2.07775        -6.05238       -0.702433
LJ          -4.32577        -3.90359        0.573191
LJ          -3.56938        -4.81787        -5.52491
LJ           5.93655       -0.463453         6.42043
LJ           5.87958       -0.634767        -3.92041
LJ          -4.34547         6.40628        -6.10024
LJ           3.44214         4.28452         5.29391
LJ           1.65793         4.39441         1.72901
LJ          -5.43664         1.82481        -3.38874
LJ          0.535314         4.70288        -6.23586
LJ          -5.41557        -6.40893        -0.59667
LJ          -3.35421          2.5986         -1.2577
LJ          -4.95796        -6.23111         4.45868
LJ          -1.47181         2.54937         5.15201
LJ          -3.66894       -0.610459        -1.99759
LJ           1.57181        -1.11903         -1.1584
LJ          0.180206         5.80681         -4.8208
LJ        -0.0476146        0.575429        -3.06611
LJ            3.2609         4.54268        -5.20219
LJ          -4.49046        -4.98592         3.72373
LJ           1.94676        -2.87917         5.39303
LJ          -5.58589         3.68486         2.09018
LJ           2.79486         1.33776           1.755
LJ          -3.48903        -5.06901        -3.47099
LJ           1.56749        -2.68193      -0.0475735
LJ          -3.67172        -0.62873          2.4835
LJ           4.50344         3.59827       -0.645416
LJ         -0.158613       -0.161434        -5.44671
LJ          -4.90985         2.61924        -4.97011
LJ           2.28138        0.232608         4.11432
LJ          -1.64858         3.17141        -5.13127
LJ          -4.75972        -1.98239        0.556315
LJ           5.92442       -0.587335        0.560977
LJ          -3.60431         3.05024        -5.85909
LJ         -0.373333         4.57078         2.52044
LJ          -5.80004         6.42593        -5.90576
LJ           5.47028        -1.68293         1.15548
LJ          0.932716        -6.43853        -3.94785
LJ         -0.977826         2.09389         1.26715
LJ           2.60323         2.44784        -4.13747
LJ          -3.80363        -5.10185         5.42268
LJ           1.45764          3.7274        -5.08767
LJ          -4.65531         3.91796        -3.19952
LJ          -5.96899         4.39539        0.702271
LJ          -5.84371         3.55313          5.8981
LJ           5.89758         1.48421         2.90826
LJ          -2.14829         3.68333         3.46047
LJ          -4.22924        -3.85911        -1.69712
LJ            2.8751       -0.120645         5.32129
LJ          0.479373        -2.29194        0.236358
LJ          -5.83528      -0.0876225         5.15875
LJ           2.41894         1.80568        0.165224
LJ           5.19798         1.40614         1.98883
LJ           1.15312     -0.00616916          2.0663
LJ           3.30195        -5.23675       -0.299063
LJ          -5.67652        -2.76726         3.99129
LJ           3.38887      -0.0561786         2.11186
LJ         -0.472011         6.27448         3.71947
LJ            -5.058         2.77815        -2.35676
LJ          -2.18906        -5.22458       -0.825038
LJ          0.132274       -0.906356         3.85741
LJ          -3.32331        -5.99496        -2.92616
LJ           -5.3454       -0.295335         1.93556
LJ          0.343029        -3.91174        -4.15555
LJ          -2.46952        -3.76129        -4.44785
LJ           5.50214        -3.55627        -3.26061
LJ          0.860589        -4.58152         5.96459
LJ          -1.25034        -4.38786         -1.2583
LJ           1.93229         4.20421        -3.48515
LJ         -0.364065         5.83504          5.6518
LJ          -5.27241        -4.69782         2.74139
LJ           1.10236        -4.73713        0.449402
LJ           1.81841        -1.57242        -3.63402
LJ          -5.56028        -3.90211        -6.12893
LJ          -5.70343        -1.56086          -1.215
LJ          -6.33387       -0.163628        -1.72238
LJ          -3.47114         3.11821        -4.78046
LJ           5.47425        -4.95169         4.92403
LJ          -2.20483         5.05521         5.83378
LJ           5.97745          4.4494        -4.92276
LJ          -5.42767        -3.65687         1.18132
LJ          -1.98788         6.05342         2.19706
LJ          -5.60933       -0.850952         4.27552
LJ          0.429498        -2.72716        -3.38393
LJ           2.95603         6.18252         5.76611
LJ          0.535414        -2.37375         3.64414
