108
#Comment!
LJ           5.24444        0.102701        -5.05969
LJ          -2.66737        -1.34516         6.07131
LJ         0.0453119        -6.07592       -0.245762
LJ         -0.333624         2.21526         2.22767
LJ           5.24131        -4.81834         4.57969
LJ          0.594629       -0.968125        0.621979
LJ          -4.95101         1.17883         5.45622
LJ          -5.43689         4.87065        -3.06861
LJ          -4.43953         6.14133        -1.01588
LJ          -3.41204        -1.53364         2.25034
LJ          -3.38067        -1.90789        -5.21348
LJ           3.60918       -0.426426        -2.17585
LJ          -2.01059        -3.87659        -6.29942
LJ           4.75011          4.2344          3.3292
LJ          -1.44174        -4.58865        0.272554
LJ          -5.02629        0.647209         3.87043
LJ            -1.348        -6.29055         3.17313
LJ           2.49968         3.27445        -3.03805
LJ          -5.31787        0.349673         5.62862
LJ           6.38877        0.684386        -6.04004
LJ          -5.84377         3.22239        -1.01984
LJ          -3.43935        -2.54389         4.74718
LJ           3.81028        -1.40113          4.1503
LJ           1.48998        -5.42468        -2.35005
LJ          -4.67839         0.24351        -2.64288
LJ           4.79222         -6.2034         3.66375
LJ           5.32709         6.21548         4.53038
LJ           1.17175         5.62148        -5.30797
LJ           4.42993         5.66251        -2.04544
LJ          -3.91104        -1.38779        -6.01288
LJ          -5.35996        -2.13244         5.27296
LJ           2.94086         4.87036        -3.76463
LJ           6.17893        -4.48314         6.22027
LJ          -6.21219         1.60977         3.38624
LJ          -1.36579          6.0631         1.76147
LJ         -0.218394         2.04293      -0.0246946
LJ         -0.517573         1.24772         -1.0335
LJ           5.98429         5.53732         5.11929
LJ          -2.50348        -2.01219       -0.597462
LJ           4.62521        -6.07007         2.39832
LJ         -0.358808       -0.118879        0.619563
LJ          -2.84097         6.28296        -3.12711
LJ          -1.90449        0.439063         2.41909
LJ          0.834089        0.713713        -1.18311
LJ          -4.63755        0.469718        -4.94447
LJ           1.17465         -1.7937         6.32178
LJ           3.26069         2.00661        -6.36609
LJ           6.44823         3.67193        -5.68704
LJ          -2.54625       -0.114013         -2.0364
LJ         -0.440111        -2.75632        -3.52324
LJ           3.00772        0.467223        -2.95406
LJ          -4.93453         6.34626          4.9812
LJ           4.31965         1.26421        -1.04396
LJ           3.77062        -4.00698        -3.72993
LJ          0.448605        -5.73009        -3.03689
LJ           1.49308        -3.38252        -5.72188
LJ         -0.020193          4.0328         6.03432
LJ           1.88553         1.16408        -2.25442
LJ           3.67769        -3.46369       -0.549965
LJ          -5.68534       -0.386929         4.46528
LJ           5.82809        -5.43814         1.95267
LJ           2.98047         1.10601        -4.74535
LJ          -2.74495        -3.95848         3.36922
LJ           1.26543         1.45842       -0.148608
LJ           3.76362         5.84408         1.68533
LJ           5.32765          4.0561         1.05163
LJ          -3.30775         1.11046        -1.79759
LJ          -1.57866         3.89424         5.00757
LJ          -4.94814        -1.03484         3.68036
LJ           6.15959         2.92156         3.42793
LJ          -2.24124          4.4394         3.76211
LJ          0.348663        -4.23283        -4.95109
LJ           2.63024         4.51425         5.16408
LJ           6.24763         2.58573        -2.04163
LJ           6.31372         6.41248         6.36715
LJ          0.511199          3.7322         4.97284
LJ           6.11912         2.35375       -0.368432
LJ          -4.72055         2.92259         6.35643
LJ          -2.46051        -5.86368         3.63114
LJ           2.97644         2.70275        0.137176
LJ           -2.4723         2.27431        -1.42812
LJ          -3.55715         4.68195          -3.865
LJ           4.39003       -0.919935        -5.67067
LJ          -3.11594          1.3467       -0.811037
LJ         -0.405915        -4.74073         4.39633
LJ          -3.79669        -3.06549        -4.28275
LJ          -3.17908        -6.15048        -1.54045
LJ         -0.510622         2.86051         3.55935
LJ           4.58475         4.15895         2.33207
LJ           5.30051          4.7874         5.52991
LJ           5.02353        -3.44354       -0.666028
LJ           1.53488         4.29146        -5.67363
LJ           4.69302        -4.39813         3.76136
LJ          0.347267        -2.92594        -5.00833
LJ           5.41441         0.50199        -4.03646
LJ           1.86128        -6.43274        -5.30123
LJ          -1.83663        -6.09462         6.39194
LJ          -5.34344         3.09795         5.00611
LJ          -2.78124         3.20692         1.59655
LJ         -0.560735       -0.285499         3.16519
LJ          -3.38554         6.41092        -4.57571
LJ           4.97639         2.69798        -2.47625
LJ           6.14373         -6.3137        0.746974
LJ           4.29943         5.83282         4.57635
LJ          -6.11274          -3.908        -2.49438
LJ           3.22518        -3.91466         6.28311
LJ         -0.526713         1.72709        -4.39241
LJ          -4.56753        -3.42105         4.29664
