108
#Comment!
LJ           4.75716         -2.9705        -4.94029
LJ           3.00528        -5.74221         2.74648
LJ           1.06028         1.80266         6.21173
LJ           2.70692         -3.0269        -5.02197
LJ           5.41126        -3.79129         6.08134
LJ           4.56479        -1.14589        -3.38235
LJ          0.890716         5.72729         6.24147
LJ          -4.47725         2.06065         5.22291
LJ            1.6668          3.5345        -5.68795
LJ          -3.19485        0.511967        -1.16692
LJ           4.34045         3.18398        -4.89083
LJ           2.76922         1.79575         1.61593
LJ           -2.8642         5.48782        -4.79821
LJ          -3.86995        -2.74971        -5.20982
LJ          -4.25447         3.22303         5.18658
LJ           2.71117         3.73184         3.94758
LJ           -3.5592        -3.06238         1.24371
LJ            4.6765         5.98844        -3.99464
LJ           -1.6592      -0.0892158       0.0571238
LJ          -5.69059         2.60924        -3.88977
LJ          -4.62316         2.58282         2.99859
LJ           6.30182         6.40655        -4.16883
LJ            1.6597        0.727589         1.64132
LJ          -6.15359          2.3673        -2.29342
LJ          -2.30473         5.57796         5.97154
LJ           1.20694        -5.17605         3.49235
LJ          -1.55239         5.30008        -3.81744
LJ          -3.45168        -2.97962        -1.60683
LJ           5.01982        -2.09244        0.720635
LJ         -0.267444         6.35383         2.59839
LJ          -4.34422         2.83045         -5.4443
LJ          -3.90944       -0.213492         -2.9314
LJ          -2.96716         4.20885          2.3505
LJ          -2.96043         5.78663        0.482183
LJ          0.776803        -6.20922        -4.59426
LJ          -2.63738        -4.15031       -0.278819
LJ          -1.02688        -1.44712        -3.99175
LJ           1.56315         -5.7813         1.02322
LJ           1.00611        -5.40816         -1.4226
LJ          -2.21734       -0.275937        -5.91915
LJ           3.76318         1.17995        0.992408
LJ          -2.05031       -0.421152         2.93174
LJ          -3.75774        -2.94429         5.37861
LJ          -5.19458        -6.14171         5.69879
LJ          -5.10682        -5.55918        0.245311
LJ           3.10027        -6.19499         4.89402
LJ           2.19562       -0.446816         3.97893
LJ            6.1932         2.33217         1.70931
LJ          -4.91204        -4.79273        -4.52961
LJ           2.68472          2.9017         3.22529
LJ           -1.2328       -0.106236        -5.32009
LJ           1.19351         1.24214        -3.21731
LJ          -5.36285         4.09692        -4.10336
LJ          -3.46417        -2.06667         2.19614
LJ           4.39708        0.196214        -1.54446
LJ           2.31755         0.32199         3.22967
LJ          -3.51265         3.64273       -0.774861
LJ          -2.13865         5.96501        -1.77913
LJ           6.42372         3.48108         1.98977
LJ          -2.51245          2.6797         4.33502
LJ          -3.78987        -1.00073        -2.05521
LJ          -4.41222        -2.77895         3.06615
LJ           5.51977        -5.10412        0.339227
LJ           4.29204          -1.673         6.38353
LJ          -5.18186       -0.407022         5.58365
LJ          -6.14036       -0.804792         5.91082
LJ           1.79911         5.34325         4.39848
LJ         -0.838475         6.44515         5.88747
LJ          0.106798           -6.34        -5.74291
LJ          -4.90956         4.29572          6.3547
LJ             3.306         3.42762         6.13431
LJ          0.788189         3.76869         6.22243
LJ          -1.50688           3.166         3.73886
LJ            5.7904       -0.552629        -3.87992
LJ         -0.158085         1.89917         6.27254
LJ           5.00567        -1.35646       -0.971601
LJ           3.41966         2.63302          1.7204
LJ           4.72704         1.18805        -3.83539
LJ           2.85725        -2.83846        -2.50068
LJ          0.788682        -3.72023         2.25866
LJ           4.44391         2.69819        0.973504
LJ          0.113793          5.1229         2.19914
LJ           3.00169       -0.537257          -4.991
LJ           -2.4504        -3.46586        -1.60101
LJ           4.91978        -1.39368        -4.34177
LJ          -1.60695         5.04778        -5.42518
LJ           4.67915         -5.6544        -6.16893
LJ           4.93949         3.69253          1.9851
LJ         -0.991226        -3.04048        -5.46184
LJ          -3.84323         4.33373         3.65849
LJ          -4.70413        -2.86763         1.54881
LJ          -3.93829         -5.1447        -2.29608
LJ           2.34719         2.31809        -2.03081
LJ          -1.60392         6.32133        -5.33425
LJ           5.79199         3.80338         5.79341
LJ           4.18692        -3.34255      0.00596151
LJ           3.20028        -6.17495        0.982653
LJ           -4.1267        -2.17132        -1.90794
LJ          -4.64089         4.11909        -5.37817
LJ           4.28159         2.12649       -0.568645
LJ          -2.86013        -5.77131         1.85108
LJ           4.89136         4.16299         3.83274
LJ          -4.86705        -1.44996         -1.5012
LJ           5.08932        -6.17373          1.0647
LJ          0.139609       0.0156091        -5.89514
LJ           5.14416         4.74744         6.43996
LJ          -0.57932           5.398        -4.56389
LJ          -2.83163        -2.79105          4.6222
