108
#Comment!
LJ            5.4994      -0.0186707         2.78098
LJ           4.54436        -5.69198         3.88607
LJ          -5.29041       -0.172628         -3.2577
LJ         -0.764451         5.56813         6.44985
LJ          -2.47172          3.3651         -6.1852
LJ           5.64602         2.11402          4.8241
LJ         -0.166663         3.94845        0.372736
LJ          -3.64993         5.12443         1.87279
LJ          -3.25729         4.56004         4.98787
LJ          -3.31047          3.8167         6.08197
LJ          0.323596          3.0215         4.43081
LJ           5.95645        -2.86735         3.96918
LJ          -4.78961       -0.930431        -5.81132
LJ           1.81657        0.420841        -2.18948
LJ           5.90077         1.64708         2.82426
LJ           2.55432         4.83125         5.36817
LJ          -1.49203        -5.58309       -0.921049
LJ          -2.94616        -2.00896        0.733917
LJ           1.29867        -2.85583         2.10007
LJ          -5.56031        -2.71563         2.27439
LJ           3.17642         4.82917        -6.18375
LJ           6.44718         3.11334         4.40522
LJ          -2.36812         3.57113         3.79654
LJ          -2.88651        -6.34956        -4.77243
LJ          0.269488         4.53423         5.22712
LJ          0.356424         1.48117       -0.514554
LJ           -2.9961         2.20883        -5.88489
LJ         -0.643303        -3.47782         5.76661
LJ           5.77145         4.78278        -5.39323
LJ           3.07351         3.48193        -4.47178
LJ          -2.30066         6.02702        -4.04639
LJ          -3.61833         1.36644         6.04715
LJ           4.83295         1.24631         2.07822
LJ          -4.71262         5.70142        0.700431
LJ           2.41652        -3.40424        0.987838
LJ          -1.33793         4.26926         -5.9647
LJ          -2.24995        -1.41911        -5.18684
LJ          -4.27815         3.41804         4.97105
LJ          -2.85469        -4.72696         2.01526
LJ          -2.78284        0.238355         4.60132
LJ          -1.36459        -3.89818         4.86652
LJ           2.89209       -0.902347        -1.57954
LJ          -3.92631        0.442937         5.30733
LJ          -2.66971         2.18208         4.24479
LJ           -2.8275        -2.23878         6.36118
LJ           5.96547         2.88883        0.270634
LJ           5.89093        0.543859        -4.64457
LJ         -0.529274        -4.49763         6.38021
LJ          -1.13494         3.97189        -1.68048
LJ           1.74282        -6.10233         4.71244
LJ           5.93087          4.6914        -3.51589
LJ         -0.939078        -4.70527        -1.06907
LJ          -3.02339        -2.21506         2.58151
LJ           5.32143         2.85917        -5.58702
LJ             2.214         4.51075        -2.36794
LJ           -4.7722         -2.4766         3.86684
LJ          -6.12929         3.60519          3.4959
LJ           3.40175         -1.4123          3.4263
LJ         -0.250437        -2.75221         1.90757
LJ          -2.63854         2.73661          5.0932
LJ           2.54746        -6.00492        -2.51536
LJ           3.53087        -1.25262        -2.65661
LJ          -5.36789       -0.322917       -0.654902
LJ           1.36091         5.23385         5.21594
LJ           3.93167          5.6147       -0.544285
LJ          0.370906        -6.08945         5.50131
LJ          0.805965        -2.39575        -5.12413
LJ          -4.88422         5.76069        -2.49003
LJ          -2.17113        -6.39094        -2.41917
LJ          -3.89296         3.23036        -2.55844
LJ         -0.701895         -6.2185        -5.95622
LJ          -2.20095          0.8004         1.94309
LJ           1.54673         3.65022        -3.24695
LJ           6.17638        -6.05263        0.798283
LJ          0.706904        -1.14854         1.60434
LJ            1.4946        -4.41544         3.79208
LJ           4.38999        -6.03558        -5.52398
LJ          -6.16155         -2.8623         3.17582
LJ          -5.27661       -0.748531         5.98175
LJ          -1.42102        -5.42957        0.713566
LJ          -2.33776        -1.91543         4.73089
LJ           3.09049         0.31603         2.58666
LJ           2.44871          5.5725        -3.95146
LJ          -4.92569         6.30783        -4.17952
LJ          -1.28564          5.1239        0.625666
LJ            3.9247        0.726289         4.84101
LJ          -5.96188        -1.03974         2.35302
LJ          -5.17532        0.120984        -5.78473
LJ          -1.06828        0.281904         3.30393
LJ          -5.66486       0.0170136        0.791976
LJ          -4.24708         1.20002        -5.82581
LJ           2.15741        0.460663       -0.686408
LJ           4.10892        -2.15636         4.06953
LJ         -0.735836         4.42272         -5.1056
LJ         -0.101176         5.63027         4.57842
LJ          -1.08841         5.33181        -5.48766
LJ           2.96888         2.02535         -3.9428
LJ           -1.8759         -1.2255         4.05458
LJ          -1.90539         2.06706         1.81626
LJ          -3.78616         2.12241       -0.257234
LJ          -3.09655         4.10729        -3.45025
LJ           4.72407         1.40949         5.28864
LJ          -5.45771          2.5532         5.36566
LJ          -5.35852        -4.27901        -2.45619
LJ          -5.60344         4.13329         5.57543
LJ          -1.74255         5.29171        -4.28122
LJ          -5.45891        -1.74271         3.49159
LJ          -6.06307          4.6446        -6.15995
