108
#Comment!
LJ           6.05696         6.00847        0.310179
LJ           1.30449        -2.38773         4.42605
LJ           1.40583         2.36325        0.552705
LJ           2.44406        0.273374        -4.87656
LJ          0.728638        -4.11792         1.48528
LJ           3.43901         4.50674         5.22598
LJ          -5.18241         3.00276         3.15313
LJ           1.51898         -2.7976         3.38524
LJ          0.984002        -0.62823       -0.618104
LJ           3.11613        -1.03006         4.21311
LJ         -0.298893         5.68168        -3.42333
LJ           6.21459         5.34633         3.58583
LJ          -1.55146         2.89773         4.51711
LJ          -4.06384        -1.15123         -4.8762
LJ         0.0921214         4.14671         3.37731
LJ           5.10526         3.51321        -3.63488
LJ          -1.28767        -1.97939        -5.31083
LJ           4.84737        -3.05833         -1.1381
LJ           5.18721         3.71189          3.4496
LJ           2.04184        -5.44959          6.0924
LJ           3.79307          -3.488       0.0447912
LJ           5.37346        -1.37485        -4.07437
LJ           3.57204        0.418208          4.2456
LJ          0.354322         2.66658        0.441778
LJ          -2.20413         2.44853         -5.6061
LJ          -5.95364         2.98914         3.79694
LJ           6.46219         5.20643        -5.76685
LJ          -1.26191         1.33256        -4.91585
LJ           5.36396         5.46952         5.26641
LJ         -0.964436        -4.99217         5.18791
LJ           3.17634       -0.363562       -0.275998
LJ           4.36024        -2.08204         2.23889
LJ         0.0134352        -4.98888         5.97506
LJ           4.74762         4.72693         4.94506
LJ           4.93386        -4.55473        -1.83673
LJ          -1.73947        -3.65529        -3.09032
LJ          -1.19142       -0.656924          4.5231
LJ            5.6397        -3.88326         2.73297
LJ           1.26448        -5.27239       -0.902426
LJ         -0.904702        -4.55349         3.93693
LJ          -2.57135         1.08282         4.52208
LJ          -5.53159        0.545468         2.10392
LJ           4.94533        -2.55322        0.346339
LJ           5.14573         6.22711         4.03562
LJ          -3.04308         5.47512         5.11164
LJ           4.00455         3.99597         1.09149
LJ          -5.60578        0.529068        -5.02368
LJ           4.86792        -5.33927       0.0884455
LJ         -0.949172        -1.98354         2.11909
LJ           4.92699         5.27682        -1.58541
LJ           3.84066        -2.09945        0.119606
LJ          -3.68492        -3.02495         2.52609
LJ            1.6712         5.51947         3.35326
LJ           2.49057        -2.09815        0.940619
LJ          -4.53113          6.0927       -0.148089
LJ          -3.84713        -2.56669         5.27921
LJ          -5.06402         3.84056         4.32437
LJ          -2.75087        0.518887         2.01295
LJ          -3.38378         1.90437        -4.90929
LJ          -4.97911         6.19402        -6.22401
LJ          -1.90704        -1.52563         6.07449
LJ           4.99505         5.60974        0.909435
LJ           2.36106         6.39965         5.29751
LJ           3.09365         2.22819         4.67011
LJ          -6.38561         6.27128         2.73161
LJ          -2.01915        -5.68804        -4.85955
LJ           0.49919        -4.27824        -5.20021
LJ          -1.44925        -2.69058         2.87905
LJ           -2.9885         2.16723         6.04494
LJ          0.753595         5.55913         4.01158
LJ          -0.30952         -3.7969        -4.49853
LJ          -6.39403        0.371074          6.0596
LJ          -3.14644         3.06258         2.41797
LJ           3.51483        -3.75139          4.5546
LJ          -1.60999        -1.19504         -5.9157
LJ          0.403252          5.3352         3.05747
LJ          0.914564        -2.11956        -5.83531
LJ           1.90269         5.88808         2.21466
LJ           1.81108        -2.18544        -2.45703
LJ          -6.30406        -0.54238        0.297213
LJ           4.11617         5.90456       -0.106624
LJ           -2.5007         4.35354         4.59183
LJ            4.0809        0.666217       -0.190512
LJ          -4.61925         3.27777        -4.46648
LJ          -4.79546         -1.2269        -5.82485
LJ           3.94271          -5.791         6.17851
LJ           3.96107         5.92317         4.35575
LJ          -4.81516         4.40177        -4.06459
LJ            6.0519        0.574004         1.77608
LJ           1.75207        -1.87014       -0.401942
LJ           4.25757        -4.44901        0.716613
LJ           4.59594        0.300205          3.8115
LJ            3.1287         4.83725        -1.77575
LJ           1.62627        -4.44956        -6.02934
LJ           1.68175        -3.51782        -5.80552
LJ        -0.0874046         1.80556         1.28301
LJ          -4.80266        -4.92831         1.52905
LJ          -2.03188        -1.52525        -3.67567
LJ          -3.64527         6.30966        -2.87024
LJ           2.55214         -4.3937         2.33579
LJ          -4.84892        -5.06007        0.329161
LJ             -2.39        -3.88615         4.16555
LJ           1.01572       -0.149477        -1.76186
LJ           2.75124         6.30934         3.99982
LJ           2.93279        -4.53109        -5.84935
LJ           4.51887        -4.09669          1.5177
LJ          -1.96525         -4.1648         2.58841
LJ           4.48422        -4.86639        -6.43188
