108
#Comment!
LJ           3.10123       -0.415289         5.40788
LJ           2.87638        0.755344        -2.95515
LJ           2.33524       -0.642569        -6.02224
LJ           4.67162         1.33414          3.8156
LJ         -0.869809         3.41225         3.96046
LJ           1.49537        -1.66917        -2.23497
LJ           -5.7563        -2.48066        -5.87459
LJ           -4.9956         4.20417        -5.74554
LJ           1.34571        -3.22756        -2.38067
LJ          0.969501         5.92229        -5.34365
LJ          -3.08663        -4.65467         2.12234
LJ          -3.97142         2.65712         6.01879
LJ           0.53834        0.395643          5.3697
LJ           2.77522       0.0728915         2.14205
LJ          -3.08724        0.350485         -0.3007
LJ           1.53018         -3.7905         5.59566
LJ          -1.32536        -5.76686        -6.33712
LJ          -2.61279         1.70259        -2.88985
LJ           3.44215         4.43033         2.22828
LJ         -0.639859          6.3058         5.02562
LJ           1.50235       -0.204282          3.1475
LJ           6.11507        -5.05799        -1.01695
LJ           2.90172        -6.34316        -4.85625
LJ            -6.034        -5.85996        -5.13353
LJ            2.6826         2.24487        -1.57965
LJ           4.52835         1.61909        0.176585
LJ           4.72525        -2.47097       -0.640997
LJ           -2.7923          2.5711         5.47445
LJ          -1.17502         6.02704      -0.0281686
LJ          -1.31538      0.00119955       -0.809133
LJ           5.11328         2.84028        -6.15166
LJ          -2.39919          1.2649         2.09142
LJ           -2.2018        -3.50792        -6.10533
LJ          -4.44375       -0.394681         1.79058
LJ            5.2469        -4.12407         -2.0455
LJ          -4.60829        -4.79947        -2.06598
LJ           1.87807        -1.27636         3.62162
LJ           4.80356         4.21796           1.055
LJ           -4.9995         3.26959        -1.32676
LJ          -4.74055       -0.491987         5.64858
LJ           2.73822        -2.04495        -2.49912
LJ          -4.63662        -3.96014         3.41693
LJ          -0.74867         5.12331         3.43352
LJ          -4.16499       -0.277026        -5.58318
LJ           2.54397        -5.99366         4.99458
LJ           4.65976         3.16853         -1.0416
LJ           5.43733        -4.40816        -3.16091
LJ           3.14447        -2.81911        -1.23811
LJ         -0.493072        -4.45953         5.47539
LJ          -1.64453        0.553656        -2.83298
LJ           -6.1948         1.18717        -2.68873
LJ          -1.21935         2.69185        -6.12689
LJ           -6.2754          4.9351        -3.65651
LJ         0.0764993         5.67353        -1.37539
LJ          -2.60552         2.59107        -5.47945
LJ           1.44685       -0.573341        -3.21449
LJ           1.22328       -0.575916        -1.55202
LJ           3.53539        -1.81994        -6.44553
LJ           4.40245        -2.52328         2.35523
LJ         -0.458296       -0.871693         3.18864
LJ          -4.11283         5.43336         1.47556
LJ          0.769718         2.76181         1.92202
LJ           1.90666        0.974609         1.67686
LJ         -0.201883       -0.501313        -5.58948
LJ          -2.31612       -0.901167        -5.38157
LJ           4.10662         5.47328         2.80148
LJ           2.26081         5.71197        -5.13192
LJ           -2.5647       -0.838315        0.025149
LJ          -2.30105        -3.45661        0.736042
LJ           1.61914        -4.83498         5.51927
LJ           1.89901       -0.202819         5.66911
LJ            3.0196         -1.4998        -5.57302
LJ          -3.01237         2.92351         3.94881
LJ         -0.581954        -3.20541        -4.90103
LJ           4.33336         3.54499         -3.4748
LJ           5.71848         4.43267         4.73944
LJ           5.02317          4.6354         -2.3553
LJ          -2.69531         4.86594         3.62315
LJ           6.12199         3.73075        -4.39214
LJ            5.7507         5.42195         1.29273
LJ           4.41392        0.783286        -6.03342
LJ           2.17426       0.0592373        -2.13693
LJ           -5.4412        -1.35376         5.58871
LJ          -1.14609         3.82216        0.238251
LJ          -5.92234          3.6323         5.57422
LJ          0.940193         4.28537         4.86973
LJ           5.82898       -0.565199         2.78659
LJ          0.678068        -1.61247          5.6445
LJ          -0.42146        -3.85019        -2.01312
LJ            4.3065          5.2866        -2.65934
LJ          -1.72761        -1.67744        -2.40085
LJ            3.4327        -4.03317         4.84349
LJ           3.52336         5.88325        -1.04864
LJ           1.53372        -4.27072        -6.42571
LJ          -3.43931       -0.130166         2.81577
LJ          -2.12196         5.46528       -0.775845
LJ           3.06641        -3.48861         5.94528
LJ         -0.174445         4.30156       -0.251538
LJ           5.97382        -1.49847         2.03204
LJ          -6.17902         2.08447         2.62066
LJ           3.47503        -3.12524         1.18089
LJ           4.85967        -3.91606         5.05957
LJ          -3.42336        -3.49254        -5.46504
LJ          -5.28971        -5.33716         5.98311
LJ          0.373196        -3.73889         5.30271
LJ          0.436735         6.39401         5.09391
LJ           4.77361         2.39749         3.56604
LJ           -2.1873        0.199736         3.68933
