108
#Comment!
LJ           4.28164         5.65328         4.54413
LJ          -5.02537           3.202         3.60019
LJ          0.757813      -0.0939476        -2.34887
LJ          -2.93819        -5.47151       -0.918072
LJ           1.94833         5.12644        -3.81011
LJ          -2.40573        0.121025         -4.9561
LJ          -1.50145        -4.73985        -1.95026
LJ         -0.587473        -5.47474         6.27831
LJ           1.93873         -5.8358        -6.39659
LJ           -1.2617        -2.00413         5.11541
LJ             4.733        -1.01451         5.21237
LJ          -5.89581         6.22474         3.83518
LJ           3.60972        0.833671         1.39585
LJ           5.80774        -5.39796        -3.03711
LJ          -5.03453         1.36353       -0.507869
LJ            2.8722         4.72005         1.89332
LJ          -3.99021         2.60393         3.61932
LJ           5.71484         1.13866       -0.631136
LJ          -4.72194        -4.75101        -5.82624
LJ          -2.16809        -1.21013        -4.09841
LJ         -0.709213      -0.0830074         3.58032
LJ           5.52384        -2.83917         2.63537
LJ           2.76688         5.84352         1.05748
LJ          -3.91078         2.31614        -4.81992
LJ          -1.10144         1.49931       -0.907193
LJ           4.62412        -3.64371        0.430588
LJ          -5.81162           -5.82         6.06445
LJ          0.994335         5.82329       -0.805514
LJ           3.86511         3.15894        -3.92465
LJ           1.61908         -6.4461        -3.71192
LJ           5.47808        -1.12782         4.49031
LJ            6.1514         4.59394       0.0100319
LJ          -2.64774        -6.03152        -3.74709
LJ          -1.46881        -4.00612        -2.83386
LJ          -1.67621         6.30702        -5.24137
LJ           -6.4149        -3.87152         -3.1447
LJ           3.03237         -6.1685         2.51567
LJ         -0.648644        0.593076        0.832591
LJ         0.0794266         6.07578        -1.38606
LJ          -5.92216        -4.52451         2.08432
LJ           6.37461       -0.206217        -1.99039
LJ          -4.28933         -1.1839         0.27429
LJ          -6.10405         2.69378         4.15064
LJ          0.738069         1.93645        0.379688
LJ          -5.26784         5.69194        0.612484
LJ          -3.74454        -2.36007        -2.49046
LJ          -2.79245        -2.27662         1.44779
LJ         -0.327552        -5.88721       -0.484731
LJ           -1.0249         6.24854         5.84089
LJ           0.19916        -1.93579        -1.75712
LJ          0.738707         3.79218         -3.3236
LJ          -3.73697        -6.26621         2.43953
LJ           6.07532        -5.13868         3.81511
LJ           1.32136        -5.67379         4.33212
LJ          -3.34291         1.01849         5.55275
LJ           2.86487        -2.38381         3.27726
LJ          0.403431        -2.06037       -0.510155
LJ          -5.74241        -2.77968         5.30145
LJ           3.43258        -2.66606        -2.96123
LJ          -3.90543       -0.338016        0.953951
LJ           3.24766         6.16106         -6.4605
LJ           4.16198        -3.39496        -4.19693
LJ         -0.691962         -3.4085        -2.36191
LJ         -0.377658         4.39963        -2.67556
LJ          0.424741         3.29328         -6.0372
LJ          0.203717        -1.86228          4.9001
LJ           1.92647          2.6586         3.60021
LJ         -0.797804         3.07876        -5.57981
LJ          -5.12671         2.30857        -1.67272
LJ           5.86459         1.82737        0.934468
LJ          -4.12614         5.99078       0.0820855
LJ           5.64353        -6.29569         2.10765
LJ            1.8677         6.26857          3.2088
LJ           4.78118        -2.08386        -5.32163
LJ          -1.24793        -4.22301         -6.4032
LJ           -4.0813        -2.08245        -6.12174
LJ          0.579631         6.06651         3.27314
LJ          -2.41867         -1.6538       -0.784103
LJ         -0.921494        -5.46703         4.50216
LJ          -2.29321        -4.50509         4.03539
LJ          -6.04796         0.37337          4.2921
LJ         -0.151857        -1.35732         3.62003
LJ           3.60012         3.35627         1.60884
LJ          -3.54972        -3.68902         5.46271
LJ           4.81616        0.472024         2.28651
LJ           3.36296        -4.75885       -0.211666
LJ          -2.90698         5.68312        0.821629
LJ          -4.78978        0.299626        -1.03144
LJ          -1.04294        -2.54722        -5.83876
LJ           3.95661         2.49148         -5.0054
LJ          -1.47197        -4.49087       -0.609151
LJ           5.05663         -3.2377         5.62916
LJ          -1.41364         5.64315        -6.35934
LJ           2.41338        -5.67639        -5.36082
LJ           3.46172        -1.06982         3.18464
LJ           4.29585        -6.33457          3.3602
LJ           -3.8973        -1.27373         1.55521
LJ          -1.13245         2.92194         3.05283
LJ           2.58588        -6.24225         5.05962
LJ          0.439726         5.47087        -5.66391
LJ          -1.32664        -2.87273        -2.78237
LJ           6.21161        -3.35709         6.42253
LJ          -4.25089          3.6702        -2.09839
LJ           4.84057        -5.68243         1.15175
LJ          -4.62502         3.49423        -3.44397
LJ           2.35986         3.05963       -0.298684
LJ           1.86128        -3.10627        -3.84131
LJ          -4.84264         -1.4492        -3.89286
