108
#Comment!
LJ           1.46053        -1.24036         1.40227
LJ          -2.55006        -1.75197          6.0459
LJ           1.34812        -1.57352         3.23733
LJ          -6.18792         -3.8464        -3.54075
LJ           4.76918        -4.61728         5.75844
LJ          -3.99652         1.70068        -0.50666
LJ           2.01947         4.61892        -2.22213
LJ           4.94378         3.63576         3.66831
LJ           1.39292         3.51369         2.27069
LJ           3.08403         0.99533        -1.67784
LJ         -0.756346        -6.01139        0.500787
LJ          -3.48793        -4.64462        0.457901
LJ          -1.16339        -3.73796         2.49557
LJ           6.37698         4.60113         -4.1829
LJ         -0.227256        -2.13761        -5.67697
LJ          0.900183        -2.02761         5.16206
LJ         -0.227919         0.80253         3.62223
LJ          -1.11781        -1.70747        -4.20963
LJ        0.00808049         4.02029        -4.90646
LJ           5.57212         1.48248         2.16494
LJ          0.416018         5.09841         -5.3109
LJ           2.45178          3.9322        0.894933
LJ          -6.06265         1.95966         5.77125
LJ           6.03427       -0.843846         1.09016
LJ          -5.68577         1.84801         3.25729
LJ         -0.230184        -5.88766         2.09016
LJ          -6.27868         -2.4171        -5.05046
LJ          0.210581         5.83807       -0.300989
LJ          -2.25188        -2.92784        0.999266
LJ           1.37242         5.97743         5.75073
LJ          -6.31139         3.22234         6.19444
LJ          -6.35856        0.988935         4.97386
LJ          -3.43568       -0.491783       -0.719542
LJ          -5.00849        -4.83154        -5.37801
LJ           1.93546         4.13015         3.04309
LJ         -0.301093        -5.91286        -3.12887
LJ           -2.3872        -1.90515        -1.63755
LJ           1.05335         2.80158        0.577704
LJ             4.411        0.494714         1.77971
LJ          -3.70908        -5.83861         4.40224
LJ         -0.384107        -4.91294        -1.02426
LJ           4.94651         -2.7703        -5.07841
LJ          0.912649        -4.85463         2.73928
LJ         -0.497531         5.73937         5.97161
LJ           4.67522        -3.96468         -4.3632
LJ            4.5076         3.71805         2.49159
LJ           2.68516        -5.01408         6.31027
LJ           1.15318         2.52986        -2.69067
LJ          -1.11714        -3.03151        -5.54969
LJ            4.2055         5.10837         1.12077
LJ          -0.33405         1.68214        0.370467
LJ           1.76502        -5.72155         6.11373
LJ           5.58586        -3.50947         3.07031
LJ          -2.91972         4.21865        -2.21847
LJ          -1.66325        -4.11695        -4.41593
LJ          -5.11646         3.14273        -3.98768
LJ          -5.78221        -1.95069         4.56447
LJ          -0.74333        -4.40933         1.52901
LJ           4.26638       -0.876277         4.60554
LJ          -0.32714        -5.02968        -4.45903
LJ           1.72449        -2.72591         3.36995
LJ          -4.18069         2.04285        -2.80948
LJ          0.712311        -4.90733        0.432166
LJ           1.71297       -0.225124        -6.17604
LJ           2.02251         2.34002        -3.25288
LJ          -5.32696        -5.28109         5.69292
LJ          0.626893         2.93726         5.08915
LJ          -2.43376        -6.04226         4.31137
LJ           -6.3769        -2.26682         6.04451
LJ          -4.99226         3.02006         3.29556
LJ          -3.30123        -1.18013        0.525929
LJ           1.95289       -0.261726        -2.75452
LJ          0.174182         6.24001        -5.26888
LJ         -0.105123        -4.24299         3.84708
LJ          -4.63454         1.74702         5.88553
LJ             3.566        0.203346         4.53641
LJ           5.16036         3.19666        -6.29607
LJ          -1.86544         5.24073         3.64394
LJ          -2.04455        -4.02989        -3.07566
LJ           4.82737        -5.61311        -4.88268
LJ           1.88107        -5.24353         -1.0356
LJ          -4.48716         5.50417         4.53647
LJ          -5.39368         3.28189         4.74099
LJ           -5.0254         2.61771         6.41259
LJ          -2.61399         4.43987        -3.28332
LJ          -5.94292          2.5697         2.28409
LJ          -1.68839         1.72008         4.12051
LJ          -5.45479        -4.86851        -2.46067
LJ          0.157508        -2.13199        -4.09464
LJ           4.79166         -1.7349          2.2573
LJ          -3.48995        -1.26886        -6.36132
LJ           3.11757         1.53241       -0.104249
LJ         -0.980307        -2.93129        0.132042
LJ          -1.33908         1.24492        -4.29265
LJ           2.19761         5.74343         1.77913
LJ          -3.94044        -2.26171         4.56636
LJ         0.0193719       0.0820409        -4.65449
LJ          -3.81435        -5.64519       0.0164734
LJ           1.70457          2.1682        -4.38572
LJ           0.54186         5.52357         3.08755
LJ           4.08401        -4.40299         3.51499
LJ          0.662194        -3.10405          5.2423
LJ             5.077        -2.68709        0.990718
LJ          -3.89682        -5.12337        -1.35516
LJ          -4.26989        0.150052        -1.40275
LJ           -4.1024        -3.19131         -1.1783
LJ           6.22034        -3.92411        -2.67909
LJ          -2.90266       -0.410424         6.46311
