108
#Comment!
LJ           2.74153         2.61009         4.35742
LJ         -0.679907       0.0792603         2.25063
LJ          -3.49121        -5.67161        -4.95819
LJ          -4.45465         4.92159        -5.27286
LJ          -1.99206         4.20474         5.35622
LJ          -4.05536         4.57827         -3.4592
LJ          -3.35698         4.04847        -1.49088
LJ          -5.96249        -1.09366         3.30555
LJ           1.86665        -5.59665         4.21529
LJ           5.91763        -1.83896       -0.197753
LJ           2.81362         -1.6952         3.27043
LJ         -0.926749          2.7766         3.35577
LJ          -6.19338        -4.24515         4.61531
LJ           2.98161        -3.93894        -2.39218
LJ           -2.6373        -5.93787        0.224196
LJ          -4.36195         5.49532        -6.44403
LJ           2.58082        -1.54086         4.89899
LJ          -5.85085        -1.71299        -3.48275
LJ           2.79939         2.11482        -2.55602
LJ          0.862973         4.25544         1.11721
LJ           2.74286        -1.86176         1.46181
LJ           2.79658        0.367139        -1.78677
LJ         -0.864177        0.137176         -2.7774
LJ           2.52228         3.27006       -0.731599
LJ          -1.47387         1.55234          5.0029
LJ          0.378321       -0.417613        -0.64847
LJ           2.80696         1.83769        -3.95222
LJ           2.02721         -3.5543         4.40595
LJ          -5.89963        -5.07809        -5.53097
LJ          -3.79218       -0.128017        -5.26377
LJ          0.905964         1.59046        -4.71694
LJ           1.16453          2.7736        -6.01881
LJ           2.66485          3.2104         1.27665
LJ          -3.59741         0.60977         3.62074
LJ         -0.335996        -1.55265       -0.644456
LJ          -2.94284         1.61004         3.75339
LJ           2.00775         6.24927         -2.9988
LJ          -2.33765        -5.24612         3.34639
LJ          -3.83214         3.10407        -6.46025
LJ           6.22049        -3.03652        -1.49209
LJ           5.29652        0.904741         5.37141
LJ          -5.07955          -2.284        -5.97026
LJ          -5.21949        -1.38317         6.45022
LJ          -1.75409         1.84472      0.00558473
LJ          -4.66383        -4.14537         6.23711
LJ           2.81093         0.12572          5.6692
LJ          -5.78138        -2.67308        -1.47789
LJ           4.43289         1.44641        -2.24497
LJ           4.56378       -0.746126       -0.235927
LJ           4.97617        -3.81807         1.69744
LJ          -4.52367       -0.238641        -4.25815
LJ           5.88414        -1.27875        -3.19742
LJ        -0.0229707         5.50569        -2.66496
LJ          -5.84373        -5.03394       -0.248415
LJ          -3.62255        -3.20159         2.30075
LJ          -1.18084         6.38538         6.29926
LJ           1.40284        -1.69067          5.5872
LJ          -1.12402        -2.90927         5.51337
LJ           4.33151        0.841007       -0.370957
LJ           5.43159       -0.786246         -5.4533
LJ          -3.08544         5.09792          3.9586
LJ           -3.1688         1.45537        -3.31196
LJ           5.50046        -1.42824          3.8056
LJ         -0.421621        -1.72848        -4.23104
LJ           5.18442         -2.0147        -1.96041
LJ           5.18371        -3.64713         4.62123
LJ            1.6151        -3.51389        -3.38536
LJ        -0.0665838        -5.71509          1.5162
LJ          -4.56789         3.43436        -5.76858
LJ          -4.07332          1.3376        -5.69983
LJ         -0.603414        0.278138         3.95613
LJ          -3.52105        -5.32106        -1.30532
LJ          -4.40269        -5.25517         4.53354
LJ           3.59666        -2.29802         6.37688
LJ           0.18531         4.50516          -1.945
LJ           2.02399        0.988143       0.0741869
LJ            0.7564          1.8295         6.13337
LJ           1.44699        -4.20096         2.58832
LJ          -2.13665         5.48788         1.81889
LJ          -6.44475          5.4795        -6.02123
LJ          -5.09909        -6.19127         1.73937
LJ           3.85837        -6.19582         2.77879
LJ          -1.02409         1.03069          1.0066
LJ          -4.93879         1.31456         2.05885
LJ          -2.92786        -2.53941       -0.942865
LJ           1.07786         2.77202         2.67039
LJ          -4.76769        -1.91765        -3.56676
LJ          -3.51335         4.92095         5.45743
LJ         -0.147936        -1.99628           -2.42
LJ           2.48262        -3.33757         1.24268
LJ          -5.05287        -4.55818        -5.51949
LJ          -5.60982         2.33816         2.19162
LJ           4.98291       -0.646116        -2.53062
LJ           4.72443         1.19998        0.584707
LJ           2.43124         4.87404         6.38405
LJ          0.486608        -6.02661        -5.51174
LJ          -4.90787        0.586401         3.49858
LJ           4.43237        -5.12844        -5.13395
LJ          0.395115        -2.52994         3.51148
LJ           3.59315          6.0968        -5.24965
LJ           3.96291         4.85991         5.96502
LJ          -5.64631        -1.17643        0.843211
LJ            1.3617         4.24037       -0.185548
LJ         -0.704787       -0.923804         4.02106
LJ           6.14898         5.34475         4.90472
LJ           4.16666         3.26591         5.83208
LJ          -5.41602        -1.45092        -5.21038
LJ            1.2389          1.9264        -2.12998
