108
#Comment!
LJ          -1.16295         -1.6443        -5.09506
LJ          -1.26289        0.889793         0.13629
LJ         -0.531935        -5.12627         1.39938
LJ           3.64356      -0.0958766        -1.68245
LJ          -5.92417        0.902678        -3.76737
LJ           3.24233        -5.20224         1.12819
LJ          -3.95785        -4.13985        -3.44661
LJ           -4.2961        -3.74724         6.00848
LJ           -5.7829         6.08997        -1.38105
LJ         -0.658469         4.80473        -3.38419
LJ           -2.1524         -1.8974        0.780195
LJ           -5.5414         1.83364        -1.42643
LJ           4.43136          1.9955        -2.53458
LJ          0.482965        -4.32009         3.10741
LJ          -5.15788        -3.58861         3.17008
LJ          -1.93314        -6.40085        -4.08368
LJ          -1.02256        -5.97771        -1.94423
LJ           2.09393        -1.18288        0.199223
LJ           -2.0231       -0.729971       0.0428318
LJ           2.12501         5.90575        0.217626
LJ           1.07715         5.08853        -1.05701
LJ          0.241493        -6.28094        -1.50939
LJ           -2.5853        -5.01803        -5.33826
LJ          -6.41922         6.30684         -6.2003
LJ          -1.74115         1.80346        -6.07569
LJ          -3.92464        -3.69931       -0.402839
LJ          -4.42689         2.87708        -5.52711
LJ            1.5318       -0.168814        -1.36169
LJ          -2.94135         -3.6401         5.41527
LJ          -6.33282       -0.289444        -6.06682
LJ           2.01445         4.10329        0.214953
LJ          -2.43324        -3.43151       -0.109431
LJ          -1.06732         3.06665         6.32072
LJ          -3.68498        -1.17121        -3.78877
LJ           5.91341         1.89971        -1.67223
LJ          -1.80324         2.76842        -4.91378
LJ           -2.2701        -4.57703        0.362332
LJ           6.19592        -2.26524       -0.178918
LJ          -2.73401          1.8482         3.40495
LJ           5.68843         2.07689         5.72301
LJ           3.33102        0.209022        -3.16622
LJ          -1.98705         1.47644         4.54891
LJ          -3.63953       -0.735142         5.15214
LJ          -3.30791        -2.49753        -5.08903
LJ          -4.10073        -4.18262        -1.62588
LJ           5.00018         5.55335        -5.96774
LJ           4.29507        -5.29751       -0.801631
LJ           1.22082        0.175484         -2.7246
LJ           1.65005         3.47038         4.58677
LJ           5.78418         1.46573        -3.30535
LJ         -0.125964        -3.70241        -3.00874
LJ           2.27188       -0.258432          0.9692
LJ            1.0562         3.13924        0.370504
LJ           2.63723         3.06214         6.00594
LJ           6.29901        -1.06725         5.57057
LJ          -5.80078         2.65209         3.77524
LJ           2.03071        -1.14883         1.71694
LJ         -0.278196        -2.54685        0.225544
LJ        -0.0693751         1.02299         5.86728
LJ            3.3779         5.94905        -2.27318
LJ           5.34033        -5.05937         -2.5548
LJ          -5.44556       -0.655365         4.41003
LJ          0.135369        -1.06678       -0.595515
LJ           3.77705        -5.60862        -3.29975
LJ           3.63602         1.86962        -6.33414
LJ          -3.60967         2.40206         2.30677
LJ         -0.713385       -0.564313         6.41873
LJ          -5.86327        -3.76367        0.336669
LJ          -6.44094         2.65143        -3.97524
LJ          -0.28139        0.303733         3.69007
LJ           5.90403         1.87557       -0.373518
LJ         -0.957855      -0.0870585       -0.754099
LJ           5.86139         6.09893        -2.09533
LJ           5.42153         5.93993        -4.78265
LJ          -1.52376        -1.20916         1.26814
LJ             6.018        -5.76852         4.49748
LJ           6.32315         -5.9439         1.87914
LJ           5.93953          3.5446         2.45654
LJ          -4.98514        -2.79222        -3.15296
LJ            5.0127         -6.0608        -2.68111
LJ          -3.30059         -2.3179         4.71497
LJ          -2.27007         3.52767         5.44491
LJ           2.53537        0.764285       -0.509707
LJ           -3.0822        -1.45326        -6.13942
LJ           2.24026        -6.37297        -2.87987
LJ           2.31213         -2.2705         1.03056
LJ          -5.39804        -1.49736         3.45197
LJ          -5.04413          4.2194        -3.01448
LJ          -4.85345         1.47729        -3.20241
LJ          -3.47992       -0.698685        -5.22086
LJ          0.216805         5.67774         2.91726
LJ           -2.0158         -5.2785        -1.98571
LJ          0.812175         5.47647       0.0278764
LJ           5.58472        0.889451         2.92302
LJ          -2.80882         3.28495       -0.932615
LJ          0.341968         4.75081         -2.7782
LJ          -1.80992       -0.523338        -1.49329
LJ          -0.15739        -3.43815       -0.998145
LJ           2.30561         3.05113         2.95811
LJ          -2.02373        0.128696        -3.35316
LJ          -4.27068        -2.53439       0.0328163
LJ         -0.961343       -0.894463      -0.0714663
LJ          -1.72575        -1.44485          3.3826
LJ          -5.42078         2.52999         1.64298
LJ          -0.57492        -6.18375         2.00384
LJ         -0.752894         4.22568       -0.146591
LJ          -4.98357          6.1742         4.72023
LJ         0.0400531      -0.0327058         1.94102
