108
#Comment!
LJ           4.82234        -6.43852         0.46125
LJ          0.960945        -3.06703         4.29137
LJ           1.05676         1.00832       -0.831287
LJ           2.59977        0.794288        -3.78179
LJ           0.92478        -4.16304         1.87974
LJ           3.01469         4.45236         5.51716
LJ          -5.13215         2.51056         2.80748
LJ            0.5301        -3.44837         2.93018
LJ         -0.990118       -0.258098       -0.771796
LJ           2.01968        -1.44323         3.85537
LJ          -0.36518         4.07964        -3.73304
LJ          -6.15474         5.14241          4.1173
LJ          -1.89489         3.15717         4.45741
LJ          -4.04198       -0.074389        -4.94066
LJ         0.0214213         4.30041          1.5383
LJ            5.2583         3.96527         -2.7881
LJ         -0.268279        -1.84205        -4.25151
LJ           4.40112        -4.28668       -0.116859
LJ           5.14566         3.41672         4.00046
LJ           2.53202        -5.95015          6.0542
LJ           3.09676        -5.64392       -0.738529
LJ           4.39465       -0.393493        -3.97719
LJ           3.19926      0.00344202          5.1375
LJ          0.949321         3.73661        0.691419
LJ          -2.53881          1.3455        -4.92561
LJ           6.07305         2.03548         5.09029
LJ          -6.31269         5.26075        -5.20506
LJ          -1.93513         1.36868        -4.02602
LJ            6.0358         5.68595         5.13601
LJ         0.0794373        -4.76892         4.28262
LJ           2.29321        0.464373       -0.745092
LJ           3.38389        -1.35901         2.51608
LJ         -0.593775         -5.2559        -6.22353
LJ           5.41418         3.63168          5.3236
LJ          -6.27685        -3.92827        -2.17385
LJ           -2.1659        -3.05438        -2.84107
LJ          -1.93669       -0.371795         3.21122
LJ           5.85054        -5.06666         2.15557
LJ          0.614635        -5.71893        -1.88841
LJ          -1.64404        -4.54654         4.58047
LJ          -2.48369         1.19817          5.4473
LJ          -6.26662        0.945737         1.43854
LJ           5.36297        -2.73228         1.68964
LJ           4.98158         4.48637         4.04887
LJ          -2.91364         5.01897         4.64562
LJ           3.60811         3.67921         1.12225
LJ          -5.22895       -0.446293        -5.43518
LJ           5.63442        -5.73211        -1.39687
LJ          -1.21116         -2.2684         1.22466
LJ           6.25495         5.73666        -3.16378
LJ           5.38337        -1.68958       -0.140643
LJ           -4.7037        -3.74579         2.54504
LJ           1.93125         5.02517         2.95537
LJ           2.20171        -2.32724       -0.183535
LJ          -5.67755         5.35239         1.18615
LJ          -3.46742        -2.13783         5.08046
LJ          -4.51459         3.94733         2.70554
LJ          -2.96517       -0.723713         2.56618
LJ          -3.31295         2.99167        -4.50609
LJ           -3.2176        -5.26236        -5.21681
LJ          -2.70215       -0.768786        -6.43527
LJ           4.48439         5.52025         1.41713
LJ            1.4699           -6.23          5.3026
LJ           3.23159           3.529         2.52797
LJ          -4.09715         6.38208         2.43659
LJ          -3.05462         -6.4317        -4.33273
LJ        -0.0506093        -5.16465        -4.72106
LJ           -1.8816        -2.06086         4.75602
LJ          -2.45719         3.27942        -6.03494
LJ           2.23883         5.68297         3.97395
LJ          0.238157        -5.31564        -3.06188
LJ           5.37907         1.68431         -5.4872
LJ          -2.38766         2.81448         1.12058
LJ            4.2609        -4.27924         4.12351
LJ         -0.206578        -1.26753        -5.59261
LJ          0.481035         5.04998         3.51365
LJ          0.956417        -2.29327        -5.75544
LJ           2.43822         5.51219         1.49722
LJ          0.437092        -2.39188        -2.85565
LJ           6.18101       0.0978918         2.16484
LJ           4.62941         5.55238       -0.106342
LJ          -3.36099         3.54253         5.57942
LJ           3.98696       -0.251614       -0.990766
LJ          -3.08249         4.08982        -4.24089
LJ          -4.09907        -1.60505         6.24011
LJ           4.13523        -5.51331        -5.93164
LJ           4.01327         6.02021         4.20285
LJ           -5.8731         4.58431         -4.5602
LJ            6.4034         1.63414         3.05603
LJ          0.546624         -2.7783         1.46765
LJ           4.83119        -5.18236       -0.786742
LJ           4.47836        0.335724         5.19501
LJ           2.35686         5.28707        -1.37651
LJ           0.72524        -6.45281         6.00206
LJ          0.695269        -3.78188         -5.9223
LJ         -0.680116         1.39516        0.587271
LJ          -4.48455        -4.04965         1.43396
LJ          -1.15237         -1.2346        -3.24663
LJ           -3.9404         6.21619        -3.20189
LJ           2.86556        -4.84789         2.87565
LJ          -5.73249        -4.13247      -0.0797869
LJ          -4.22531        -4.32541         4.74092
LJ           1.65885     -0.00263986        -1.64744
LJ           3.06047         5.83116         4.74155
LJ           4.18802        -4.71938        -5.11314
LJ           5.52278        -3.49398         2.33444
LJ          -2.67494        -4.34277          3.1998
LJ            4.6157        -4.62031         5.75704
