108
#Comment!
LJ          -1.81397        -5.28926         -4.5807
LJ         -0.807457         -2.1675       -0.941549
LJ          -2.72481        -2.62546        -5.58512
LJ           1.85207        -6.10906         -3.1426
LJ          -6.17678         2.51277         1.56091
LJ            3.6228        -1.94491        -2.44416
LJ           1.95343        -4.79728        -3.29933
LJ          0.239482        -2.74393         2.98001
LJ           5.50597        -2.16217        -4.45279
LJ           1.63197        -2.82241         -6.3413
LJ          0.319323        -6.30417        -2.05065
LJ           1.70065        -5.12192        -6.45518
LJ          -4.13355          5.9929        -2.00094
LJ          -3.77746         2.90517         2.36032
LJ           4.33793         1.93646        -4.66788
LJ           1.84261        0.234915         5.71918
LJ          -5.69903        -6.07348       -0.431662
LJ           2.33921        -1.28735        -4.06144
LJ          -2.57715        -4.14708        -2.05515
LJ           -5.1749         5.03395       0.0478084
LJ           5.67664       -0.575831        0.650559
LJ          -3.57497         4.27037        -4.65481
LJ          -6.41006       0.0674098        -4.50462
LJ         -0.609903        -5.17709        -1.75263
LJ            3.7974         6.05882          -1.098
LJ           3.86726        -5.01166         3.90716
LJ           4.56106        -2.86457        -4.04785
LJ           1.71102         -3.0177         4.87697
LJ          -3.29707        -4.10528         -5.3855
LJ          -4.81275         -2.9174         5.16881
LJ           4.62044         2.89786          -3.008
LJ          -4.23907         -1.3753         3.05771
LJ           4.65077         5.49343       -0.716904
LJ           1.43019         -1.4051         4.59981
LJ          -5.78841        -3.78751        -1.52717
LJ          -5.10689        -4.31834         1.85678
LJ          -2.33033       -0.684791        -2.14429
LJ          -1.01894        -1.95165         2.28449
LJ          0.632681        0.565149          1.2616
LJ           5.72713        -1.75027          5.6864
LJ          -4.05333         1.47916        0.611597
LJ           5.26734        -4.66012        -6.17477
LJ           5.97205         1.19874        -6.31172
LJ          0.405318         1.90038         3.36644
LJ          -2.43258         5.63166         2.16608
LJ          -3.01824         2.96254        0.436273
LJ          -3.79983        0.201079        -3.30074
LJ          0.718676        -2.47892       -0.852081
LJ          -4.35273         -4.0569        0.555011
LJ           3.23409         2.66699         -4.4893
LJ           3.61425         2.00516       -0.527689
LJ           6.22134       -0.989646        -5.11856
LJ          -3.74432        -1.42012       -0.561981
LJ           1.24353         3.83331       -0.523549
LJ           6.41123         1.91471         2.32907
LJ          -4.36142        -0.49431         5.48862
LJ          -1.75483         -3.1499        -5.75275
LJ           1.73132        -4.60573        -4.94449
LJ           5.92294        -2.92796        -3.43627
LJ           5.36984        -1.90118        -5.79467
LJ            6.1899       -0.894315         6.13375
LJ           4.13788        -3.96808         5.36981
LJ           4.14904         2.30532         3.57427
LJ           -1.0084       -0.848445         2.49537
LJ          -4.33051        -2.83575         -2.5359
LJ           6.12681        -1.65292         3.65447
LJ           3.57403         3.01473       -0.811074
LJ           2.02634       -0.529135         -5.1802
LJ          -6.33741        -1.58515         4.76947
LJ          -3.54183         1.19541        -3.32013
LJ          -3.42712         4.95711         1.95872
LJ           3.58866        -5.64532         2.54533
LJ           2.45136       -0.377725        -1.14815
LJ          0.646676        -1.62557        -6.24832
LJ           -5.1815         4.69479         1.17621
LJ          -6.06578         -2.6026         3.69037
LJ         -0.333607         2.49175         1.84925
LJ          -2.00276        -2.80331          4.5854
LJ          0.335286        -1.11484        -4.84011
LJ          0.103459         4.35085        -1.20504
LJ           2.04699         3.18892        -2.55354
LJ            3.1813         3.58873       -0.079876
LJ          0.315174        -2.32103         2.18929
LJ          -1.12499        -1.99304        -5.19213
LJ          0.454282        -4.63186         2.08123
LJ           2.63884         4.39915         5.85487
LJ           5.30177         4.58319        -4.05349
LJ           6.06774         6.27803        -5.29929
LJ          0.191947        -2.85958        -2.06156
LJ          -1.76353        0.211635        -4.77514
LJ           -6.0205        -4.92467        -3.12426
LJ          -4.54172        0.833349         4.42174
LJ           4.56701         5.21729         5.15688
LJ           6.14403         6.30745        -2.98456
LJ          -2.72119        0.325075         1.74641
LJ          -6.00711         5.96278         3.47601
LJ          -2.51129        -5.51281         6.14514
LJ           6.37491        -4.27503         4.56397
LJ        -0.0822689         -4.3462         3.05914
LJ           -1.2571        -5.75018         3.20678
LJ            3.6707         2.84869         -2.1221
LJ             2.912         5.81775        -1.52763
LJ           3.89197        -2.21346        -4.09966
LJ           5.22561       -0.740371         -6.4113
LJ          -5.74299         6.09523        -1.42277
LJ          -3.31256         5.11985        -2.32788
LJ           1.01277         4.60082         3.49843
LJ           1.13216        -4.91771        0.297168
