108
#Comment!
LJ          -2.68495        -5.52123         6.25589
LJ          -2.81775       -0.398477        -2.90138
LJ          -1.47704        -2.15776          1.4738
LJ           1.96304         1.89181        -1.13277
LJ           2.91371          3.9353        -1.69869
LJ           4.57914        -5.19113        0.625877
LJ           4.79003         -3.6468         4.47742
LJ           -5.6447         2.23707          5.1111
LJ           5.37266         4.79069         3.39396
LJ          -1.54455        -6.37103         4.92634
LJ           2.28527         -2.5531         3.56584
LJ           5.57024         5.94943        -3.51902
LJ           3.95976       -0.035077        -2.12796
LJ           -1.1079        -4.90575        -1.19969
LJ         -0.753265        -2.99356      0.00606805
LJ          -2.57651         6.44118         6.42671
LJ         -0.606841        -2.33067         4.92085
LJ           5.92868         0.71324         1.89281
LJ           1.77042          3.4432         3.34046
LJ           5.18573         3.93509         5.36752
LJ           1.17229         3.59109        -1.62618
LJ           1.36624        -6.41744         1.97255
LJ         -0.777613         5.30206         5.14791
LJ          -6.37083        -2.13434         4.50084
LJ          -1.99103       -0.921044         4.94077
LJ          -4.49258        -5.53616          6.0263
LJ          -5.64162         4.19393        -6.38578
LJ          -3.82394         -1.6743        -3.52373
LJ           2.62164        -1.48509         3.68839
LJ           1.78008       -0.654776        -1.03825
LJ          -5.98096        -6.03439       -0.725024
LJ          -3.56427         1.14244        -1.78997
LJ           1.96148        0.342256        -1.72448
LJ           3.80021         2.75617        -2.46034
LJ          -6.33605          5.7239        -2.97409
LJ          -1.66544         3.94167        -3.62737
LJ          -1.36168       -0.675076         2.18194
LJ           4.44203        -4.94158        -1.02768
LJ        -0.0974441        -2.20111        0.566413
LJ           5.31812        0.643861         2.85188
LJ           5.89611        -4.75839        -3.10828
LJ           3.66667         6.07463        -5.47785
LJ          -6.26804         2.08882         3.41009
LJ          -1.19013         2.00205        -5.20183
LJ          -3.31042         -4.2801         0.22158
LJ           1.56627        -3.69479        -4.94341
LJ          -3.11301        -2.96789         2.44908
LJ          -1.67402        0.820211        -1.88417
LJ           3.77255         1.83762        0.979894
LJ           3.95895         2.49113        -1.47905
LJ         0.0979849        -4.13625        -1.43813
LJ           4.78373        0.473464       -0.849536
LJ          -3.84832         4.15947         1.15227
LJ           1.78915        -0.28213        -6.23517
LJ          -4.57913         2.20147         4.65238
LJ           3.44447         3.45342       -0.958052
LJ           3.64669         -4.2811        -2.77607
LJ          -4.11003       -0.356715       0.0201562
LJ           5.83566        -3.94372        -2.32496
LJ           -5.0335         1.38497        -1.74571
LJ           6.38275        -5.31874         2.48363
LJ           5.31827        -4.36792       -0.301376
LJ         -0.289618        -4.59012        0.967929
LJ          -1.48955        -5.15655        -6.25533
LJ           3.87327          2.8419         4.49324
LJ            2.9659         3.72477         2.27102
LJ           -5.9707         1.49013        -2.10747
LJ           4.76618       -0.706514        -2.32055
LJ          -6.00822        -6.16381        -4.25569
LJ           2.76335          2.6231        -5.27311
LJ           3.00186        -4.01594        -1.75691
LJ          -1.90636         3.51805        -0.42781
LJ          -4.17312        -6.24114         2.36497
LJ          0.674337         -3.1199        -3.96493
LJ           1.31792        0.139698         2.30835
LJ           1.76252        -2.34352         5.53863
LJ          -3.72147         5.68218         1.21233
LJ          -3.66326        0.161611         1.19832
LJ          -5.46017        -4.85541        -4.06446
LJ          -5.54343         -2.4124        -3.55494
LJ           3.23993         2.02607        -4.11337
LJ         0.0673145         3.80174        -1.85316
LJ          -3.90956         2.16474        0.636482
LJ         -0.861455        -2.79296        -4.63419
LJ           4.27119        -6.24627        -5.05746
LJ           4.07596        -3.01442         1.14456
LJ          -6.12381       -0.536752         3.27725
LJ            5.8585        -1.47092       -0.933614
LJ           3.44226         1.60054         4.99007
LJ         -0.352682         2.35879          1.2802
LJ           2.55939        -4.84903         1.19967
LJ          -3.94925        -4.30197        -6.21414
LJ           1.69465         5.41952         2.96017
LJ           4.84142         1.92277         1.12892
LJ          -1.90181         -1.1451        0.632121
LJ          -2.33572        -2.99672        -3.03508
LJ          -2.99827        -6.20624         5.26948
LJ           1.97044        -2.07772        -2.15701
LJ           0.21494           2.959       -0.234009
LJ            1.7419         2.93099        -3.13364
LJ           5.85535         1.88883          -0.394
LJ         -0.414524        -2.33031        -1.36449
LJ          -1.21521         -1.8021        -6.26615
LJ          -4.48876        0.629064         1.99785
LJ           2.87851         5.76931         1.37206
LJ          -4.15084        -3.42153         4.68945
LJ          -5.92835        0.646381         4.25742
LJ          -1.04119      -0.0564662         4.09191
