108
#Comment!
LJ           1.75546         5.37632        -4.48209
LJ          -4.34816         5.26223        0.502265
LJ           3.80416         6.17287        -2.91139
LJ          -3.18131       -0.805788       -0.335935
LJ           6.41944        -4.52238         3.24507
LJ          -4.90911        -3.67276         4.89684
LJ          -5.21364        -2.55061        -3.78451
LJ          0.386915        -4.45003         4.70322
LJ            4.1775         3.70233        -3.36405
LJ           3.78935        -1.94219        -6.46313
LJ           5.49442         1.63785         5.92814
LJ           3.18977        -6.36502         6.41287
LJ          -2.80807        -1.52466         -2.3799
LJ         -0.512528         5.67231        0.844604
LJ          0.182405        0.442267         5.23698
LJ         -0.664837         1.13257         -5.3452
LJ          0.165161        -5.42827         4.28618
LJ           3.44947        -1.17122        -5.12913
LJ          -2.30182        -4.62512        0.255879
LJ           1.51448        -1.52794         1.92159
LJ           5.65096         6.18499        -2.38693
LJ          0.604122         2.11817         6.34891
LJ           2.40768       -0.495634        -5.01435
LJ          -1.44629       -0.326876        -3.02762
LJ          -4.87103        -3.15047          1.1453
LJ           4.33627      -0.0928586        0.894643
LJ            -5.295          4.7661        -5.14536
LJ           5.43504        0.103523        0.244901
LJ           1.46236        0.698762         2.10909
LJ         -0.770643         3.58277        0.730818
LJ           4.46085         1.76337         5.04643
LJ         -0.489249         4.74599        -6.20151
LJ           -2.5891         5.10716         2.67141
LJ         -0.334213        -4.41736         6.05663
LJ          -2.35838         4.80967       -0.998561
LJ          -3.55878        -3.07502        -1.08826
LJ          0.264265         -1.2207         3.43788
LJ           4.45483        -2.46624         1.42313
LJ          -1.17492          3.7719        -2.19473
LJ          -4.91828         3.54203         4.96188
LJ          -2.74091         2.83019         5.53252
LJ          -5.01646         5.74938         1.43942
LJ          -5.92724         3.88601        -4.78877
LJ           4.61307         6.28476       -0.919675
LJ           6.11353         2.58399        0.697915
LJ           -2.9428         -4.1861          4.0496
LJ          -3.18514         5.93768         5.53858
LJ          -1.12632         5.50225        -1.92051
LJ           -0.6878        -1.27136         3.05126
LJ          -5.63504         -4.3229       -0.479553
LJ           4.14212        -4.54322        0.811548
LJ          -3.47929        0.244781        -5.77807
LJ          -1.92219         1.07541        -2.16218
LJ          -3.26461         2.79798         3.54324
LJ          -5.57515        -3.22588       -0.369761
LJ          -5.90799        -4.93359        -6.46178
LJ            4.9909        -2.67901        -3.27172
LJ          0.714703         5.17293        -1.16081
LJ          -5.97286        -5.36663         2.14253
LJ          -1.78347        -0.88257         2.76423
LJ          -1.65159         5.51272         1.23908
LJ          -6.41766        -3.00534          2.8321
LJ           3.65533         4.74656        -4.22179
LJ            -1.903        -5.62093        -5.21856
LJ           5.45665          1.8525        0.965555
LJ          -2.96661        0.641773        -3.09722
LJ           4.66926        -4.72765       -0.172837
LJ          -5.38249        -6.23424         5.54694
LJ          -1.31947        -4.74656         5.07048
LJ           2.38056        -2.11502        -5.92426
LJ           4.83596        -5.55726        -5.45418
LJ           2.76794        -4.45676        -2.15564
LJ           6.29396         5.34096        -1.29865
LJ          -5.21587         3.45023        -2.40158
LJ           -1.2251         -6.1336        -4.10314
LJ         -0.262109         1.15937       -0.021476
LJ           5.72788         1.93266       -0.595503
LJ           -1.5389         3.13591       -0.434378
LJ           2.04051        -3.60338       -0.644406
LJ          -2.27051        -6.11653       -0.911552
LJ          -3.29266        -5.26226        -4.65694
LJ           4.71439       -0.856134         3.24561
LJ           1.66658        0.945057         6.03329
LJ          -2.47225         5.55792         4.67483
LJ          -1.18915        -5.07212        -1.39159
LJ         -0.705814        -4.00055         4.02551
LJ          -4.88847         5.47222        -0.26466
LJ          -2.25633         2.87824         0.54138
LJ          -4.86258         3.51076         -3.4856
LJ          -2.48986         3.69584       -0.701388
LJ           5.98986         5.02284        -2.63408
LJ          0.564479         5.68215         2.40146
LJ           5.95011         4.17027         3.08722
LJ            2.8485         1.75559         4.52342
LJ          -4.47734         2.27789        -1.64535
LJ           4.07812         4.89788         4.08328
LJ           1.03261        -2.41834        -5.58667
LJ           3.58128         6.35126        -1.94949
LJ           3.16451          5.2704        -3.07274
LJ           5.95994        -4.18285        -1.07239
LJ          -3.01624         4.32186         4.98641
LJ           6.37874      -0.0804062       -0.551863
LJ           1.02019         6.35932       -0.920373
LJ          -5.50589        -2.16681         3.91643
LJ          -2.81242        -0.83013         3.01087
LJ           5.22705        -3.98133         2.48439
LJ             -2.59        -1.61559         2.50093
LJ           3.64132        -1.79473         -2.9643
