108
#Comment!
LJ          -1.91081        -5.72823         1.94175
LJ           2.53177         5.69923         0.54447
LJ          -4.08246         -4.6839        -2.91794
LJ          0.334643         6.16952           2.991
LJ          -2.79319        -3.40654        -2.48942
LJ           4.12804           6.146        -1.91584
LJ           4.86802        -3.81832         5.44228
LJ          0.187847         1.65047        0.824661
LJ           4.67093         1.57153         -5.3177
LJ          -2.31713        -2.40302        -1.67295
LJ         -0.715969          1.6399       -0.897336
LJ           1.72917         2.77729         1.96519
LJ          -2.60986        -5.91449         1.10085
LJ          -4.48189        -3.02811         1.76697
LJ           6.12644        -5.02029          1.2167
LJ           1.74786        -2.50039         5.31514
LJ          -3.03872        -5.69438         2.16553
LJ          -2.27103        -3.64563        -5.17067
LJ           6.15692        -1.16323        -3.46773
LJ           4.23615       -0.648183        -4.44854
LJ          -5.29313        -5.48163         4.72816
LJ         -0.710342         1.90221         2.87276
LJ           2.52221         5.81319        -3.36331
LJ           5.68236        -4.40754        -4.84074
LJ           -4.7952        -5.04251       -0.855807
LJ           4.53525        -1.55657         2.65275
LJ           3.23157          3.5139         2.23086
LJ           2.65764        -4.44003           4.115
LJ           4.80222        0.875785         2.62451
LJ          0.607876        -1.32474         2.54819
LJ         -0.635034         3.91722       -0.120695
LJ          -3.12343        -3.00591        -1.07195
LJ           4.68478       -0.326935         4.12007
LJ           5.87121         5.30336         5.40177
LJ           2.57068         5.99781         5.42423
LJ            1.0977       -0.517714        -2.67128
LJ           1.21888         1.16094        -1.86127
LJ          -4.44833          1.6795         2.32413
LJ          -3.41754         3.83634          5.8491
LJ           3.08544         2.42688        0.316012
LJ          -5.88067        -3.61459        0.792755
LJ          -6.09408          4.5548        -5.43806
LJ           2.75081        -1.18541        -2.21218
LJ           1.80257        -1.01841          2.8363
LJ          -5.78664          2.8663        -5.41127
LJ          -2.98995         6.37715         6.17933
LJ          -1.50115        -1.52791         2.80218
LJ          0.462665         1.84787        -1.80024
LJ           5.17633         6.11814         3.55858
LJ          -4.74144        0.682007         4.18535
LJ           3.56159       -0.696944         2.94022
LJ          -4.69954         5.73422        -2.64523
LJ         0.0860898         2.73228         1.30584
LJ          -6.11304         2.88757       -0.798361
LJ           3.84679       -0.701824         5.79981
LJ           1.47261       -0.453529        -5.41129
LJ          -4.40953        -1.98833         4.09281
LJ             4.189        -1.76989          4.4199
LJ          -3.55389      -0.0734615        -2.36078
LJ          -2.38611        0.114777         2.64987
LJ          -5.55232        -4.02348        -6.44829
LJ          -1.94974         -1.6595        -3.81355
LJ           3.37665        -4.07614        -2.98899
LJ          -6.39821        -6.30934         1.86999
LJ           3.87795         4.81834       0.0899965
LJ         -0.483361        -1.57521         -3.2018
LJ          -5.33752          1.9327         3.14782
LJ          -4.24313        -3.59753        -3.46829
LJ           1.43419         2.92362        0.380184
LJ          -2.93587         4.63302        0.549777
LJ           1.59646         2.13936        -0.67087
LJ           4.55618         2.49232         4.91337
LJ           5.30774        0.508697        -5.07138
LJ           3.37646         -5.7721        -5.14302
LJ           4.22296        -6.34047        -2.79645
LJ           3.48642        -2.14055        0.359215
LJ          -6.24373         1.77861        -1.71765
LJ          -2.51655         2.07185        -3.95699
LJ          -4.11597        0.537505        -1.44031
LJ           5.04864         2.43118         1.77425
LJ           2.74924         4.42898         1.02869
LJ           4.85534        -2.92684       -0.588023
LJ          -1.16946        -2.64329         2.20405
LJ            5.6292        -3.26765        -3.84423
LJ          0.911694         2.18147        -5.00217
LJ          -3.82996         3.17951        -2.46088
LJ           5.44219         5.62719        -4.64187
LJ          -5.84615         2.13941         4.12934
LJ           1.20379        -2.92564         1.31691
LJ             2.838         4.60951        -2.71743
LJ           2.21051         1.87367        0.529449
LJ           3.72245         2.17633       -0.833818
LJ           2.74971        -1.56816         6.40926
LJ          0.700906         4.55186         2.41347
LJ           2.32952        -2.55891         4.44581
LJ            3.9471        -3.52083        -2.16923
LJ           5.56083         3.30549         5.52986
LJ           2.91662         6.13288        -2.19022
LJ          -4.51993        0.953411        0.906662
LJ          -1.99881         2.71049          3.2789
LJ            1.5783        -3.52101         4.71634
LJ         -0.817357        -2.37949        -4.51403
LJ           3.58111        -3.71575        0.696574
LJ           2.76835        0.978244         4.15193
LJ          -1.16127        0.742539        -5.77749
LJ           5.27595        -5.62573        0.740731
LJ            6.3191         5.58714        -2.40572
LJ           -4.1906         2.13037         4.19879
