108
#Comment!
LJ          -2.46405        -1.18082        -0.61383
LJ         -0.704396         -6.2719         3.36109
LJ           4.26366        -3.56705         -1.5834
LJ           1.62793        -6.45677        0.954225
LJ            5.8655        -1.58992         4.10227
LJ           2.64505         5.92454       -0.325868
LJ          -2.76792        -3.99405        -5.82759
LJ           -3.0107         1.54565         3.95401
LJ           4.43748         2.55233         6.27494
LJ           5.59605        -2.05388        -3.60059
LJ          -5.67507          5.8849         6.25456
LJ           5.28818        -5.01885        -2.63901
LJ           2.86924        -6.31036        -1.25633
LJ          -2.34622        -2.81395         4.48861
LJ            2.7501       -0.229244        -1.38864
LJ          -2.33212       -0.820523         2.72156
LJ           5.85707        -4.33018          1.0567
LJ           4.53144        -1.04786        -5.08962
LJ          -1.03557        -1.39835       -0.402344
LJ           5.11739        0.593048         2.23446
LJ          -6.11514        -3.57902        0.778261
LJ          -3.29862         1.44148        -2.10782
LJ           3.22998         3.09116        -5.13959
LJ         -0.294692       -0.977099         0.74466
LJ          -3.82582         -3.6021         6.01584
LJ          -2.28507         4.58671       -0.615628
LJ           1.47861        -3.98012         5.67256
LJ           3.93626        -3.15282        -6.22882
LJ          -1.58966        -4.32411        -3.97889
LJ           6.05148        -3.22565         3.00259
LJ          -2.83785       -0.971678        -1.98929
LJ          -1.87954        -2.88958        -1.94087
LJ          -4.05033         3.75922         -4.6397
LJ          -3.47227         6.36304        -4.78137
LJ         -0.149372        -4.59968         4.61767
LJ          -1.43957        -4.19572     -0.00430616
LJ          -5.29886         5.61307         4.09927
LJ           4.94547         4.85191        -1.09141
LJ          -1.49411        -5.46095        -5.71206
LJ          -1.19393         -1.9916        -1.83515
LJ          -2.02575        -3.81865         3.81805
LJ           3.73216        -4.22161       -0.915826
LJ           5.25073         -6.2888         2.57351
LJ           4.07965        -6.30681         1.95059
LJ          0.673601         3.36782       -0.365506
LJ          -1.36009       -0.399449        -5.56088
LJ           1.06177         5.29532       0.0460101
LJ          -3.51898         2.58097        -1.11817
LJ          -3.07178        -2.55605         2.42933
LJ           4.03773           1.969        -4.42615
LJ           1.38315         3.70904        -5.08175
LJ          -3.76414       -0.770351         1.62492
LJ          -2.97568        -1.90594        0.885016
LJ          -6.41084        -1.47954        -5.39728
LJ           4.25918         2.69637        -5.05849
LJ           3.84961      -0.0242125        -3.51172
LJ          -3.10425         4.41296         1.61123
LJ           2.78425         4.74946       -0.872735
LJ           4.16099       -0.938732         2.45745
LJ          -3.14286         2.64944         3.56076
LJ          -4.63042          4.2901        -2.15122
LJ          -1.75975         4.46858        -6.10493
LJ          -1.37933        -4.54789         4.18897
LJ           5.84227       -0.737833         1.21017
LJ          -1.22754       -0.304688         3.75578
LJ           1.48076        -3.67727         -0.9612
LJ           4.08283        -5.59353         3.20808
LJ          -4.71653        -4.23795         3.08597
LJ          0.510955        -2.93561          -2.975
LJ          -5.38632        -3.69381        -3.58036
LJ           1.96666        -3.79353        0.896326
LJ          -4.51945         3.51371        -1.32808
LJ            2.0944         5.83757        -1.39164
LJ           5.95307        -6.15139        -5.83752
LJ           5.38062        -4.54228         2.01566
LJ           1.95637       -0.576036        -2.00177
LJ          -5.00166       -0.384711        -1.47585
LJ           6.17736         5.31053         4.65001
LJ           -5.4653         2.88421        -2.75354
LJ           4.39563        -3.66858         4.51864
LJ          -3.28506         2.84358        -5.29592
LJ           5.12544         4.41175         1.90284
LJ         -0.208263        -4.54143         1.39262
LJ           1.53169        -4.25304       -0.189414
LJ          -5.08001         4.81606        -6.44612
LJ            1.8597        -1.13442         5.42675
LJ           6.43592         -3.0427        -2.45065
LJ           4.88156         0.58875        -6.33149
LJ           4.83796         2.05537        -3.92649
LJ           1.35461        -5.69746        0.182268
LJ          -2.80229       -0.931134        0.920036
LJ          -5.14101         3.79278        -6.20859
LJ          -1.05814       -0.632455        -2.91219
LJ         -0.617693        -5.02705        0.465178
LJ           4.99799         -4.2702        -1.18904
LJ             -4.37         2.00694        -5.73451
LJ          -3.23185         3.31601         -2.7968
LJ          -4.41152       -0.578042        0.241335
LJ           2.50267         1.14668        0.553715
LJ          -2.67145        -1.50124        -2.93097
LJ          0.247047        -1.16098        -6.20637
LJ          -2.32375         3.70359        -5.45378
LJ           3.55583        -2.00794        -4.11481
LJ          -1.21101        -2.34857         1.45541
LJ            5.3267       -0.697923       -0.103722
LJ           6.18624         1.27544        -5.13072
LJ          -1.21099        -4.10281         6.24087
LJ            6.3671        -3.16095        -1.23645
