108
#Comment!
LJ            3.0659          4.1488      -0.0705674
LJ           3.57123        0.577147        -5.08143
LJ           -3.2601         2.35049         5.00022
LJ           3.53784         4.13634         1.44992
LJ          -4.31279        -2.37576         2.19459
LJ          -4.03597         3.99854         -3.5368
LJ           4.68618         5.00826        -1.55916
LJ          0.421088         4.82474         -3.3639
LJ         -0.710112       -0.609611        -3.65734
LJ           6.22565        -3.70835         4.99122
LJ          -2.04078        -6.30206        -3.19175
LJ         -0.348258        0.531015         0.84194
LJ           3.81502       -0.857383        -4.90872
LJ           5.23135        -6.19566         2.76108
LJ          0.838661        -5.83055         1.49703
LJ           1.92836         2.10673        -3.83707
LJ           -5.2182        -3.20084          6.2408
LJ           3.42595        -0.45399         2.29485
LJ           2.30137         -2.6589         6.28314
LJ           3.84408         2.01509        -4.39397
LJ           1.19557         -5.6936         2.95846
LJ           6.08472        -4.41295         2.83205
LJ           5.11306         6.18957       -0.435264
LJ           2.83039         1.79493         5.89981
LJ           5.43677        -6.08093        0.515054
LJ         -0.580148       -0.548375        -1.72024
LJ          -1.69287         5.46883        -4.81237
LJ          -3.15573        -4.30101      0.00731146
LJ          0.617298        -2.55911       -0.477039
LJ          0.908181        0.654071         1.96516
LJ           1.61578         2.55047         4.10913
LJ         0.0754757         5.03649          5.4318
LJ          -1.74481         2.61301         2.56604
LJ          0.520501         2.82005        -3.88212
LJ            4.7083        -1.77049         3.80582
LJ          -3.29178        -3.81068         4.98108
LJ         -0.595976         -4.6563       -0.189431
LJ           6.18502        -5.24055        -2.82844
LJ           1.57198        -4.21447         2.74564
LJ          -5.93802        -5.72094          3.1369
LJ          -2.59623        -4.48919         2.11842
LJ          -2.77833        0.155722         2.69295
LJ          -6.01259        -4.66485        -2.04235
LJ           0.52475       -0.445924          6.4395
LJ            5.3455         2.60862         5.79646
LJ          0.287612         2.24337         5.41757
LJ          -1.86431          -1.324        -0.30878
LJ           5.38393        -5.00422         3.73061
LJ           4.01441          2.2895        -5.59588
LJ          -5.44018          2.9562         5.89501
LJ           5.05695         2.87598         2.77254
LJ          0.299336         2.52697        -2.63854
LJ           4.13912        -4.89168        -1.31205
LJ          -4.03146         1.04687        -3.07305
LJ            -1.721         1.85004         6.29402
LJ           1.58549         3.66909        -2.05078
LJ           1.89382        -2.29031        -4.80229
LJ          0.343764        -1.12131         1.96108
LJ          -3.72232        -5.11562       -0.253157
LJ           2.21266        -5.76638         4.15625
LJ           3.59243        -5.16416        -4.10345
LJ          -2.92205         1.30004         4.73685
LJ          -6.13213        -6.42884        -1.42128
LJ           1.17005       -0.669236        -5.56512
LJ           6.06521         4.83102         6.45062
LJ           3.10847         4.73123         -4.4945
LJ          -3.69951        -3.14904         3.75481
LJ         -0.428604        -2.29085         1.95359
LJ         -0.784528        -1.78936        -4.86027
LJ          -2.52367          3.5838           4.684
LJ           0.20942        -4.39089        0.951861
LJ          -6.18682         4.10392         2.66568
LJ             1.657        -5.19086         2.03576
LJ           5.83316         2.00781         3.66117
LJ           5.41846         1.54844        -2.83857
LJ          -4.51667         4.49123        -2.64168
LJ         -0.675818        -6.38217        -1.80177
LJ          -2.80346        0.984674        -6.14048
LJ         -0.685734       -0.548238         3.64886
LJ          0.603326        -5.77451        -2.61329
LJ           3.49127        -5.56421        0.567831
LJ          0.163685         1.22354        -3.59329
LJ          -3.10012        -4.85768         3.02897
LJ          -4.66756         6.33369        -1.42784
LJ          -5.72164        -2.78205        -5.17132
LJ           2.61006        -3.82355        -5.16998
LJ           4.89039           5.228         1.34228
LJ           3.07836       -0.696324         5.89499
LJ          -4.55473         2.82226        -5.51636
LJ           6.05344         2.88594        -1.17647
LJ           3.94032         5.49541        -3.70427
LJ          -2.93721         -2.5085        -3.84768
LJ           3.53581        -3.83595        -6.20741
LJ        -0.0438873         -3.4788         -0.9414
LJ           1.52605         1.98185         2.45443
LJ           5.72664        -3.84714        -2.19205
LJ          -1.25407         6.38763         4.16376
LJ           3.79775         -5.7969         4.96506
LJ           5.43525         3.67408        -5.71046
LJ          -2.04709         2.74236           5.094
LJ          0.382192         4.62912         -1.2435
LJ          -4.70529          3.2346        -3.39876
LJ          -1.96801         1.60543         4.73994
LJ          -2.73947        -2.16146        -1.33029
LJ          -4.04492        -6.27485        -3.73234
LJ           3.97448        -4.90947         4.77635
LJ          -1.01248        -1.47487        -2.28124
LJ         -0.687101         2.45707         2.91188
