108
#Comment!
LJ         -0.656843       -0.821255         3.61495
LJ           6.30739          4.5903       -0.297535
LJ            3.3556        -3.19179         4.97248
LJ          -4.44446        -5.98152        -4.28901
LJ          -6.38631         1.30915        -2.10784
LJ          -6.14063         1.48314       -0.737335
LJ          -4.72377        -5.14223       -0.425917
LJ          -2.72017        -1.37216        -5.09023
LJ          0.964585        -6.16222         2.05127
LJ           4.06069         5.02932        -5.92042
LJ          -1.91076        -6.07895         6.33486
LJ           1.12214         2.81877         2.48209
LJ           2.31626        -3.25975         3.09319
LJ           4.82905       -0.438693        -4.39973
LJ         -0.135562        -6.15722        -4.82602
LJ           -4.9029         -1.0082        -3.72768
LJ         -0.486774        -2.09687         5.43676
LJ           1.59375        -5.33836        -2.74514
LJ          -5.16066         5.92967         -5.2001
LJ          -4.94701         -5.9252         1.23413
LJ          -5.74741         6.09769        -1.13768
LJ         -0.390262          1.6213        0.824599
LJ          -3.57723         3.05777        -1.36185
LJ           2.02802          -2.772        -4.01586
LJ          -3.34122         2.41398         2.48205
LJ           -2.8198        0.110117          5.7011
LJ          0.127836         2.79994         3.15511
LJ          0.492272        -3.26883        -4.19002
LJ          -2.39951        -5.07826        -4.86216
LJ           5.42915        -6.10032         6.04978
LJ           -3.9138         -5.0003        0.716701
LJ          -5.07693         5.42612       -0.052476
LJ          -3.03961        -5.92355        0.567214
LJ          -4.41127         1.31424         -1.2019
LJ          0.509931         5.91598       -0.104429
LJ           3.25245        -1.02147       -0.335179
LJ          -6.11563        -6.10534         2.51681
LJ           3.90117         4.07705         5.39064
LJ          -1.06704         2.18287         2.38805
LJ           6.42188         3.31746        -6.18879
LJ           2.67755         1.04719         3.80076
LJ         -0.362394        0.175311         -2.3412
LJ          -5.87544         2.60484        -2.78941
LJ           0.11034        -3.92381         1.51102
LJ           -2.4503           4.423        -3.01118
LJ          -4.53832         1.05359        0.856416
LJ          -1.08447         1.29346        -2.27663
LJ           3.32255       -0.356383        0.813336
LJ            5.3711        0.196868         -1.3698
LJ           6.39862         4.22386         2.77656
LJ          -4.90729         1.65368        -6.22017
LJ          -2.61321         4.64078         6.34362
LJ           3.02948       -0.350971         3.96344
LJ          -1.60815        0.630498         1.59809
LJ           3.99216         1.79791        0.209396
LJ          -6.02269        -6.35982        -5.03582
LJ          -2.47978         5.95916        0.778706
LJ          -5.43481        0.743732         0.31563
LJ          -4.50741         1.09602        -3.49606
LJ           0.85962         5.88113         1.30913
LJ         -0.305616        -3.12264         2.23401
LJ          -6.03351        -2.24776         6.43885
LJ         -0.595375        -5.35068         5.88157
LJ          -6.13511         6.36531           1.592
LJ          -3.97797         6.28401         2.61148
LJ           4.50779        -1.87973        -3.08825
LJ              4.02        -5.85884        -5.19996
LJ           6.31416         1.99226        -5.99445
LJ           -3.7586         5.77131        -6.26398
LJ          -2.95003        0.235564        0.989737
LJ           -3.2092        -4.53017        -1.05818
LJ          -2.16087        -3.05696         1.39308
LJ          -3.31701        -1.35073         4.96232
LJ           5.36601      -0.0448307        -2.35512
LJ          0.422829        -2.47871         2.08916
LJ           1.82836         5.43624         3.41932
LJ           4.18257        0.152376         3.43842
LJ           5.62259         2.97522       -0.329086
LJ          -2.96993         3.71634         3.43071
LJ          -3.29968        -2.48037         3.33327
LJ          -4.11052         2.34453        -4.15477
LJ           4.02543      -0.0523562       -0.776118
LJ           1.33721         2.33771        0.284283
LJ          -6.37442        -4.03904         -1.1611
LJ          -0.81098         1.56682        -3.71085
LJ           1.36888         5.66791        -5.54442
LJ          -3.72387         1.81765       -0.430867
LJ           6.17235        0.367794         3.13567
LJ          -4.97256         2.77295         4.00686
LJ         -0.627302        0.451269         3.72127
LJ           -3.4935        -4.95502         2.98433
LJ         -0.795282         6.09416         5.56973
LJ           3.52431        -1.99171         5.22363
LJ          -3.05191         1.03664       -0.483365
LJ           2.78677         2.32453         2.85163
LJ          -6.36694        -3.36514        -5.97499
LJ           3.13703        -1.73798        -4.54302
LJ          -1.84979         5.40627         2.29501
LJ          -2.42852         4.43111        0.826434
LJ          -1.86864         5.33048          6.4087
LJ           4.84689        -5.88236         1.50036
LJ           -3.0096         2.68472         -4.4408
LJ         -0.482019       -0.793881         2.48457
LJ          -3.14298        -1.49942        -1.63835
LJ           5.85186         5.83657         6.44857
LJ          -2.09541        0.680951         -5.2577
LJ          -3.77962        -0.85535        -0.22373
LJ           1.05623         -1.7184         1.47188
