108
#Comment!
LJ           5.57311         3.18768        -2.40246
LJ          -6.06182        -1.55215         3.53673
LJ            2.7295            6.23        -1.01468
LJ           4.38176         2.80678        0.343785
LJ          -3.22206        -1.80245          3.8988
LJ           -4.5168        -2.61559        -6.41688
LJ           1.83264         5.77089        -4.40982
LJ           3.08469         6.41395         4.73026
LJ           4.61444         1.70764         2.56707
LJ           1.00963         5.28282        -3.55674
LJ           1.18114        -5.36116        -5.19899
LJ          -3.87509         6.06387        -5.37546
LJ          -3.80054         -2.6164        0.377484
LJ          -5.90731         -3.8098         5.23894
LJ          0.344237          2.8213        -1.55464
LJ          -5.51862        -1.05216       -0.800086
LJ            4.8628        -3.78581         5.42085
LJ           2.19267       -0.357881         4.24997
LJ           3.42302        -5.98151        -5.22626
LJ           6.43238         3.68551         3.61711
LJ          0.041051       -0.917268        0.505758
LJ          -3.78035        -3.22344          2.7538
LJ          -1.22824        -1.36571        -2.36238
LJ          -0.18843         2.61114        -2.46576
LJ           1.74568         -4.2463       -0.132395
LJ           3.37944       -0.359095        0.563829
LJ         -0.718158         3.87427        -5.84007
LJ          0.452137        -5.93782        0.369398
LJ          -6.11408         5.34128         1.62021
LJ           5.11534        -3.13164          -3.366
LJ          -3.90043        -4.48879        -5.77458
LJ           1.53876         3.24635         5.74604
LJ           1.80734        -2.47312        0.721033
LJ           2.62169        -5.88173        -2.02087
LJ          -4.84218        -3.90862        -4.82478
LJ        -0.0912767         1.26053        -6.30395
LJ         -0.690324         5.07932        -3.52485
LJ           5.05406        -4.62056         3.61628
LJ          -3.24844        -3.43856       -0.984243
LJ           6.17316        -2.43796        -2.57836
LJ          0.408249        -2.38368        -2.85561
LJ          -3.45449         3.92205        -1.49932
LJ           -3.7606         5.26989        0.733196
LJ          -1.73461         0.83393         2.17079
LJ          -6.19031         2.04857           4.165
LJ          -3.27117        -5.21991        -3.31067
LJ          -5.32281         2.51125        -2.29949
LJ           4.49048         5.38055         4.03125
LJ           3.56287         6.00381         1.52695
LJ          -5.20977         2.12971        -1.33761
LJ          -6.26683        -5.01441        -1.70747
LJ          -1.67276         4.93156         2.27107
LJ          -3.46759         5.48169         3.92687
LJ          -2.96022         5.74704        -6.36078
LJ          -4.40945        0.287545         2.34376
LJ           5.45596       0.0993181       -0.179698
LJ          -2.47343        -5.13129         4.83311
LJ          -2.70349        -4.81364         3.53397
LJ           4.02696        -2.02985       -0.875594
LJ           4.73721       -0.212599        -4.52374
LJ          -4.22258         2.01433        -3.01656
LJ          -2.06238         1.48687         4.32289
LJ           -3.1815         3.71352         0.67966
LJ          -2.66594         5.86347        -1.97226
LJ           -3.8673        -4.83099         1.24833
LJ           5.43904        -5.40915        -2.12292
LJ           3.43881         2.20839         -6.3559
LJ           2.57839        -2.20642         1.86057
LJ          -1.24371        0.919984        -2.65169
LJ         -0.943274         -5.5578         3.23757
LJ           1.53856        -5.29362          1.6626
LJ          -3.22395        -4.23328         2.51831
LJ          -5.71694         4.20703        -2.02142
LJ          -3.82474         6.15037         2.02478
LJ           -2.0928          4.4558         0.27327
LJ           4.95114        -1.51753        -5.71214
LJ          -4.27246         2.65296        -6.19472
LJ          0.807856       -0.727609        -5.11923
LJ          -2.63483        -4.60706         6.12563
LJ          -0.73602        -1.21418         5.58017
LJ           4.32298        -3.35488         2.19058
LJ           1.36424        -5.03898        -1.03614
LJ          -2.39758        -6.06224        -4.65447
LJ         -0.794686         1.42291        -3.63229
LJ          -5.23345         5.71065         2.48757
LJ           -3.6411         1.36978       -0.133699
LJ          -4.63112         4.82056        -2.22075
LJ           5.14799         -1.7481      -0.0592938
LJ          0.781587         1.17342        -1.77338
LJ          0.105449       -0.622238        -6.11896
LJ           5.59791        -5.56201         3.82442
LJ          0.181314        -5.35855         -4.0964
LJ          -6.43593        -3.68447        -1.53925
LJ           2.87868        -5.10136         6.01856
LJ           6.26482        -2.63898         3.17923
LJ          -5.19985        -2.51797         2.30809
LJ          -3.08504        -6.42051         2.99991
LJ          -1.01074         5.70086         4.77702
LJ          -4.36119         3.86811         3.72621
LJ           -4.9395        -3.68439         2.44452
LJ          -1.76764        0.503225         3.48547
LJ           -1.9479        -2.96095        -2.22185
LJ            4.2304        0.479084         5.73488
LJ          0.637359       -0.350387         3.63025
LJ           3.31325        0.383225         1.96269
LJ          -4.13018         3.64047        0.154444
LJ          -5.55412         6.41559         4.83038
LJ          0.497796        -5.04362        0.655164
