108
#Comment!
LJ          -2.82159        -2.36334         3.45671
LJ          -5.87962         5.63827          4.3957
LJ          -5.35196         2.54218         -5.0463
LJ           4.30625         4.67844        -1.88333
LJ          -2.06993         3.12879         -3.7282
LJ           4.06919        -4.65899         4.62237
LJ           3.59431         -5.1704         -4.9639
LJ            5.6116         4.79665        -2.10419
LJ           3.08939        -5.06957         4.19927
LJ         -0.962675         1.36649         4.67362
LJ           -6.3272         1.20329        -2.60904
LJ        -0.0228085        -6.34187         2.27291
LJ          -3.07198         5.63224         -3.3728
LJ         -0.145851        -1.31589        -3.56558
LJ           3.73708         5.79195         4.03106
LJ           2.04449          3.0314        -2.97032
LJ          -2.42005        -2.93722          5.7107
LJ          -2.63549        -3.35606        -5.72303
LJ           6.03434         3.65914        -6.04211
LJ           5.43803         2.61396         5.66032
LJ           2.00907         1.26684        -6.29859
LJ           2.17749         2.67222        -1.48298
LJ          -5.57807        -3.67695        -5.32462
LJ           5.70488        0.762923         5.87551
LJ           3.63326        -5.53493        -2.99685
LJ          -5.95834         1.47798         5.31341
LJ          -2.70708         4.32224        -3.46574
LJ           4.12733        -1.91235        -5.03812
LJ        -0.0765497         5.64786         4.03542
LJ           3.92071         5.06619        -5.32237
LJ          -6.45138         4.76077        0.908542
LJ           1.03544         -4.0356        -2.23653
LJ              1.92        -4.93096         -1.8503
LJ            1.9698        -6.15623         5.38229
LJ          -2.28659        -2.95217        -3.79442
LJ          -5.46636         4.01101        -3.85896
LJ          -2.13024        -1.41824        -2.11082
LJ          0.689782        -1.17549        -1.80981
LJ         -0.423213        -3.13568         1.85818
LJ          -2.24417        -2.54784        0.162221
LJ            -6.175         2.46695         4.92016
LJ          0.215825        -4.21176        -5.16129
LJ           3.33174        -3.09927        -5.54891
LJ           -5.6995         3.64018         -5.4572
LJ          -4.71855        -4.99435         4.19894
LJ          -5.07791         1.83195         3.33833
LJ          -3.32857         1.43293         4.11962
LJ          0.468786         -1.9123        -4.30348
LJ           2.64869        -5.85531         -1.9299
LJ           1.32015        0.422477        -6.41129
LJ          -3.68044        -5.57519         5.20886
LJ          -6.18212         6.37582          6.4123
LJ           6.35891        -5.48695         2.05693
LJ           2.95238         5.37031       -0.416103
LJ          -5.75645         5.35287        -0.35453
LJ          -4.82383        -2.88424        -2.92524
LJ           1.26555          1.7684         3.76582
LJ          0.608987        -5.29656        -1.21222
LJ           5.63951         -5.8088         5.45342
LJ           -4.4918         1.50713        -4.53119
LJ           2.98205         -4.9827        -6.30122
LJ           5.78219         4.43248         5.98672
LJ           5.95854         4.30858        -4.16232
LJ           4.95102         -1.1255        -1.40936
LJ           4.16183         1.52297        -5.50368
LJ          -2.04021        -5.05541         6.45222
LJ           5.78434         1.91103        -0.80067
LJ          -1.32037         2.12175        -1.50658
LJ           -1.2066         5.85334         1.70826
LJ         -0.366833       -0.989041       -0.106897
LJ           4.95206         2.50922        -5.96999
LJ          -2.76362         -1.7683        -4.82497
LJ          -3.88711         3.48207      -0.0986073
LJ          0.567093         1.68278         1.53204
LJ          -4.68129         4.30668        -2.62185
LJ          -3.92285        -2.10539         2.37747
LJ           1.39489         -3.7688        -1.20032
LJ           5.36752        -1.73203        -5.62614
LJ          -2.78313         6.18894         1.18855
LJ          -3.47733         6.03579         2.29746
LJ         0.0226103         4.54663        -1.48237
LJ          -1.39283         5.99826        -3.41584
LJ           4.11296       -0.692131        -5.87762
LJ          -4.26956         6.11172        0.700948
LJ           5.01355        -2.37676        -2.73291
LJ           -4.3391        -4.19755        -1.41101
LJ          -4.68706        -5.44742         5.38144
LJ           5.93488        -5.26281       -0.729944
LJ          -5.82198        -3.51648          2.0659
LJ          -1.52074        -4.89881         4.84358
LJ          -5.92685         1.99881        -6.33489
LJ         -0.424607         1.14325        -4.79789
LJ          0.643131          1.6301        -3.01567
LJ          -6.35854        -1.81604        -4.46382
LJ           3.79489       0.0447203        -1.53905
LJ           -2.9573         3.25109         6.27819
LJ          -4.06149         2.63117         3.64477
LJ          -2.38089         6.29155        -3.93703
LJ           3.85961          3.2495        0.824608
LJ           3.20085         2.22092        -4.13993
LJ          -4.42505        0.534993          3.4784
LJ            2.1189         3.34522         -5.6901
LJ           5.13124        -5.82476       -0.607856
LJ           6.20845        -5.17452         6.42187
LJ           4.47783        -3.92867         2.53465
LJ           4.62255         1.42907         3.78521
LJ          -1.84384        -2.69893         2.48913
LJ          -3.95318        -2.68968          1.2561
