108
#Comment!
LJ           2.08404       -0.276452         3.55022
LJ           4.54543         0.71729         4.71859
LJ           5.25763        -4.47113       -0.638395
LJ          -2.97515        -3.04374        -5.62341
LJ           4.41032        -6.29136         5.96254
LJ            4.1863        -5.09039         3.93085
LJ           3.27676        -2.79098       -0.975718
LJ           4.90305         3.88228         2.35139
LJ          -4.78409         2.04874         4.16876
LJ          0.109172        -1.54621        -4.68904
LJ          -4.02736         5.55711         5.12499
LJ          -5.64489         1.84257        -1.32308
LJ          -6.08762       -0.974684        0.815065
LJ            3.8927         6.06648        -5.94324
LJ           1.53034          -2.922        -1.34121
LJ           5.97424         6.44253         3.38237
LJ           5.72442        -5.52547         1.82412
LJ           5.31132         4.31643         -1.5784
LJ          -2.05511         4.87196       -0.509443
LJ           5.33296         1.79169        -2.03181
LJ           5.25169      -0.0627812         1.14896
LJ          -1.30067        -4.68325        -3.18313
LJ           -5.9268         0.63523        0.248041
LJ           -4.1249        -1.00586        0.961064
LJ           -2.7285         4.61424         1.39065
LJ           5.76979        -4.64209        -5.36323
LJ          -3.22807         4.27153        0.310224
LJ          -4.18009         1.55319        0.373109
LJ          0.200711         2.20742         5.23638
LJ          -1.84939        -2.13602         5.41042
LJ           4.76466       -0.188199         5.07629
LJ          -4.91249         3.68862          1.5862
LJ           2.25054        -1.45993         -6.4189
LJ         -0.647441        0.497224         5.28593
LJ          -1.96452         4.29117         5.59458
LJ           2.86638        -6.09562         3.28337
LJ          -6.04235         2.25084        0.975117
LJ          -2.38895         2.38439         1.51734
LJ           1.68272        0.524876          4.7722
LJ            1.6398       -0.332001         2.60164
LJ           3.42771         5.44804        -1.54793
LJ          0.934873         -4.1937        -2.57848
LJ           2.93575         -2.7374         5.40621
LJ           -0.5178        0.482002       -0.186873
LJ          -4.74695        -2.19878        0.667817
LJ          -5.71651        -3.95416          1.7363
LJ          -3.54931         3.80427        -2.88563
LJ           6.04039        -3.71627          4.3689
LJ         -0.877778       -0.268253        0.877277
LJ         -0.116238        -6.04411        -2.35891
LJ           3.71389         3.36418        -1.29208
LJ          -1.98621       -0.486813       0.0477379
LJ           6.39724       -0.137312         4.02001
LJ           5.96172        0.981965        -1.49598
LJ          -6.18185         1.37502       -0.453591
LJ           5.28045         4.49636        -5.83206
LJ          -4.03185        -3.55432        -3.28291
LJ           5.29469         4.07199         4.71538
LJ           4.29336        -1.75865         6.26746
LJ          -5.90621        -4.03084         0.16139
LJ          -4.11483         2.72972        -4.47325
LJ           -3.1724          3.2677         1.56259
LJ          -4.65341       -0.457379         2.13206
LJ          -1.49491        -5.65993         5.61635
LJ          -1.55214        -4.89879        -5.00052
LJ          -2.21042        -2.87641         4.64145
LJ           -3.2894         5.03095         3.22514
LJ           1.86734        0.131184        -2.37049
LJ          -1.24319          4.6472         3.14217
LJ          0.600674         3.09784        -4.30293
LJ           4.99285       0.0888309         3.77257
LJ          -5.96606        -2.88938        0.331102
LJ          -5.93372        -1.60468        -6.09024
LJ           4.01333         5.84102         4.44965
LJ            1.1288         2.11201        -2.57235
LJ           4.00655         2.50011         5.46016
LJ          -1.36324         3.58781        -1.50548
LJ           5.34378        -1.52467         2.81323
LJ          -0.01532         4.98869        -1.64595
LJ          -3.48929       -0.481441         3.98448
LJ          -5.00773        -2.35559       -0.670414
LJ          -1.16519        -2.71143         2.69773
LJ           6.37066       -0.734502         -1.7862
LJ          -4.89864         2.44997         1.84831
LJ          -4.69919        0.230567         3.52687
LJ        -0.0550937         1.38973         3.90879
LJ          -1.16934         1.44515         2.77705
LJ         -0.195377        -1.87478         1.98175
LJ          -2.64917        -1.46203        0.479913
LJ           5.37405        -2.43812         2.06575
LJ          0.595031       -0.557665         2.08729
LJ          -1.14888        -1.09572        -1.66233
LJ           3.28567         1.75351        -4.42583
LJ          -3.16074         -6.4456        -6.24093
LJ          -5.42501        -5.16276         5.91672
LJ          0.832385        -1.49948        0.689997
LJ           2.48735       -0.575203        -1.20023
LJ           1.50635         5.34386         2.64669
LJ          -5.46535       -0.591574         3.45515
LJ          -3.31818        -3.86087        -1.72206
LJ           2.81068        -1.92061       -0.629119
LJ          -5.97929         5.94638        -5.20419
LJ           1.84792         2.46424         2.56443
LJ          -1.40666         4.06441        -3.86837
LJ         -0.415231       0.0785189        -5.34623
LJ          0.190637         3.74467        -1.55095
LJ         -0.520694        -3.65424        -3.75519
LJ            4.6205         1.27596         1.45325
