108
#Comment!
LJ         -0.538701         4.58364       -0.233904
LJ           3.61595        -1.89257       -0.210167
LJ          -5.22789        -4.02988        0.539968
LJ           4.48929        -1.49534        -3.46703
LJ          -1.96498         3.33593       -0.424037
LJ          -4.64014         1.63191        -4.25679
LJ         -0.811091        -5.19142         6.45994
LJ          -6.44372         3.11901        -1.40743
LJ          -4.80757          4.5344        -2.52875
LJ            2.7123         2.75538         1.83684
LJ          -1.66307        -6.19001         5.12678
LJ          -4.11708        -2.43597        -6.32946
LJ           1.06249        -4.97499         2.87828
LJ           -4.6806        -4.32471        -0.93474
LJ          -6.25859         1.57068          1.6832
LJ          -3.99398        -4.59774        -2.18996
LJ          -4.89083         5.08786        0.675228
LJ          -5.02076        -2.23471         6.42088
LJ           2.11055         -4.4145         2.26985
LJ           1.41256        -4.17039         1.07561
LJ           6.05278        -4.78527        -4.91643
LJ          -1.18974         3.10511          1.9404
LJ          -1.27781         -6.0861         3.56467
LJ          -1.94287        -2.28703         1.73983
LJ         -0.565045        -3.38352         3.63226
LJ         -0.929829         5.50596         2.39171
LJ          0.324457        -3.40361         4.22952
LJ          -6.38461         2.88088         4.50435
LJ          -2.44486        -6.30805         -1.7087
LJ          -4.31423         5.84373        -4.58674
LJ           2.33258        -5.53998         3.13389
LJ            4.4647         5.70976         1.06017
LJ          -2.49301         3.84007         5.06989
LJ           4.65766         1.90126        -1.63634
LJ           4.92108         3.08035        -5.16044
LJ         -0.101821         1.14429        -4.22054
LJ           3.75704         4.37692         4.94017
LJ           1.32603        -3.02468        -4.24994
LJ          -5.64595         3.84754         4.55444
LJ           -5.7668        -2.23401        -5.53385
LJ           5.07419         1.02229        -3.19235
LJ          -3.62534         4.83934        -4.84025
LJ          -5.79596        -1.55327       -0.362421
LJ           1.68452        -5.39687        -4.88171
LJ          -5.99519        -4.52274         1.58189
LJ        -0.0569003         6.36044         1.52765
LJ            4.2439         5.34155         -1.6794
LJ           3.02294        -1.49879         5.70447
LJ           5.76791        -2.34993        -5.78453
LJ           2.55765        -1.87733          2.7897
LJ          -1.29712         2.59339        0.341905
LJ           -1.4389        -2.87252         2.46417
LJ           5.91985         1.41369        -3.93454
LJ          -2.99934         -5.4266        -2.29963
LJ         -0.563727       -0.222147         6.16171
LJ          -5.16875        0.535843        -2.94214
LJ         -0.167969       -0.427583       -0.624347
LJ           3.15013         5.55652      -0.0708328
LJ           3.04734         5.79082         2.80086
LJ          -5.13594         1.94949         5.30525
LJ           4.62966        -2.67864        -3.38731
LJ          -2.68635         5.39351         2.57739
LJ           1.26636        -1.41278        -4.62345
LJ          -2.59695          4.4193        -5.27461
LJ          -6.34959         5.28407       -0.724188
LJ          -1.81649        -2.69477        -5.46485
LJ           1.25522        -1.34618        0.265267
LJ          -6.19584         -5.8713         2.77063
LJ           0.11167        0.649046         0.64132
LJ          -4.06878         1.12526         5.77728
LJ          -2.40423       -0.380776        -5.86567
LJ          -4.63327        -1.19628         2.52898
LJ           2.64051         6.04395        -4.00066
LJ           5.32352         2.85624         1.40774
LJ          -1.83693         4.79448         1.10397
LJ           1.55316         4.08576         2.69378
LJ          -1.77765         5.52926        -5.06563
LJ          -1.69517        -4.18926         5.18613
LJ           1.47369        0.831861         1.78501
LJ          -4.62796        -5.35975         -1.7466
LJ           1.74593        -5.03455        0.620949
LJ           -1.6561        -2.66647        0.371977
LJ          -3.23976        -4.80095        -5.68916
LJ            1.9444         5.90247       -0.974089
LJ          -2.72309        -1.90082           3.297
LJ          0.703961          2.2693         5.49023
LJ          -3.53505         3.99025         1.53614
LJ           1.73786        -2.13458        0.664709
LJ           1.08972         1.03814        -5.01877
LJ           -4.3106         3.21183         1.41351
LJ           2.12173        0.416477         4.92254
LJ          -5.58606         -6.2353        -0.55937
LJ           5.55769        -2.15216         3.61591
LJ          -3.28085         5.44623        -3.86895
LJ           4.85833        -3.59138        -4.94827
LJ           5.89157        -5.84878        -2.28133
LJ          -3.29256         2.23983       -0.924365
LJ           3.62707       -0.606532         4.67666
LJ          0.983671           3.633         4.16096
LJ           3.25206         5.90306         -1.0155
LJ          -1.85292         5.12309          -1.684
LJ          -5.27583         5.55568        -2.89925
LJ           1.91006         6.24036         4.94143
LJ           5.69739        -4.61245         2.80762
LJ          -5.55659        -2.70676         4.38211
LJ           2.11653        -1.25224        -2.32409
LJ          0.425283          2.2976        -4.23407
LJ          -3.80168          4.3339         3.41812
