108
#Comment!
LJ           4.14016         2.13897         2.66206
LJ          -5.84184          2.4859       -0.613915
LJ           6.19674        -3.00207         4.93659
LJ           3.32526         5.90352       -0.986356
LJ           4.72106        -3.02661        -1.99723
LJ          -5.66925         1.65936        -1.27526
LJ           4.58363         -2.4423        -0.70704
LJ          -5.83615         3.06656        -4.81191
LJ           1.08273        0.375762        0.668557
LJ           3.29916       -0.964813         3.41076
LJ          -4.76315         5.36884          3.3199
LJ           2.43667        -4.43825        -3.66408
LJ          -2.20988        -3.32734         2.02353
LJ          -2.80861        -3.33723          4.4354
LJ           2.98468         3.13573       -0.307168
LJ          -2.42327         1.38254         -3.4454
LJ            4.2379         3.26826        -4.18254
LJ         -0.500087        0.729164       -0.490657
LJ         -0.636143         3.81028          0.6862
LJ          -2.31473        -6.23083        -5.60929
LJ          -4.29255         4.21237         2.69534
LJ           5.95309        -5.33346       -0.884852
LJ          -1.64663        -4.53771       -0.970098
LJ          -1.29754        -2.99802         5.74531
LJ          -5.06513         3.60309        -4.52092
LJ          -3.11752         1.73246        0.281378
LJ           6.33572         4.15585         -3.0234
LJ           1.28951         5.81281         3.55453
LJ           2.14432        -5.17714        0.393361
LJ           0.37763       -0.542487       -0.650525
LJ           6.01993        -1.16486         -1.2604
LJ          -3.99334        -4.91258        -4.07919
LJ          -2.28869         2.45794          2.0576
LJ           2.15255        -2.82615        -3.91769
LJ          -3.06805        -4.84004         4.06403
LJ           3.39352        0.500649         3.58853
LJ          -2.63654        -5.75927         4.30194
LJ          -2.81888        -4.00195        -5.33804
LJ           2.81147        -2.65481        -6.19562
LJ          -2.16091         2.03937        -1.78164
LJ            2.7105        -6.09284         2.30589
LJ          -5.60908        -4.14522          1.2883
LJ           6.26377         3.03936         1.77444
LJ           3.38982         2.44853         4.97805
LJ           3.97618        -3.62233        -3.61274
LJ          -4.23193         6.40652       -0.212939
LJ           2.01629        -2.96057        0.514989
LJ           1.10305        -3.06042         -5.9176
LJ           2.14939        -2.22961         6.10606
LJ           1.05655         -2.4639        0.673884
LJ          -4.02727        -3.70382         2.62729
LJ          -1.44631        -1.95557         4.28274
LJ           2.90327        -5.92064        -2.42919
LJ         -0.209809        -1.95069        -3.32252
LJ          0.207097         5.20705         4.26939
LJ          -1.13611       -0.897344        -5.87787
LJ           4.94509        -2.71106         6.05846
LJ           3.56303       -0.152527        -5.19504
LJ          -1.08298        0.554948        -3.33207
LJ          -6.11041         1.59454        -5.08808
LJ          -4.79894       -0.988216     -0.00730312
LJ            1.6669        -1.25896         1.71811
LJ          -5.65713        -3.57986           2.218
LJ           3.54835        -3.84934         2.06082
LJ          -4.42096         2.59805          1.8594
LJ          -1.29877         2.67653         2.28627
LJ           5.02249       -0.801243        0.451272
LJ          -4.98889         2.55551        -5.86949
LJ           4.41262        -5.04583       -0.933757
LJ           -5.6354        0.422464         4.96117
LJ          -4.58787        -1.52016        -1.48258
LJ           1.15166        0.216564       -0.389465
LJ          0.935687         1.68094       -0.807776
LJ          -6.26206         5.81267         5.64514
LJ           -3.2637         3.70393         4.74586
LJ           6.10903        -1.22376      -0.0383762
LJ           -5.0471         -6.0742        0.399509
LJ           5.89172       -0.407416         3.40051
LJ          -6.34058        -3.19731        0.851499
LJ          -3.11562          -4.209        0.518164
LJ           5.28901         1.93511          5.9432
LJ           4.82327         4.99908         3.40496
LJ           6.24937        -5.98506        -6.15831
LJ          -2.45802        -3.83457        -3.72853
LJ           4.91123        -5.99753        -3.05934
LJ          0.742873         6.27978         5.59856
LJ          -4.44819         1.50616         2.13224
LJ           -4.2238         0.29853         1.54899
LJ           4.72193        -1.67994         6.16754
LJ           3.29461        -5.34406         2.35422
LJ           5.18762         3.45812         4.90436
LJ           3.00977        -2.26613        0.757204
LJ           3.21001         2.15974       -0.975474
LJ          -4.63635         2.37445       -0.575007
LJ          -2.79402        0.773694         2.66673
LJ           3.24257         3.21921         1.47206
LJ          -4.54716        -4.53793          5.4464
LJ          -3.18854         3.09759       -0.110325
LJ          -3.07858        -3.14054        -4.59312
LJ          -2.65769         3.90493         1.91434
LJ           2.94152         2.30152        -4.20563
LJ           4.44951        -5.20257          3.3744
LJ          -2.54485        -4.30427       -0.459705
LJ          -5.87751         4.99499         4.84557
LJ         -0.505969        -4.83782         4.82554
LJ          -2.53953         5.11329         2.58508
LJ           2.13083        -3.28552        -2.70665
LJ          -1.88556         3.33619         3.82015
