108
#Comment!
LJ           0.79569        -5.37851        -6.32901
LJ          -4.75552        -2.42908        -5.99889
LJ          -1.09503         3.53587        -1.13435
LJ           -4.4053         4.23725        -2.84665
LJ           5.58092        -2.66244         4.46194
LJ          -5.07835        -6.22104        -1.42594
LJ          0.910581        -3.61477        -4.33616
LJ           2.14111        -1.02823         4.30237
LJ           2.20466         2.31513        -5.36658
LJ          -5.34198         5.02309       -0.125575
LJ           6.38349         4.86789          2.2245
LJ            4.5646        -5.71542         -3.2393
LJ          -5.44789         -2.2376       -0.126744
LJ          -2.09125         5.20641         4.85749
LJ         -0.263718        -4.59793        -5.56118
LJ          0.851596         2.26462         1.11767
LJ           2.02304        0.129038           3.711
LJ         -0.532609         1.82046         2.00921
LJ           3.62446         5.92299         5.23956
LJ           4.67263        -1.42596        -2.07926
LJ         -0.404422         3.11527        -3.74349
LJ           5.37215        -5.15515         3.30227
LJ          -2.82277         4.03408         3.88474
LJ           1.28787         1.04826         1.05344
LJ          -4.08549        -6.45665         5.80014
LJ           5.43675        -5.35139       -0.862773
LJ          -6.24915         4.17237         4.52256
LJ           6.14777       -0.839791         1.09336
LJ         -0.630147        -4.17614       0.0176073
LJ          -4.86309       -0.201846        -2.50378
LJ           3.47892        -1.54544       -0.335604
LJ          -2.71596        -5.93238        -3.79427
LJ          -4.60137        -4.25943        0.460136
LJ           4.06331        -6.34989         2.32543
LJ            3.5331         2.11298        -6.03498
LJ          -1.55095         5.59666       -0.433987
LJ          -1.42255         4.44208          1.4005
LJ           1.91898          5.9765        -1.16531
LJ          -2.09066        0.777813        -3.87274
LJ           3.24338         0.92854         3.66557
LJ           -1.1452        -1.61911        -2.54199
LJ           5.06678         5.70577        -4.82667
LJ           2.30625         6.34068         5.65246
LJ           1.51428        -2.67572        -5.26256
LJ          -2.05254        -4.52739         2.33616
LJ          -2.34809         0.86104        -1.41269
LJ           2.73738        -3.25349         5.10681
LJ           -4.6072          4.4972        -0.53163
LJ          -6.45567        -3.97236        -1.98394
LJ           5.47842         3.91363         6.42162
LJ          0.171366        -3.15639        -5.40609
LJ          -5.72855         2.32086      -0.0805134
LJ          0.217087         3.74766         3.36776
LJ          -1.79908       -0.953593        -4.41199
LJ          -3.74568          4.4911        -5.28503
LJ           -1.7678          5.3265        -4.42241
LJ            4.0131        -3.96637         4.31482
LJ          -6.15069         3.73384         5.67827
LJ          -5.79155        0.149864       -0.583559
LJ           2.08874         6.36813         4.52658
LJ          -4.20296        -4.55118        -4.41942
LJ           5.15683        -3.79579         5.46606
LJ           4.63502       -0.950238       -0.369373
LJ          -6.08526        -5.96673       -0.403095
LJ           4.46119         1.46852         2.77106
LJ          -4.08913        -6.17424         3.38186
LJ          -5.13801         1.84363         2.16404
LJ           6.02278         2.81791         2.25492
LJ          0.800398        -5.45121         5.49163
LJ          -4.99591         5.69323         3.31488
LJ           1.64052        -2.25282         -4.1075
LJ          -1.45911         4.65275         0.30543
LJ         -0.719015       -0.125021         5.14833
LJ           2.28085         4.31333       -0.302505
LJ           4.88905        -2.55598        0.181411
LJ          0.381514         5.65221        -2.86897
LJ           1.94037         4.89752        0.652045
LJ          -2.18639        -1.93452        -1.04706
LJ          -3.10409        -1.11355        -2.51855
LJ          -5.10587         1.29428        -4.66679
LJ           -3.2856        -1.76969        -3.66812
LJ          -1.67362          5.9898         3.40585
LJ          -4.11733         5.50958          2.5607
LJ          -2.34238         4.14283        -2.49857
LJ           1.96605        0.336999        -3.68039
LJ           4.82105        -4.91731        0.388744
LJ          0.686062        -1.47925      -0.0232769
LJ          0.706517        -3.51207         3.23456
LJ           5.48102         1.75318        0.525908
LJ         -0.304524       -0.835897         1.19543
LJ           3.82916       -0.377915        0.313348
LJ           3.98633        -3.77976         2.66521
LJ           2.25299        -5.30673        -4.60248
LJ          -3.61806         1.31532         3.05527
LJ           -4.8438       -0.165963        -0.80505
LJ          -2.83313       -0.474946        -1.66271
LJ          -1.38344         4.41702         3.15556
LJ           -2.8299         6.41218         2.51843
LJ           1.26747         6.46075         1.73274
LJ           4.66995         2.28228        -6.37017
LJ           4.43313        -4.38377        -3.10469
LJ          -2.68237        -2.75698        -2.95316
LJ          0.959998         5.13359        -5.96816
LJ          -2.98237        -3.28509        -3.97835
LJ          -6.01473         3.62109        0.258783
LJ           -5.6254         1.79936        -3.01735
LJ          0.342583        -1.03346        -6.26269
LJ          -0.13007        0.715366         3.19172
