108
#Comment!
LJ           4.54465         6.08464        -1.78059
LJ           -2.6557         -6.4031        0.185117
LJ          0.859011         2.03855         6.01076
LJ         -0.243123         4.38996         5.20834
LJ           2.27436        -3.14551        -6.06536
LJ          0.557111      -0.0601618         3.76492
LJ          -3.08601        -6.04308         5.09906
LJ         -0.776687        0.460582        -5.09967
LJ           3.03197         4.61517         6.07303
LJ          -3.61004        -4.41505         -2.7758
LJ          -1.82047        -4.67955        -3.08015
LJ           4.94275         1.31511         2.63233
LJ          -3.06344        -3.39986          5.9572
LJ         -0.631176       -0.972501        -6.16442
LJ          -1.94287         3.74756       -0.467002
LJ          -4.27792         4.38631         1.96535
LJ           6.18486        0.223737        -2.15937
LJ          -6.44604       -0.641199        0.366184
LJ         -0.695616         4.14427       -0.497775
LJ           4.56217        0.211177        0.687363
LJ          -1.17261         5.69246        -4.94679
LJ          -1.24146           -1.58         1.98525
LJ         -0.253443         3.71844        -5.02538
LJ          -5.65101         -2.7792        -4.96654
LJ          -5.27476         3.65969        -2.58456
LJ          -1.14386        -2.80814        -2.87873
LJ           -4.8785      -0.0717393         4.11851
LJ          -1.68115         4.43975         -4.7083
LJ           -3.1604       -0.537581        0.488427
LJ          -4.58839         2.64722         6.19782
LJ           5.76403         5.29784        -5.69658
LJ         -0.435047        -3.13965          4.4281
LJ           5.26778        0.572571       -0.318435
LJ           4.82699         4.66797       -0.949488
LJ          -4.54138        -2.20887        -5.27871
LJ           2.85002         3.77408         5.20459
LJ           6.46186        0.828937        -1.19229
LJ          -4.53926        -1.08907         1.87444
LJ          -5.75916        -5.20288        -3.28863
LJ           3.57832        -4.22575        0.415635
LJ           4.72304       -0.346406         -5.6923
LJ          0.255427         3.82873         1.44798
LJ          -2.09882        -3.05481         4.61923
LJ          -1.76682         2.40574        -5.13834
LJ           5.20034          -5.538        -2.90911
LJ           3.56071         4.43508         1.91416
LJ          -6.37382        -2.57532        -5.76731
LJ          -1.93529        -2.90505        -4.46364
LJ           4.91869        -4.54298         -5.1039
LJ           1.50588         3.62846      -0.0376993
LJ          -5.55112        -5.49073        -2.35986
LJ           3.41676         5.12902        -3.59606
LJ           4.18273        -4.72924         1.07594
LJ          0.640492         2.27599          1.0836
LJ          -3.32378       -0.801563         3.77022
LJ           1.64719        -1.39737        -3.34995
LJ          0.088144        -4.43027        0.964905
LJ          -1.92217        -1.85581         4.70705
LJ          -5.03122         5.02973         -4.7738
LJ          -4.71444          2.6355        -2.97147
LJ            2.2468        -2.77566        -1.11418
LJ         -0.899618         3.26406        -1.14491
LJ         -0.360652        -2.97833       -0.817762
LJ           4.76635         3.56514        -6.09597
LJ          -2.28194         1.99193         5.38238
LJ          -5.38078        -5.15568         6.43135
LJ          -2.29844       -0.785868         1.22311
LJ          -4.84362         3.38511         5.23408
LJ           1.69022        -5.03106        -4.67502
LJ          -2.11937        -2.66034         6.00788
LJ          -3.30285       -0.777684         2.47072
LJ           2.88757         0.62473        -5.94903
LJ          -2.00563         2.85466         4.19933
LJ         -0.666891        -2.42663        -4.20307
LJ          -4.85948        0.951581        -3.84737
LJ          -3.02637        -5.04044        -3.17419
LJ          -3.54786        -4.14112        -4.29306
LJ          -3.86988         3.17372          4.7614
LJ          -3.05781         3.54053         4.07736
LJ          -4.49423        -3.85354        -3.51642
LJ         -0.421165          5.0628        0.665285
LJ           2.90035         1.13011         5.93947
LJ           4.88134         -1.9598         1.93748
LJ          -3.76944        0.780666        -4.16958
LJ          0.509657        -1.92523        -4.05767
LJ          -2.29593         1.45367        -1.87086
LJ           1.04297        -6.35241        0.987466
LJ          0.460353        -1.86054         4.20906
LJ          -1.44275        -4.37686        -1.00869
LJ          -1.58886         5.13528        -2.22966
LJ           4.58059         2.49699         1.30177
LJ           2.83506         1.04449         4.38974
LJ           3.74191         2.71223         4.53219
LJ           4.06914         1.65329         1.92869
LJ          -1.18376        -3.02364        0.950511
LJ          -1.24884        -4.13566        -4.08088
LJ           5.42452       -0.166984         2.51965
LJ          -2.77152         4.51584        0.313744
LJ           3.50385         4.52492        -5.23513
LJ           1.62955         3.50989        -1.56313
LJ          -4.19493       -0.129047         2.08942
LJ          -1.78099        -4.45753        -1.93046
LJ          -1.95571        -4.02504         5.81064
LJ           3.37423         5.60131         4.98034
LJ          0.569433        -5.77689        0.213423
LJ          -1.25729       -0.414891         1.44715
LJ           2.33913        -5.70609         2.92954
LJ         -0.864587        -1.17646        -1.04032
