108
#Comment!
LJ           2.04315        0.513639         3.55312
LJ           4.64728         3.56102        -5.76066
LJ           4.19741        -5.99404         1.12327
LJ          -2.94864        -2.81794        -3.58963
LJ           3.39886         4.51119         6.09338
LJ           3.26945        -6.22288         4.63252
LJ           5.29467        -6.33977        -3.72199
LJ           5.13486      -0.0838364         4.41006
LJ           6.05419        0.145987         3.38327
LJ          0.166171        -2.36161        -5.31889
LJ           -3.1206        -6.39446         6.09836
LJ          -3.90875          4.4545        0.515183
LJ           5.98207        -1.60291        0.791531
LJ           3.56912        -2.79339         -5.4164
LJ          0.960463        -5.95265        -1.91552
LJ           2.55885         5.60452         1.71254
LJ           4.45351         5.72783         2.13754
LJ          -5.77373         1.10878        -1.24758
LJ          -2.21641         5.65918        0.765949
LJ           5.65206         2.18933        -3.99311
LJ           5.66651         1.90631        -1.93186
LJ          -5.49626        -4.36683        -2.89034
LJ          -3.97208        -1.56558       -0.853479
LJ          -4.84886        -2.11426        -1.46437
LJ          -3.19876         3.98674         1.48387
LJ           5.42581        -4.93126        -2.50853
LJ          -3.63536        -5.39826         1.45031
LJ           5.86127        0.025617        -1.37952
LJ          -1.19068        0.521979         4.97324
LJ         -0.950158        -3.35022         6.14772
LJ           6.14004        -2.04633        -5.88051
LJ         -0.834693         1.16637        -1.13261
LJ           3.61446        0.501518         6.42257
LJ         -0.446968           3.763        -5.49134
LJ          -1.20814          3.4341         6.01587
LJ          -3.62129         5.66755         2.41424
LJ           5.38838         5.38907       -0.591179
LJ          -1.43505         4.61546         2.64188
LJ          0.253122         1.66434         5.56004
LJ         -0.755582       -0.212508         2.78598
LJ           2.60901         -4.8132        -3.07259
LJ           1.78778        -4.90013        -3.80199
LJ           4.90545        -3.99107        -6.17025
LJ          -1.05566         1.21244         1.15217
LJ          -4.80532          -4.201          3.0219
LJ           3.90477        -3.73518      -0.0775178
LJ          -2.45855         2.01539        -1.93869
LJ           4.86093         5.57066        -4.25786
LJ          -1.10577       -0.506361         1.80238
LJ         -0.964593         4.14309       -0.684752
LJ           4.18003         5.46786         3.97649
LJ          -1.03208       -0.153598        -1.13211
LJ           5.10306         1.34964        -4.52134
LJ          -4.96635         3.39984          -1.757
LJ          -4.62516         1.67309        -1.18427
LJ            3.5691         4.07165        -5.49694
LJ           -6.0545        -4.56488         -4.3702
LJ           4.20532         5.65789         5.19915
LJ            4.6934        -1.91261         6.12447
LJ           2.76177        -2.85386         0.25052
LJ          -3.78588         2.62677         3.61997
LJ          -2.26073         4.28387         0.92071
LJ          -4.32371        -1.07018      -0.0528381
LJ           1.74576        -5.06323         -4.7694
LJ           -2.5049         3.95293        -5.40917
LJ            -0.765        -2.44338         5.49638
LJ          -2.04441         4.98492         4.01953
LJ           4.37894        -1.03838        -3.07068
LJ            -4.773        -4.37651        0.953227
LJ           1.43207        -5.69582        -3.04869
LJ            4.2255         -1.1941        -5.95831
LJ          -2.93782        -1.61104         -1.2328
LJ          -3.63687         -1.8978        -6.35972
LJ           4.87404         5.49985         6.33109
LJ          -1.51323        0.977162        -2.57821
LJ          -5.27854         2.00643        -5.22918
LJ          -6.19031         5.48214          0.8087
LJ            4.3988        -2.86974         4.01386
LJ          0.514891         4.67841        0.042343
LJ          -4.57139        -2.61407          3.4215
LJ           4.58768        -2.10737        -3.27448
LJ          -2.62585       -0.620244         2.86367
LJ           4.98457        0.201713        -4.88362
LJ           4.62396        0.635147          1.7214
LJ           -4.0132        -1.21228         3.04227
LJ          0.699264         3.05277         4.70054
LJ          -1.93858         3.02437         1.83257
LJ          -2.79799        -1.61344         3.59705
LJ          -4.97635        -3.63117         5.65829
LJ           6.44991        -2.13262         1.86856
LJ         -0.514135        -3.87176         -1.1104
LJ          -2.15245        -2.31519        0.371768
LJ           2.83051         1.54239        -1.47089
LJ         -0.104469        -5.48969         4.07712
LJ          -2.44008         6.19123         3.88146
LJ           1.90815        -2.78827        -1.77878
LJ           1.51785        -1.08767         2.11258
LJ           2.41247         3.57196        -1.17629
LJ          -4.98641        -1.77553         2.97613
LJ          0.957033         6.00388       -0.970423
LJ           4.45411        -4.02514          2.0853
LJ           -6.3689        -5.32964         6.36936
LJ           1.93678         1.15835         2.69566
LJ          -1.40016        0.855693        -3.71852
LJ          0.439568        -2.11276         6.14932
LJ           1.13101         2.06863       -0.856155
LJ           1.97842        -2.96907         -5.6306
LJ           5.58896         4.86869         3.53951
