108
#Comment!
LJ          -1.20976        -5.34678         0.69949
LJ            4.9564        -5.58811        0.709152
LJ           1.04065         5.00981        -4.20734
LJ          -6.36719        -2.66709       -0.122417
LJ          -1.26933         3.99196         3.53827
LJ           4.60098        0.238936        -4.65881
LJ          -3.53578         5.61002        -5.04411
LJ           3.93233        -6.28447        0.154543
LJ           2.74768        -5.77864         -2.4533
LJ          -3.40296          2.0016         4.42151
LJ          -2.06325        -5.49655        -4.43121
LJ           4.94264        -5.45363        -4.10836
LJ           2.61819         -2.3502         2.63164
LJ          -2.81742        -6.25187        -1.70393
LJ          -3.32297        0.921428         3.79637
LJ           5.09033        -2.75909         2.60386
LJ          -4.37129         1.45059        -3.60444
LJ           6.26488        -1.33849        -3.53647
LJ           2.69198        -3.46457         2.02505
LJ         -0.725673        -4.47141         2.80794
LJ           1.80519        -6.03093        -5.68509
LJ         -0.762407        -5.86062         2.68624
LJ           3.30454         1.81751         4.51561
LJ             -2.16     -0.00423246         5.61559
LJ         -0.499435        -3.58636         3.18266
LJ          0.878731         5.60404         1.29934
LJ           1.76307         5.81249         5.87506
LJ          -5.88647         5.13765         5.58259
LJ          -2.31409         1.45364        -5.99527
LJ          -3.96036         -3.5128         -6.4631
LJ           1.17417        -3.55138        -6.44006
LJ           1.48429        -5.50124        0.250082
LJ          -2.64548         3.27071         2.71217
LJ           5.65631         3.15351        0.956371
LJ          -3.92331         4.22351         4.58208
LJ          0.656486         5.77352       -0.184349
LJ           -6.4283         5.86679      -0.0971327
LJ           3.85804        -4.27382        -2.08799
LJ           5.32961         3.34489          2.4118
LJ           5.13512        -3.77829        -3.07975
LJ           5.59825         2.13751        -4.20439
LJ          -3.21455         6.36738        -3.31427
LJ            4.1905        -3.00343        -1.01021
LJ          -2.80645        -1.66797        -6.09442
LJ           3.22186        -6.00463         1.05595
LJ           -1.0935         5.77834        0.950856
LJ           5.13268         6.11499          1.5583
LJ           3.84478       -0.808622        -6.28234
LJ            4.5823         1.69284        -4.94987
LJ          0.625401        -1.39929         6.12206
LJ         -0.272167        -0.30286        0.701961
LJ          -1.12937        -2.56886         3.33366
LJ           6.08143         1.14511        -4.09687
LJ          -5.22035          6.0078        -2.43204
LJ          -2.43576         1.03132         1.42106
LJ          -6.41649        0.149368        -2.94899
LJ          -2.98955        -4.44782       -0.464539
LJ          -1.39179         4.94867       -0.134808
LJ            3.6576         1.97591         5.58772
LJ          -3.91247       -0.649829         2.45598
LJ           6.43459        -3.41915         -3.0737
LJ          -3.41935         4.43811         1.13924
LJ            1.0128        -1.38353        -3.14504
LJ           -4.0849        -5.85826         -5.0137
LJ           3.94579          2.6291         4.58795
LJ          -2.92491        -2.62838         3.83151
LJ           1.42344         1.42288        -2.77204
LJ           6.07908       -0.415347        -6.44603
LJ          -1.91073        -3.34283         2.48147
LJ          -4.98154       -0.957913          2.1169
LJ         -0.360521         -5.9666         5.43095
LJ          -3.03824        -0.63786          1.5159
LJ           3.10224        -6.12703        -5.48881
LJ           6.17868          6.0445         2.13844
LJ          -3.07043         3.37584         1.76237
LJ           2.42947         4.00042         4.64734
LJ          -2.35832          3.8896        -4.85407
LJ          -2.72008        -1.74671        -3.20171
LJ        -0.0350817         2.45991        -2.50464
LJ         -0.961752         5.57906        -1.49677
LJ           3.72016        -2.79093       0.0648029
LJ          -4.05943        -4.72309        -3.19848
LJ          -4.31787         -4.7626        -5.00095
LJ           2.64216         6.07371        -3.69022
LJ           1.82689        -4.47214          2.6992
LJ          0.556028         2.06907        -4.72761
LJ         -0.718991         1.59732        -1.38352
LJ          -1.43924        -4.98511         1.49483
LJ           2.76859         2.63253        -5.88145
LJ         -0.350529         1.74671       -0.206224
LJ           4.07626        -2.22592        -2.73517
LJ           1.17054         5.56134         3.37413
LJ           6.44298          3.1532        -5.57662
LJ           -2.6751         4.87042        -3.15053
LJ          0.278753         3.86509        -4.13572
LJ           5.42736        -5.91697         -5.6624
LJ          -1.82272        -1.66685        0.729082
LJ           2.89584        -1.75623        -6.06216
LJ          -3.86088          3.0573         3.90695
LJ            2.8424       -0.849313       -0.918007
LJ          0.583463       -0.400414         1.56805
LJ         -0.382816         3.98515       0.0631012
LJ           0.98755         1.79727         2.79179
LJ          -3.36757        0.671261         6.38916
LJ           2.76664         5.04852        -5.73405
LJ           3.55191        -4.01637        -3.01269
LJ           -3.9769        0.154869        -3.13448
LJ          -2.92691         1.86003          2.5919
