108
#Comment!
LJ           3.07492         6.33835        0.776967
LJ          0.337087        -3.98967         3.58326
LJ          0.405023       -0.246353        -1.89437
LJ           2.83866         1.32687        -2.51638
LJ          0.719562        -3.67558         2.73402
LJ           2.72246         4.81715         5.67151
LJ          -5.18597         1.77918         2.26354
LJ         -0.841955        -4.55904         2.94155
LJ          -3.24415        0.224357       -0.971957
LJ          0.457992        -2.58637         3.26989
LJ         -0.467392          2.1926        -4.10497
LJ          -5.21682         4.62889         4.02515
LJ          -2.43736         3.57591         4.45446
LJ          -3.86836        0.757402        -5.26923
LJ          0.205492         4.36253       -0.665514
LJ           5.46521         4.55594        -1.79234
LJ           1.08791        -1.61862        -3.22137
LJ           3.79134        -5.67251         0.99123
LJ           5.30215         1.61196         4.86763
LJ           2.65933         6.17083         5.65439
LJ           2.91121         5.00208        -1.70409
LJ            3.1637        0.830614        -3.80816
LJ           3.11037        0.072336         6.39374
LJ           1.49278         5.04597          1.0875
LJ          -2.36277        0.449445        -3.65826
LJ           4.89091         1.17943        -6.35092
LJ           6.37631         6.32762         -5.2032
LJ          -2.85541         1.40739        -3.15546
LJ           6.33666         6.06267         5.86501
LJ           1.78034        -5.07376         3.86643
LJ           2.16931         1.94048       -0.146151
LJ           2.19619        -0.53128         2.87058
LJ         -0.994756        -5.45846        -5.12292
LJ           6.25391         2.41409         5.51437
LJ          -3.94479        -2.48648        -3.37875
LJ          -2.62074        -2.30918        -2.57475
LJ          -3.02557       -0.197716         1.60006
LJ            5.9088        -6.20018         1.36855
LJ          0.254696         6.04484       -0.443681
LJ          -2.45372        -4.54534         5.23952
LJ          -2.39781         1.33793        -6.35486
LJ           5.42766         1.20221         1.01612
LJ           5.79264        -2.44479         2.75229
LJ           4.57619         3.92832         4.01406
LJ          -2.78093         4.46192          4.1632
LJ           3.54809         2.94469       -0.277883
LJ          -5.53991        -1.49683        -6.21334
LJ          -6.39989         5.71089        -2.69734
LJ          -1.35346        -2.48388       -0.033165
LJ          -5.17741         6.14871        -5.21676
LJ          -5.93065       -0.533074       0.0111325
LJ          -5.78304        -4.66513         2.13673
LJ           2.18914         4.84393         3.21338
LJ           1.71293        -2.59767        -1.51936
LJ           5.89329         4.49141         2.80089
LJ          -2.42613         -1.6957         4.42834
LJ          -3.88562         4.16361        0.951279
LJ          -3.00603        -2.07928         3.34509
LJ          -2.81792          4.5233        -4.20402
LJ          -1.86405        -2.90922        -4.94443
LJ          -3.76068       0.0330316        -5.97164
LJ           3.81507         5.72226         1.19633
LJ           1.27891        -5.85979         5.09589
LJ           3.21921          5.3254         2.02559
LJ          -1.41812        -6.43071         2.09244
LJ          -2.93123           4.786        -3.16747
LJ         -0.810278        -6.23958        -4.22487
LJ          -2.96336        -1.42794        -5.82522
LJ          -2.08614         4.53599        -4.92441
LJ           3.30422          5.3549         3.16805
LJ          0.406522        -6.38401        -4.06578
LJ           4.02476         3.22815        -3.86307
LJ          -1.45604         2.46712       -0.412062
LJ           5.10467        -4.94507         3.81356
LJ           1.56579        -1.71859        -4.83706
LJ           1.09027         4.81544         3.86374
LJ          0.732733        -2.62265        -5.60108
LJ            3.0105          5.4522        0.138932
LJ          -1.27674        -2.32213        -3.44811
LJ           5.93344         1.24747          4.2048
LJ           5.22449         5.46545        0.460562
LJ          -4.15935         2.41264        -6.17455
LJ           3.70471        -1.36202        -1.93067
LJ           -1.2495         4.63912        -4.05478
LJ          -3.30367        -1.77375         5.88298
LJ           4.32495        -5.04361        -5.29859
LJ            3.6355         5.88053         4.17889
LJ           6.25572         4.03797        -4.22188
LJ          -5.84536         2.77796         4.30379
LJ         -0.572772        -3.19824         2.50405
LJ           5.31218         6.18758        -2.29547
LJ           4.23995        0.336346        -6.17078
LJ           1.25282          5.5486       -0.871961
LJ         -0.519182         4.07395         5.18324
LJ         -0.498422        -3.83452        -5.96842
LJ          -1.38589        0.961197       -0.285372
LJ          -4.31443        -2.96253         1.68927
LJ         -0.129246        -1.13089        -2.81552
LJ          -4.89873         6.21507        -3.30071
LJ           3.27008        -5.38007         3.56248
LJ           6.18511        -3.03332       -0.446119
LJ          -6.35112        -4.81355         5.36318
LJ           1.80209       -0.669687        -3.19276
LJ           3.91965         5.26469         6.02405
LJ           5.75195        -4.90721        -4.22991
LJ          -5.94371        -3.58423         3.83044
LJ          -3.44839        -4.54662         4.10425
LJ           4.60156        -4.54959         4.85863
