108
#Comment!
LJ          -1.98802        -5.32434        -4.65714
LJ         -0.696382        -2.14119        -1.02796
LJ          -2.58686        -2.64669         -5.4656
LJ           1.71905        -6.10557        -3.12233
LJ          -6.32159         2.59301         1.47392
LJ           3.49907        -1.77522         -2.5662
LJ           1.83888        -4.81494        -3.76155
LJ          0.496315        -2.82773         3.10064
LJ           5.39217        -2.31485        -4.40639
LJ           1.81755        -2.70506        -6.32748
LJ          0.580603        -6.23155         -2.0247
LJ           1.85016        -5.21178        -6.29199
LJ          -3.98272         5.84678        -2.05165
LJ          -3.54543         2.97737         2.49154
LJ           4.63573          1.9297        -4.42437
LJ           1.83144        0.401174         5.64915
LJ          -5.49414        -6.27606       -0.581138
LJ           2.37251        -1.21856        -3.93346
LJ          -2.70216        -4.04989        -2.03643
LJ          -5.07566         4.88029      -0.0392831
LJ            5.4096       -0.450749        0.612106
LJ          -3.41124         4.33416        -4.76984
LJ          -6.44347       0.0730963        -4.81471
LJ         -0.758595        -5.27963         -1.7895
LJ           3.76277         6.16574        -1.15586
LJ           3.79546        -4.89818          4.0397
LJ           4.51376         -3.1302        -4.04454
LJ           1.71447        -2.99641          5.1021
LJ          -3.28797        -3.94074        -5.37692
LJ           -4.6935        -2.76031         5.34676
LJ           4.41662         2.81548        -2.96491
LJ          -4.64854        -1.27222          2.9125
LJ           4.60421         5.49742       -0.820726
LJ           1.35754        -1.42807          4.6874
LJ          -5.58558        -3.90197        -1.56336
LJ          -5.30671        -4.27233         2.01377
LJ          -2.14574       -0.690222        -2.33968
LJ          -1.09644        -1.83758         2.32084
LJ          0.519196        0.413895         1.49867
LJ           5.57337        -1.55343         5.66532
LJ          -4.13357         1.22207         0.75427
LJ            5.0335        -4.39287          -5.928
LJ           6.03468         0.94351        -6.45237
LJ          0.471184         1.90136         3.24125
LJ          -2.48109         5.64957         2.05056
LJ          -3.19352         3.05823         0.37822
LJ          -3.79804        0.131257        -3.20632
LJ          0.657376        -2.51873       -0.880271
LJ          -4.17342        -4.08584        0.342981
LJ           3.16021         2.86395        -4.48626
LJ            3.6569         1.91398       -0.319319
LJ           6.31616       -0.907265        -5.28325
LJ          -3.82707        -1.49241       -0.442973
LJ           1.10997         4.10831       -0.613228
LJ          -6.44556         1.98096         2.36607
LJ          -4.13337       -0.663201         5.49895
LJ          -1.97421        -3.18746        -6.16922
LJ           1.73395        -4.72052        -4.87488
LJ           5.51387        -3.08555        -3.57572
LJ           5.40636        -1.84771        -5.62328
LJ           6.10435       -0.586527         5.87372
LJ           4.26831        -4.11644         5.58201
LJ           4.57054         2.36751         3.44446
LJ         -0.974463       -0.695477         2.45815
LJ          -4.47474        -2.82602        -2.67023
LJ           6.34335        -1.67486         3.69387
LJ           3.54792           2.849       -0.842591
LJ           2.03396       -0.457494        -5.14861
LJ          -6.15714        -1.37657         4.58927
LJ          -3.64383         1.20714         -3.2405
LJ          -3.52919         4.91767         1.94934
LJ           3.81154        -5.73304         2.39474
LJ           2.55476       -0.436183        -1.15304
LJ          0.883766        -1.70516        -6.24852
LJ          -5.28982         4.82961         1.14479
LJ          -6.08356        -2.49746         3.83286
LJ         -0.273311         2.48807         1.95388
LJ          -2.07093        -2.74354         4.46341
LJ          0.317826        -0.89523        -4.97775
LJ          0.157471         4.19386       -0.893489
LJ            1.7806         3.20904        -2.44165
LJ           3.06183         3.40573      -0.0553084
LJ          0.268896        -2.21811         1.86934
LJ          -1.01794        -1.88751        -5.07582
LJ          0.495374        -4.43606         2.05674
LJ           2.39006         4.51214         5.67193
LJ           5.08604         4.52105        -3.86986
LJ           6.20527         6.07796        -5.41271
LJ         0.0720308        -2.82149        -2.03742
LJ          -1.58613        0.180146         -4.7198
LJ          -5.81607        -4.69713        -3.10049
LJ          -4.48975        0.789778          4.1483
LJ           4.70109         5.21375         5.18921
LJ            5.9935         6.32161        -2.93738
LJ          -2.93017        0.317671         1.72439
LJ          -5.72187         5.96921         3.57076
LJ          -2.22142        -5.39776         5.94217
LJ          -6.15268        -4.26551         4.49772
LJ        0.00936068        -4.13395         3.09806
LJ          -1.14352        -5.81045         3.32049
LJ           3.88524         2.77702        -2.15926
LJ           2.73115         5.91258        -1.53631
LJ           3.77106        -2.02822        -3.97353
LJ           5.15878       -0.496435         6.33984
LJ          -5.66567         6.06431        -1.47133
LJ          -3.05361         5.04008        -2.26896
LJ          0.689586         4.76403         3.31368
LJ           1.35038        -4.81854         0.24263
