108
#Comment!
LJ           3.15623        -3.13717        -4.42849
LJ           4.38908         4.07821         -5.3403
LJ           3.01614         4.47901         4.76289
LJ          -3.37873         4.37404        -4.10132
LJ         -0.659715        0.714698       -0.551635
LJ           4.91348        -2.34203         2.82587
LJ          -3.45101        -1.56538        -6.41173
LJ           4.70836         1.60625        -1.63024
LJ          -6.29822        -3.45356        -3.63596
LJ           3.47002        -2.03347        0.724798
LJ           5.99517         -2.8474        -4.22245
LJ          -3.92579        -4.40639         6.40473
LJ           6.07985        0.977204        -2.69301
LJ           3.17242       -0.103523        -3.85529
LJ           4.62231        0.774367         5.47826
LJ          -4.75971          5.6266        -3.10009
LJ           2.69677         5.56708        -2.44953
LJ           6.21352         5.01445         3.43284
LJ           1.26894        -6.18639         3.57973
LJ           1.86383          4.9865        -1.08698
LJ            1.8571        -3.20147         1.84979
LJ         -0.999571         5.61934        -4.25386
LJ          -4.00748         5.52605         4.83827
LJ          -5.05106        -4.31274        0.718482
LJ          -3.36376        -1.53855        -4.68325
LJ          -2.79581        -4.67625        -2.77352
LJ           5.86281         1.86116        -3.29905
LJ           4.06312         2.66348         1.55423
LJ            6.3804        -5.52605        -5.94057
LJ          0.609942          -2.446         -6.1024
LJ           3.56017         5.71872         5.87242
LJ         -0.935868         -5.6964         1.10791
LJ           2.70197         1.00138         1.73972
LJ          -3.52008         4.45267        -5.98332
LJ           3.78357        -6.27292         2.53035
LJ          -2.24455         -3.4227        -5.72137
LJ          -4.40361        -2.25118         1.24646
LJ          -3.06459         3.57462        0.157736
LJ           3.60634        -6.32144        -1.37041
LJ          -5.88028         2.29513        -1.29109
LJ           1.81456         1.96107        -1.05663
LJ           1.44099         1.98245        -3.80613
LJ          -2.76622        -1.11188        -1.18603
LJ          -3.34267        -4.55605        -3.78877
LJ          -1.15321         4.79854         5.55241
LJ          -2.91792        -1.29987        -5.65295
LJ          -5.29262         2.20371         6.45827
LJ           3.42495         -4.1524         3.01518
LJ          -4.49141        -4.67552       -0.641865
LJ          -4.84417        -4.04464         6.25399
LJ          -2.45703        -2.88208         4.89748
LJ          -4.60308         1.08879         2.21031
LJ          -5.26669       -0.254062         3.01477
LJ            5.7054         -4.3339        -4.63665
LJ           3.79547         0.04667       -0.181245
LJ          -2.98981         5.86134        -1.88396
LJ          -1.47263         5.51262         2.99849
LJ          -1.53526         4.73782          1.1572
LJ          -4.98574        -2.10592        -1.25693
LJ            1.0467         4.29711         5.75753
LJ             3.363        -2.19329          2.5782
LJ          -1.93377         5.26374         5.17098
LJ          -3.49924        -3.50745         6.12182
LJ          0.289817         1.80189        -4.83168
LJ           -2.0672          3.9762       -0.737332
LJ          -3.88663         1.91849         6.19048
LJ           1.66715         2.23447         -5.9116
LJ           2.11037        -2.67493         6.16576
LJ           -5.5145        -4.60019        -6.13398
LJ           2.50786         -5.0816        0.580631
LJ          -2.41402        -6.01197        -4.28342
LJ          -1.84824         1.30042         5.37974
LJ          -6.07784        -3.05885         3.86585
LJ          -2.09939        -1.78678         4.90504
LJ           1.20721        -2.07958        -4.14713
LJ         -0.918896           2.165        -5.96595
LJ           2.16538        -5.06067         3.90014
LJ          -2.99759        -5.78501       0.0596712
LJ           4.80501        -3.39207        -4.61797
LJ          -5.00919        -5.53387         4.39783
LJ          -3.41333        -6.41516         6.04671
LJ           1.91686        0.730421        -5.15375
LJ           3.36705        -2.68865         5.61147
LJ           1.92332       -0.875106         3.04309
LJ          -2.13424         6.42378         2.62284
LJ           -4.9797        -4.64377         3.47849
LJ          -5.50487         5.53788        0.763538
LJ          -2.75358        -4.66638         5.65803
LJ           3.92264         1.07642        0.871882
LJ           1.12832         3.46619         2.23935
LJ          -5.92176        -1.95126         4.39102
LJ           3.71195         1.27599          5.9178
LJ           2.01233        -1.71033         2.73003
LJ          0.940025        -1.62063          1.5907
LJ           2.65262         1.33483       -0.997863
LJ          -6.15676        -3.86123        -1.49649
LJ          -3.40151         2.59285        -2.28258
LJ          -4.75782           2.211        -5.62933
LJ          0.819445         0.88474        -4.68594
LJ            4.2665         3.03105         5.80645
LJ          -3.82678         4.87172        -3.18582
LJ            4.8733          -4.422        -5.37046
LJ          -3.10363        0.454552         5.35929
LJ           3.55152         1.16548        -3.18888
LJ          0.617929         1.58938       -0.845466
LJ            4.7671         5.60326        -1.39008
LJ          -4.14641          5.2679        -2.23564
LJ         0.0984524         4.26502        -5.27785
