108
#Comment!
LJ          -5.60021          4.7006         3.70057
LJ          0.982263         3.88065         2.22556
LJ          -2.03413         3.29455            1.01
LJ          0.928486         1.15569         1.72825
LJ          -5.98705        0.917552        -4.80026
LJ          -4.05697         5.80385        -4.39362
LJ          -4.05385         4.63803        -4.05771
LJ          0.131673        -5.00488       -0.423261
LJ          -2.08481       -0.673967         1.50241
LJ            5.8811         2.33022        -1.04453
LJ          -3.76115         2.18269        -4.84458
LJ           5.52368        0.272766         -2.0062
LJ          -1.22695         6.00286         1.98274
LJ          -3.46742         1.74703         4.05716
LJ            5.0113          1.4773         1.66001
LJ          -6.39496         -3.3581         -1.7278
LJ           -5.4631        0.315733        -2.74947
LJ           4.27548        -2.65935        -3.62543
LJ           5.35155         4.02893        -5.58815
LJ          -2.67938         2.01205         4.96308
LJ           -3.5027         6.41226         3.74318
LJ          0.564871         2.30558         1.31105
LJ          -3.77042        -1.51971         4.32481
LJ           3.70244         0.55314         1.57193
LJ          -1.68106        0.785821         6.12238
LJ           -6.0526        -4.38303         -1.1471
LJ          -2.79094        -1.81538         5.54209
LJ          -6.41286         5.33461        -4.33443
LJ          0.876482         -3.2808        -3.95604
LJ           3.77814         4.20957        -2.61073
LJ          -1.62184         4.32862        -1.04169
LJ          -1.82659        0.189953        -1.88356
LJ          -4.39465        0.462845        -4.21115
LJ         -0.781581         2.29965         5.20314
LJ         -0.300598        -1.16408         3.07197
LJ          -1.56439        0.828059         3.63069
LJ          0.509563        -4.08517        -4.49413
LJ          -3.46385         3.79513         1.83517
LJ           2.75403       -0.345023        -3.30789
LJ           -6.2229        -5.50705       -0.956706
LJ           4.06115        -5.09708       -0.994764
LJ          -1.56173         6.09859      0.00679449
LJ           5.77341         4.48382         6.01849
LJ          -1.94251         4.95902         6.30119
LJ           2.06495        0.592558         4.02597
LJ        -0.0989785        -2.08328        -3.98464
LJ          -3.07459        -3.09248         3.91883
LJ           6.34609         4.08003         3.09038
LJ          0.735508         4.93103         3.51614
LJ          -3.78843         5.75505         0.88506
LJ           2.33613        -5.63613        -4.10179
LJ          -2.51903         2.92623          5.7284
LJ          -3.42545        0.584158        -4.66543
LJ          -4.50493         2.08885        -2.77432
LJ           1.74437          1.6889        -6.19823
LJ         -0.861966          3.6531         4.31804
LJ            3.1991        -5.50181         4.02668
LJ          -2.21646         6.40895        -1.61107
LJ           3.39986         2.96737        -2.90777
LJ          0.957618        -3.41451         1.49951
LJ          -3.73057         -4.1936         3.47608
LJ           4.01213        -1.69183         1.07174
LJ          -2.60681         5.50517         -2.5308
LJ          -1.03976         1.74926         -2.6315
LJ           1.21076       -0.619708        -4.61157
LJ          -5.16911        -2.31395         0.68511
LJ          -1.03304        0.569392         2.68796
LJ          -3.33339         5.90257       -0.883474
LJ            5.7731        0.966653        -3.61253
LJ           1.27203          5.8761         3.37009
LJ          0.100608         1.25833        -2.43001
LJ          -4.34406     -0.00335401         2.34466
LJ          -2.10632         1.41777        -4.83406
LJ          -6.22935        -5.73374        -4.35762
LJ           5.96365         6.33663         1.49917
LJ          -5.56057           3.247       -0.264047
LJ           4.44573        -2.77067         5.48958
LJ         -0.856293        -3.43961        0.474889
LJ           1.93553        -2.62765        -3.66911
LJ          -2.28694         6.08124         2.61874
LJ           2.51411         1.05106         1.39008
LJ          -5.72878          4.5313        -5.48847
LJ          -4.82263         4.09174         1.65496
LJ           2.59313       -0.460503        -5.03173
LJ           4.56877        -4.92321     -0.00716686
LJ           2.63984        -5.91925          1.6351
LJ           5.90912          2.7881        -4.65223
LJ          -2.77289         2.18399         1.30769
LJ          -1.09135        -4.31247        -5.59485
LJ           2.80914        -3.33909        0.608197
LJ           4.97509       -0.280265         1.32031
LJ           2.94204         2.50146         1.14655
LJ          -4.89859        -1.49053         4.01456
LJ           2.60612        -1.31207        0.410396
LJ          -5.04953         3.71832         4.08702
LJ           5.84374        -2.56733        -2.14355
LJ          -5.36478         1.20399         1.31916
LJ          -6.00154         2.95667        -5.47278
LJ        -0.0404675        -4.65526          1.0997
LJ          -4.73411          5.2357        -1.74745
LJ          -4.70505        -1.11802        0.972215
LJ          -5.58538        -6.45259         1.13462
LJ           4.26734         4.92523        -3.33831
LJ          -3.89961        -2.64661         -2.8345
LJ           1.85137        0.488836        0.711217
LJ           -5.2356         1.27306        -1.30593
LJ          -5.42682       -0.881483        -2.27142
LJ          0.603264         6.40015        -5.94751
