108
#Comment!
LJ           -2.7905        -5.69282         5.83342
LJ          -2.85519       -0.619476        -3.24634
LJ            -1.519        -1.73533         1.40578
LJ           2.26843         1.64162        -1.38149
LJ           2.27109         4.29309          -1.827
LJ           4.80998        -5.28044        0.584796
LJ            4.4794        -3.56138         3.98445
LJ          -6.02189         1.89681         5.21747
LJ           5.21168         4.71339         3.79494
LJ          -1.69163        -6.35273         4.44602
LJ           2.43213        -3.01537         3.71497
LJ           5.61722         6.17402        -3.72655
LJ           4.20492       -0.069635        -2.05035
LJ          -1.05107        -4.10004          -1.418
LJ         -0.700697        -3.73273       -0.481468
LJ           -2.4339         5.98232         6.22197
LJ         -0.681555         -1.9902         4.39144
LJ           6.34549        0.839474         1.91992
LJ           1.94598         3.80132         3.54121
LJ           5.48089         3.69477         5.93914
LJ           1.06735         3.40388        -1.63738
LJ           1.66461         6.41258         2.32911
LJ         -0.695773         5.27061         5.13812
LJ          -6.41222        -1.76666         4.37942
LJ          -2.15182        -1.25979         5.00739
LJ          -4.77411        -5.56819        -6.44169
LJ          -5.75009         4.29849         6.43495
LJ          -3.17597        -1.80043        -3.69969
LJ           2.25734       -0.881435         3.65261
LJ           1.37506       -0.430075        -1.05137
LJ           -5.5809        -5.76511        -0.79723
LJ           -3.4607         1.51666        -1.99405
LJ           2.34991         0.39862        -1.40015
LJ           3.19725         3.11674         -2.5288
LJ            6.4091         6.13358        -2.97141
LJ          -1.67109         4.04254         -3.4913
LJ          -1.30817       -0.517745         2.37494
LJ           4.26441        -5.09126        -0.97554
LJ         -0.131005        -2.18391         0.89225
LJ           5.23387        0.566296         2.92612
LJ           6.11795        -5.01637         -3.0425
LJ           3.70371         6.01826        -5.55448
LJ           6.28603         2.29185         3.59328
LJ         -0.925026         2.48577         -5.0452
LJ          -3.24299        -4.28456        0.391675
LJ           1.29333         -3.3907        -4.86696
LJ          -2.64169        -2.74182         2.65578
LJ          -2.11236        0.851765        -1.87678
LJ           3.83805         1.66719        0.464006
LJ           3.97642         2.36986        -1.41772
LJ          0.112017        -4.37626        -1.36799
LJ           5.02101        0.779674       -0.964192
LJ          -4.38209         4.10772         1.25466
LJ           1.68216       -0.509132        -6.17091
LJ          -4.46815         2.50965         4.40376
LJ           3.33966          3.3896        -0.87616
LJ           3.78597        -4.38658        -3.42674
LJ          -4.45493       -0.119183       0.0770389
LJ           6.38018        -4.51134        -1.88046
LJ          -4.37406        0.892483        -1.67539
LJ          -6.45789        -5.30058         2.90141
LJ           5.20164        -4.65574       -0.809457
LJ         -0.291061        -4.81664      -0.0165298
LJ          -2.05218        -5.14921         6.36676
LJ           3.89195         2.82302         4.38263
LJ           3.43935         3.69127         2.29563
LJ           -5.5294         1.81123        -1.80823
LJ           4.98719        -0.63727        -2.85021
LJ          -6.06089        -5.83546        -4.36058
LJ           3.19676         2.83278        -4.67694
LJ            2.8668        -4.71599        -1.93546
LJ          -2.07739         3.22704       -0.355756
LJ          -3.93051        -6.45719         2.79709
LJ          0.221482        -2.77792        -3.87475
LJ           1.53098       0.0728327         2.18419
LJ           1.30555        -2.09222         5.88733
LJ          -3.34755          5.6386         1.14615
LJ          -3.36482      -0.0222011         1.28528
LJ          -5.52045        -5.05129        -4.14013
LJ          -5.32625        -2.05986        -3.59296
LJ           3.77836          2.4528        -3.87226
LJ           0.25501         3.85416        -2.50081
LJ          -3.37808         2.27213        0.685451
LJ          -0.59596        -3.05331        -4.31034
LJ           4.90172        -5.75091          -5.102
LJ           4.17942        -3.09566         1.07698
LJ          -6.41334       -0.373969         3.28853
LJ           5.67193       -0.701266       -0.733932
LJ           3.03535         1.71396         4.55103
LJ          -1.23912         2.71151         1.66294
LJ           2.65813          -4.673         1.06396
LJ          -4.31275        -4.16086         6.35388
LJ            1.6457         5.77985         3.12607
LJ           4.83286         2.19686         1.40736
LJ          -1.91492        -1.18301        0.687429
LJ          -2.56088          -2.531        -3.07094
LJ          -2.70112         6.37905         4.98954
LJ           2.02815        -2.52197        -2.77705
LJ         -0.105113         3.05816       -0.231418
LJ           2.10628         3.08499        -3.16267
LJ           5.83823         2.21708       -0.809295
LJ         -0.426866        -2.28351        -1.33868
LJ         -0.954254        -1.96216         -6.2702
LJ           -4.4218        0.415617         1.73179
LJ           3.16791         5.71691         1.34418
LJ          -4.47298        -2.97471         5.15867
LJ           -5.9851       0.0395618         4.05902
LJ         -0.941702       0.0493213         4.13143
