108
#Comment!
LJ           4.64548        -3.32762        -4.51129
LJ          -1.41685         5.96014         4.79017
LJ           2.28684        -3.79242         -2.0012
LJ          -3.50502        -3.22499       -0.406893
LJ           1.72188         2.41279        -4.14011
LJ          -1.59231        -2.97003        -3.69231
LJ          -1.45982        -1.96531         -3.0419
LJ           4.55541        -3.76619         5.38494
LJ          -2.33077         1.95262        0.987795
LJ          -1.81762         1.84522         4.00346
LJ           -2.5906        -1.43204          -3.302
LJ            5.0789         1.76178          5.1317
LJ           2.06754         -5.6173        -1.41587
LJ           1.80165         3.22695        -1.96141
LJ          -4.71989      -0.0629478       -0.726791
LJ            4.9817        -1.24261        -5.41916
LJ           5.26646         2.55074        -3.19785
LJ           -4.3965        -4.89021        -4.05152
LJ          -5.38281         4.92014        -6.16456
LJ           6.25451        -5.25349         1.57532
LJ           3.89177        -4.30602         2.94563
LJ           1.31788         5.81113          2.9219
LJ          -1.10271        0.892831         5.13647
LJ           1.62045        -1.46712         0.35411
LJ         -0.177539        -6.12428        -2.79588
LJ          0.172333        -4.27774        -1.70794
LJ          0.767226         2.54612         6.24474
LJ          -6.45889        -2.86931        -3.45831
LJ           3.30098        -4.98107        -4.08164
LJ           5.79195         2.97186         -5.2248
LJ           2.18835        -4.93532        -3.59822
LJ           -6.2818        -3.60015        -2.33715
LJ           3.44134          3.3719        -6.27503
LJ          -2.21978         3.61377        -3.86544
LJ           2.06133         2.09685     -0.00914064
LJ          -0.35593       -0.567477         3.71306
LJ          -1.31336          2.3703        -1.34482
LJ          -2.83233          6.3062         1.94839
LJ           4.35593        -6.14826        -3.35691
LJ          -3.41187        -2.19603        -0.56511
LJ          -4.56142         2.18022        -5.45562
LJ          -2.24678         6.31576        0.935756
LJ         -0.631949        -5.25464         3.70104
LJ           2.47147        -2.89482         -3.1725
LJ          -1.46986         1.39836        -2.90763
LJ            4.5417         5.84471         6.36649
LJ         -0.276548        -3.01333        0.615943
LJ          -5.48101        -4.17175        -2.58382
LJ           1.78995         3.92553        -3.40415
LJ          -2.52378       -0.518638        0.648518
LJ         -0.394265        -6.27696         4.00102
LJ          -2.09269         6.37775         3.90831
LJ           6.19406         4.58876         3.95168
LJ          -2.29178        -3.79752        -2.21801
LJ          -4.08222         6.22848         -2.3045
LJ           1.18648        -5.20583        -5.78334
LJ         -0.100037         6.30431         5.73904
LJ           3.88511        0.271326        -3.01408
LJ          0.978519         -5.2249        -1.29605
LJ          -4.41749         1.52155         -3.8102
LJ          -1.93431         3.32887         1.44493
LJ         -0.167626        -3.64461         5.45958
LJ          -3.82742        0.630809        -1.87473
LJ           2.16393        -1.96092         4.04697
LJ           1.15198        -3.89687       -0.290925
LJ           2.58267        -4.52092         2.98507
LJ          -1.94832         3.05706         2.95068
LJ           6.25605         1.35284         1.10374
LJ          0.646603        -6.41551        -4.64383
LJ          -6.19833          3.1294        -1.49964
LJ           1.48784         3.49239        -4.64561
LJ          -4.77116         4.73843         3.89763
LJ          -3.52852         2.23223        -3.61564
LJ          -4.15077        -3.89477        0.609604
LJ          0.408285          1.2649         3.61131
LJ           3.88955         5.51914        -5.10846
LJ          -3.64918        -4.13179        -1.61136
LJ          -5.99543         5.74796       -0.183084
LJ          -2.54935        -2.49414        -5.32851
LJ            2.7653         5.95484         1.36661
LJ          -3.86359         2.75566         6.29686
LJ           1.52383        -3.50838          3.9816
LJ           1.63155        -6.06791        -4.26712
LJ           4.82843         3.05138        -6.33038
LJ          -5.08386         4.82828        -1.44209
LJ          -2.07573        -4.15454          1.6242
LJ              2.14        -5.01746         3.97039
LJ           6.04647        -5.02636       -0.476823
LJ          -3.47186        0.467589         3.48379
LJ          0.652421         3.70047       -0.775136
LJ           4.66364         5.07141        -2.51267
LJ           6.45805         4.08393        -5.28987
LJ          -1.58563        -3.11922        -1.71816
LJ           1.63463         6.12516         5.67687
LJ         -0.765198        -3.37232        -3.18009
LJ          -5.09206         6.43194        -3.85705
LJ          -3.99076        -6.26263         2.06914
LJ           1.68872         5.61954        -5.71263
LJ           5.28671        -6.25735        -1.19827
LJ           0.72016        -2.01823          2.3803
LJ          -5.61281        -5.00136        -4.05905
LJ          -1.45285        -2.54895         6.26331
LJ          0.123367        -4.97777         2.67058
LJ           1.41601        -1.33278          3.2177
LJ          0.902172        -5.32169         3.42137
LJ         -0.350024        -4.78093        0.116291
LJ          -1.43206         4.26964        -1.86718
LJ           4.23766        -4.19115        -4.00423
