108
#Comment!
LJ           3.54212        0.716616        0.372343
LJ           6.17074         2.61131        -3.06244
LJ          -4.05308        -1.72424        0.402192
LJ           5.57013         6.12878        -4.80156
LJ           4.87294       -0.804171        -5.37921
LJ           6.02778        0.572414         1.71788
LJ           5.77772       -0.607278       -0.975837
LJ           2.46732        -3.24209        -4.35444
LJ           4.83365        -5.80395         2.63468
LJ          -2.88108        -3.34404        -1.40634
LJ           5.14865         -2.5324        -3.26711
LJ           3.54077         1.73378         1.86082
LJ          0.719149        -2.18655         3.35239
LJ         -0.191399         2.93391         5.04784
LJ           1.55193        -1.01942          4.8605
LJ          -4.15272         -3.0292        0.965635
LJ           0.72164         2.11298         5.88721
LJ         -0.352555        0.169405         5.27529
LJ          0.423425         5.31868          3.9942
LJ         -0.121776        -1.50305        0.303272
LJ           1.83841        -2.14481         1.15818
LJ          -1.38179        -3.89462         3.53126
LJ          -1.67509        -4.01607        -3.03572
LJ           1.15203         3.94817         4.59397
LJ           6.09635        -2.65386        -5.59671
LJ         0.0324013         4.40582        -3.76704
LJ           4.33191         2.66363        -5.36284
LJ          0.801615        -3.56216        -4.72498
LJ          -2.65693         3.49594        0.946253
LJ         -0.756576         4.87296        -5.26967
LJ           4.63633         3.65986         5.72356
LJ          -1.09691        -5.54067         4.44901
LJ          -5.84336         5.63582         6.01834
LJ          -6.29507        -5.64311         -1.3481
LJ           3.48918       -0.425696     -0.00329408
LJ           4.25853          -5.917        -4.73247
LJ          -2.80378        -3.80453         5.33466
LJ          -3.44762           2.945        -5.86715
LJ          -3.01685        -4.85282         -1.9478
LJ          -4.81193        -1.78708        -5.87549
LJ          -5.82923         1.95416         3.47506
LJ          -1.55239         6.12437          5.7669
LJ          -2.11238        -3.84832         4.53843
LJ          -6.22919         1.70091         -1.2412
LJ          -2.00658        0.033653         -2.5016
LJ           1.66976         5.08997       -0.168727
LJ           3.95598         1.71145        -0.78277
LJ           3.02109        -5.60279         4.25833
LJ          0.549546        0.969699         3.80517
LJ          -2.65925        0.769419         5.50019
LJ          -3.91661        -0.94723         5.79574
LJ           3.89888         5.43177        -1.32707
LJ           5.78266         -1.6754        -4.31615
LJ           6.30043        -4.72559         3.27363
LJ           3.89921          2.2068        -4.33948
LJ          0.812682        -5.68484        -4.32987
LJ          -5.75681         1.35532         2.12898
LJ          0.481957        -6.24028       -0.616732
LJ         -0.272488        0.331094       -0.648455
LJ          -3.88128        -1.99054        -5.00626
LJ           3.51512         6.01286        0.675758
LJ            5.3413         1.56245        -1.45489
LJ          0.526108          4.0538         1.58748
LJ           5.54918          6.0126        -2.18208
LJ           5.95212         2.76849        -4.30976
LJ          0.740053         2.69431         3.66268
LJ           -3.6782        -4.43448        -5.20298
LJ          0.478699        -1.14617        -3.87498
LJ           1.15927         6.38566         4.81083
LJ         -0.762151         4.93666         2.22438
LJ           6.08416          4.9066       -0.105248
LJ          -5.81029        -1.24581        -4.70481
LJ           -3.9584         3.54383         1.94168
LJ           1.63395         -3.0288        -3.56444
LJ           2.27702       -0.944711         6.25356
LJ          0.581289        -1.88798         -5.8594
LJ           5.22812       -0.393198         -6.3914
LJ           1.64254         5.20845         -1.3492
LJ          -2.81627         5.57778        -3.04766
LJ          -5.25981         6.11724        -4.70332
LJ            2.0862         4.74127         1.54657
LJ           -5.8242         -3.1271        -1.03122
LJ          -2.30562         5.06249         5.84063
LJ          -5.68039        -5.55794        -3.40014
LJ          -2.62022        -1.23735         5.57556
LJ         -0.630403        -3.95408         -6.2425
LJ           4.51523        -4.01811         5.36291
LJ          -5.25468          1.2332        -2.78881
LJ          -4.43489         5.23488        -4.79873
LJ          -2.39522         2.78991         2.65501
LJ           3.78194        0.130188         1.58127
LJ          -3.61468        -2.18163         5.20164
LJ           4.56749         4.46416        -1.27204
LJ          -2.29347         -2.6686        -3.79009
LJ          -1.31994        0.124591        -6.43106
LJ          -3.11981         2.66088         1.34127
LJ          -6.36927         1.60568        -2.96768
LJ          -1.68341        -1.66527        -2.83306
LJ          -2.93118         2.31886        -5.02498
LJ           4.21472        -2.33052         -3.3227
LJ           4.35031          5.4266        0.181958
LJ          -2.02901          3.6807         5.72142
LJ         -0.623557        0.190621         1.35457
LJ          -4.54512        -2.15719         2.67414
LJ        -0.0251473         4.46548        -2.68779
LJ          -1.13357         1.60488         3.16193
LJ          -3.78231        0.697306        -4.76153
LJ           2.98727         2.63604        0.968877
