108
#Comment!
LJ           1.91759         1.27845         -2.5971
LJ           3.46338         3.50742        0.120908
LJ          -2.47061        -2.34733         5.18409
LJ          -2.70671        -3.68327        -2.06811
LJ           3.49237         4.48816        -3.85851
LJ           3.42575          2.6791        -5.87826
LJ           5.25915       -0.642048         3.50351
LJ           2.06732         4.83308         5.50251
LJ           4.41095        -2.18361        -2.01013
LJ          -1.62049         3.33147        -5.48899
LJ         -0.956046        -3.54738          2.9466
LJ          -5.48486         6.43838        -5.23369
LJ           4.88952         2.93187        -6.33494
LJ          -0.95531        -1.13212        -5.86524
LJ           2.61272         5.84599        -5.81804
LJ          0.495239         2.68671         4.62958
LJ            1.8722        -6.15598        -2.53615
LJ           4.43242         5.11224        -5.29179
LJ            5.9166        -5.94719         6.06664
LJ          -5.18152        -2.55209         3.17606
LJ           3.98205         2.79376         2.45006
LJ           1.09607        -1.16414        -2.13175
LJ          -6.39179        -5.24183        -2.70698
LJ          -5.22303        -2.53507        -2.41994
LJ           3.16213        0.205614         2.87297
LJ             3.504        0.233301        -3.56602
LJ         -0.587771         2.68975        -4.08305
LJ           3.27925        -0.20331       -0.630196
LJ           4.08322         -1.2282        -5.39154
LJ           3.20684         2.83536        0.900033
LJ         0.0753491         5.74546         6.21714
LJ           2.94287        -1.62727        -4.66836
LJ           5.44542         3.05741         5.54507
LJ           1.82131         5.65564         3.42133
LJ            1.3217         4.56728        -1.06798
LJ          -6.30745         4.78039         3.67139
LJ           2.29345        -6.05656        -6.21541
LJ          -2.93705         6.30167         5.36512
LJ          -5.45691        0.877125         4.26651
LJ          -1.94292         3.15051         4.34695
LJ           5.56207         2.68748        0.378652
LJ           2.49916        -1.01064        -1.02453
LJ         -0.637316         2.71762        -1.68375
LJ           -6.3219         -3.6949        -1.26371
LJ          -1.20605       0.0911312         1.38513
LJ          -2.84792         5.30282         6.27658
LJ           5.81832        -2.89822        -2.81224
LJ           4.98575        0.663099         5.70396
LJ           0.95839        -3.42893        -2.77706
LJ          -3.11335        -5.56532         1.73143
LJ           2.09813         6.34592         4.50086
LJ          -2.00338          2.9727         5.36384
LJ           4.77755        0.588044         1.60151
LJ           5.46876         5.06812         4.73396
LJ          -2.50086         2.82655        -2.93345
LJ          -3.59859        -1.79901        -6.04409
LJ          -5.54283         6.11788         6.08613
LJ            1.4337         3.99944        -6.12906
LJ          -5.14248         5.56048         -5.9247
LJ           2.78872         -3.4926         4.44895
LJ           4.41958         -3.4129        0.495577
LJ          -4.99858        -2.58078        0.778324
LJ           3.64085         6.07168        -1.02748
LJ          -2.34607         5.84151        0.796036
LJ          -6.05883         1.76483        0.447425
LJ          0.514102        -4.15363        -6.23985
LJ           3.38397         1.26752         3.14987
LJ          -4.49031       -0.170108        -4.36589
LJ          0.578616         2.92147         6.31599
LJ          -6.39446        -1.63349         2.56544
LJ           4.80108         0.73716        -4.76962
LJ           -4.4692        -1.40183        0.797428
LJ          -6.21629          2.0312         3.41353
LJ           -3.6545        -1.16703        -1.35164
LJ          -1.70879         5.66146         3.35843
LJ          -2.03354        -1.92526         1.31483
LJ          -1.25816         6.32834         2.27643
LJ           1.60998         4.70968        -2.23942
LJ           3.84306        -6.25453        -6.34814
LJ           5.78518        -4.28217        -2.81248
LJ           1.17646        -4.39443        -2.33549
LJ          0.838985         3.31239       -0.532788
LJ           5.79852       0.0755582       -0.219289
LJ          -1.36929         5.39624         5.82072
LJ         -0.119064        -2.01127       -0.442897
LJ         -0.953844        -1.05766        -1.86858
LJ           -3.8193        -3.59426         1.10176
LJ           6.25445          4.0256         -4.7212
LJ          0.219484         5.29018         1.97831
LJ          -3.38052        -2.29187        0.719017
LJ          -2.65592        -1.97724        -1.11286
LJ           2.50886        -5.50814        -2.85272
LJ          -4.95686          4.1204         4.09663
LJ          -4.62793         6.13001         5.38473
LJ           4.17921         2.26843         3.92547
LJ          -6.31058        -3.15795         2.55937
LJ          -5.62245        -2.33157         4.13598
LJ         -0.528668       -0.263586          6.2935
LJ           4.02472         5.56927        -1.78401
LJ          -4.27712         4.80566         4.72571
LJ           3.73749        -2.54925         2.97078
LJ          -6.44524          3.5069          -1.736
LJ          0.960137        -6.39531         4.84617
LJ          0.862753         2.45752         1.51984
LJ          -2.32088        -3.39682       -0.994849
LJ           5.49564        -1.73674        -2.97114
LJ           3.72216         5.09334         4.53587
LJ           5.35212         3.96405         5.01036
