108
#Comment!
LJ          -2.68297        -1.48174        -2.37426
LJ          -2.59527         -5.8089         4.48975
LJ         -0.367078         3.62276        0.752635
LJ          -1.90036        -3.82405        0.441148
LJ          0.552045         -2.4166         4.73118
LJ           3.46428        -2.05945        -6.14361
LJ           3.80796        -5.16547         5.26968
LJ           4.95737         4.21168         4.85691
LJ          -6.02154         2.81101         6.31947
LJ          -5.17295        -2.06491        -3.68445
LJ         -0.951071         2.28813        -4.25932
LJ           5.60395         5.71877         0.22315
LJ           1.67405        -6.20742         4.26936
LJ           5.67219         5.70741        -5.81371
LJ          -3.88944         5.17701        -5.36819
LJ          0.599273         4.22425         1.69662
LJ           3.17916         5.28914        -4.77121
LJ           4.89514          1.2127        -3.89527
LJ           1.35944         5.51073        -2.71024
LJ          -3.40951         3.44473        -2.11231
LJ           2.89997         -1.5563        -2.53148
LJ            3.6165         3.19461         1.28342
LJ           3.92754         1.50688          1.6409
LJ          -4.56257          4.8236         2.43038
LJ           3.52679        -4.66876        -2.53545
LJ          -5.19066        0.242723         2.88964
LJ          -3.00284         5.82223         3.77517
LJ          -3.90982        -0.72944         4.71507
LJ           1.04391          4.5009          4.5848
LJ         -0.779211         3.19195         6.43036
LJ         -0.752955        -6.31306         5.11009
LJ          -6.21197        -6.05155       -0.781075
LJ          -2.12725        -2.33699        -5.39703
LJ         -0.174564        -3.10789        -1.07487
LJ           3.60502        -5.25979        -6.42167
LJ           4.99219          5.4261         3.79485
LJ          -4.74631        -6.00644         2.58285
LJ           3.37395         1.73249        -2.55249
LJ           4.00196         2.78044        -0.78124
LJ          -2.15479        -6.39685         5.32927
LJ          -3.41031        -1.33316         2.94748
LJ          -3.30796        -1.56616        -6.30726
LJ         -0.445517       -0.310488        -4.71365
LJ          0.336418         3.72413        -5.04324
LJ          -1.53702         4.73667        -4.26071
LJ            4.8035        -5.62118         4.78956
LJ           1.75418         2.48677        -2.49529
LJ          -2.71433        0.707633        -5.04531
LJ          -1.13523         2.82179        -2.41371
LJ         -0.309935         1.28072        -5.61438
LJ           -4.8446        -2.19203       -0.215739
LJ          -2.79955          2.5511         3.13445
LJ           5.96194         4.51924         -6.3049
LJ           4.59836        -6.00617        -2.50192
LJ           1.64755        -4.58845         1.03196
LJ          -2.60279        -5.50248        -2.60322
LJ           2.27552        -2.56466        -2.87233
LJ          -1.34357        0.786909        -1.80256
LJ          -1.48549        -2.85175        -2.94923
LJ          -3.80939          3.1636         1.13797
LJ           -3.9098        -1.12144         0.22496
LJ           4.07727         5.05514        -3.95905
LJ          -3.27457         1.56437        -5.55099
LJ           3.46051       -0.049634       -0.515017
LJ          -1.33994       -0.443595         1.61798
LJ           5.67425          3.2181          3.7435
LJ         0.0886274        -4.16965        -2.35588
LJ           3.83042         -1.5935       0.0136059
LJ           5.55884        -2.52759       -0.973943
LJ         -0.602076         5.23495         4.40307
LJ          0.682731       -0.744691        -3.40347
LJ           5.95261         4.79328         2.65825
LJ          -4.04062         2.56959        -3.52279
LJ              6.19        -4.17618        -5.66175
LJ         -0.264766         5.84122        -4.27383
LJ            6.1711         1.29389         2.13545
LJ          -3.49033        -2.29719         1.91697
LJ          -6.05193        -5.65005        -5.20825
LJ          -4.17296        -2.05188        0.530939
LJ          -3.65012        -4.20051        -4.27315
LJ          -2.33107       -0.984847          5.9975
LJ           2.24418       -0.210727        0.148485
LJ          -5.99575       -0.477103         3.31519
LJ           1.41881        -1.92192        -5.21601
LJ           3.85499           3.184         2.42701
LJ           5.02712        -5.99192         2.25457
LJ          -5.63448         1.35398        -4.38959
LJ           -3.4678         3.95171         2.24594
LJ           5.04688         1.34142        -1.86216
LJ           5.95752         4.97985           4.815
LJ           1.69059         4.76192        -2.09131
LJ           3.40944         -1.9277         5.54586
LJ          -5.96822         1.92026        0.840411
LJ           6.23947        0.910141        -5.96626
LJ          -4.64301         3.37205         2.40327
LJ            1.2126           1.703         4.78555
LJ          -4.98908        -1.14894        -1.24938
LJ           4.04809         5.66678        -2.23174
LJ          0.287255         4.94944       -0.281591
LJ          -6.33049         4.50645         -2.4274
LJ           3.52267       -0.906519          6.1522
LJ          -1.21904        -2.30815        0.517317
LJ          -2.45895       -0.379944        -6.00351
LJ          -4.21091        -1.56544        -3.45998
LJ           1.75176        0.421844         4.95644
LJ          0.218457        -2.94971        -2.87433
LJ          -4.31873        0.631043         3.94428
LJ           6.16491          2.6699         4.66425
