108
#Comment!
LJ           2.60509         5.36323      -0.0994489
LJ          -3.51966         3.71107         3.99057
LJ          -2.00755        -4.99336        -1.99024
LJ         -0.582728        0.509396         5.97188
LJ         -0.968049         4.00704         3.71656
LJ          -6.35126         2.35708         4.63825
LJ          -6.38789         -3.6391        -2.26444
LJ           0.41088        0.347979          5.6715
LJ          -1.02999         4.64326        0.275236
LJ         -0.764725          1.4558        0.112467
LJ          -6.00504          4.4909       -0.761214
LJ          -1.48784         2.58465         5.64649
LJ          -5.47055         2.17107        -3.70341
LJ           1.19597         -4.5627         5.83291
LJ         0.0366876          4.1526        -6.02564
LJ           6.04384        -4.83888        -1.71236
LJ           2.82383        -4.20677        -1.53481
LJ           2.94406        0.715781          4.4557
LJ           2.82293         0.24305       -0.228892
LJ         -0.217006        -5.81066        -4.34139
LJ          -1.17292         5.15716        -4.98711
LJ          -4.68953        -1.33734       -0.303425
LJ           3.12058         1.68991        -2.48489
LJ          -3.98894         6.32109        0.246938
LJ          -2.10915         1.49877        -6.16459
LJ          -1.85131         2.66961         4.41432
LJ          -2.73912         5.85696         4.74086
LJ           1.96406        -3.02631          3.7366
LJ          0.651679          1.8327         1.39955
LJ          -2.87116         5.30393        -2.66519
LJ          -2.69124         -2.5014         2.87286
LJ           2.98123         4.13641         3.28385
LJ           6.42209         3.99146        -3.88185
LJ            6.2145        -2.77514         5.02463
LJ           5.07822         -4.1241        -3.73303
LJ           3.98865         6.22674        -4.35558
LJ           4.19274          4.9232        -3.04822
LJ          0.808909       -0.401222         1.84266
LJ          -5.33318       -0.258052        -1.90323
LJ           5.32107         3.06173        -2.78055
LJ          -1.67322        -4.30984         4.73916
LJ           -4.2043        -4.67148         3.86171
LJ         -0.249769        0.814092         1.83393
LJ          -4.91871        0.124793       -0.525058
LJ           3.61926          5.2209         1.70373
LJ           5.30356        -5.39847        -1.36019
LJ          -4.31834       -0.830737        -1.82359
LJ          -1.78188       -0.480782         3.98808
LJ         -0.692154        -2.76566        0.197879
LJ           3.88546       -0.660138        -2.11139
LJ          0.106847          5.3329         5.63369
LJ           3.88975         5.86977        -6.12408
LJ           4.41328        -1.07342      -0.0979216
LJ           3.87288         2.40703         4.46023
LJ          -4.78262         3.92339         3.53726
LJ         -0.317634        -1.28073          1.9854
LJ          -1.73595        -3.54649        0.810962
LJ          -5.44751      -0.0552283         4.99238
LJ           4.48049         2.12749          1.9014
LJ        -0.0362711         3.92843         1.14945
LJ          -4.31811         5.68613         3.67783
LJ          -3.53884        -3.21052         5.25428
LJ          -2.35062         6.07511        -3.72406
LJ           4.83729        0.988299        0.866263
LJ           1.87023         2.70016        -5.57675
LJ          -4.00181        -2.55442        -6.26574
LJ          -1.97716         1.50402        -2.68721
LJ           4.90969         5.96909        -2.74873
LJ            3.0522       -0.684253         1.02857
LJ          -5.79039        -4.95796        -5.61659
LJ          -6.20723        -1.83638        -5.73356
LJ           1.72411         4.58588         2.89484
LJ          -2.04627         4.92023         -3.4772
LJ           5.02423        -5.80927        -2.70143
LJ         -0.214511         2.69993         3.35795
LJ           2.06781         5.21531        -2.98737
LJ          -3.58547         4.17375        -4.29472
LJ          -4.09602         0.71957         4.32614
LJ          0.134928        -5.00186        -1.75882
LJ          -1.58683         3.99434         4.92047
LJ            3.2169         1.99951        -4.36267
LJ          0.424204        -1.77678         -3.3164
LJ         -0.491951         5.42223         2.29889
LJ          -1.34296        -4.06636         2.82742
LJ          -5.58979      -0.0831955         1.57625
LJ          -5.88702        -1.27207         -3.1548
LJ            1.2532         4.41393        0.756645
LJ           5.63071         1.66917         4.18402
LJ           0.94346         5.28266        0.226887
LJ           4.85755        -1.95656        -5.66831
LJ          -3.25517        -6.28185         5.77032
LJ         -0.162003       -0.657751        -5.79342
LJ           4.96469        -2.16649         5.23823
LJ          -6.36321         5.29154         0.97992
LJ           6.15894         6.25813        -3.44089
LJ          -5.66556        -5.48882        -4.11073
LJ          -1.72648         -3.1928        -2.77161
LJ           4.86863         5.34294        0.816212
LJ           2.68045        -1.83297        -3.97806
LJ           3.29796         3.10594        -1.08136
LJ           5.92986        0.506732        -4.41378
LJ          -3.78979         5.38381         2.90806
LJ          0.226074        -2.84941         3.56657
LJ            4.8154        -5.94569         5.73357
LJ            6.3474        -5.26444         4.07897
LJ           1.71767       0.0901195        0.936326
LJ           4.68876        -1.76542         -1.4264
LJ           4.47008        0.592987        -1.86474
