108
#Comment!
LJ           2.36034         -1.1091        0.208567
LJ           3.20968         2.18793         1.55284
LJ          -5.87824        0.459117        0.345407
LJ          -4.51494        -3.30941        -1.15438
LJ           2.94196         4.71222        -5.34724
LJ           2.41933         3.18625        -3.75798
LJ           3.48711         1.84318         6.39833
LJ           2.63427         2.91946         6.44339
LJ           -6.2337        -3.44899         -1.0408
LJ           -1.8564         2.52448         6.02662
LJ          -1.12938        -5.11099          4.7018
LJ           5.99001         4.20094        -2.81605
LJ           4.39487         -3.2392        -4.14854
LJ          -1.59771       -0.858737         4.99076
LJ           6.45661         -5.0219        -6.34111
LJ          0.589181       -0.350341          6.0429
LJ           -2.5934         3.68131        -1.22727
LJ           6.38544        -1.78662         3.09704
LJ          -5.38032        -4.46457         3.20876
LJ          -4.07723        -1.87723         5.06804
LJ           6.41222         2.22571         6.38844
LJ          0.441755       -0.910372        0.362952
LJ           4.48534        -5.55442         3.65582
LJ           6.26366        -1.66722         2.10769
LJ          -1.24927         2.14292         5.27994
LJ           4.66947        -3.14637        -2.98999
LJ          -1.80001         1.94542         1.34001
LJ          -6.42181       -0.742552        0.784742
LJ           4.68982        -3.76828         5.94233
LJ          0.277343         1.62725         1.02135
LJ          0.981017         6.43426         -4.0868
LJ         0.0457255         1.19424        -5.18689
LJ            6.4284         4.47095        -4.97966
LJ         0.0189519         3.45391         1.21319
LJ           2.23628         2.90478        -0.55177
LJ           3.84721          2.2117         4.71207
LJ           5.84404        -3.34413        -5.31849
LJ          -4.69432        -4.59042         5.28485
LJ           5.63092       -0.632576         4.71693
LJ          -4.67573        -4.51414         4.21749
LJ           5.93143         3.02376        -2.81688
LJ           1.93217        -4.29395        0.347499
LJ          -2.87713         1.81692        -1.38881
LJ           3.26188        -3.94746        -2.33268
LJ           -1.6451         -1.3175       0.0970014
LJ         -0.948952        0.749053         5.69952
LJ           4.56781       -0.705788         -5.6503
LJ           5.66491        0.261808        -5.82725
LJ           1.77072        -1.59089       -0.748949
LJ          -5.56204        -6.12177         2.67768
LJ           3.51917         2.32197        -5.55363
LJ          0.370651         3.32802        -5.19561
LJ          -5.83252        -1.81734         5.84901
LJ            -4.262        -6.20354         4.35058
LJ           1.41901         1.24039       -0.574377
LJ          -1.22497        0.721878        -3.98763
LJ           3.62957         4.34204        -4.79757
LJ           4.54833         2.86508        -6.41747
LJ          -5.87397         3.83082        -2.63816
LJ          0.694145         2.61794       -0.118871
LJ           4.79368        -3.59779        -1.20256
LJ            2.7886         5.37724         2.99794
LJ          -5.35563        -5.42036        -1.45578
LJ           5.32077         3.12088        -1.79288
LJ            4.5744         2.52483        -4.75004
LJ          -1.19415       -0.539813          2.5971
LJ           1.64338         1.64704         3.77282
LJ          -5.88321          -1.092        -3.55479
LJ          -1.43801         1.97491        -4.15946
LJ          -2.71135        0.577191         4.67038
LJ           5.39692        -4.27146        -4.35253
LJ          -2.91258        -1.79172        0.662491
LJ          -5.69763         4.40563         3.26332
LJ          -4.68344        -2.45907         2.45679
LJ          -2.61902        -4.26626        -6.34033
LJ           -4.7381       -0.154326         1.02749
LJ         -0.034459        -5.38737        -0.46995
LJ           2.45907         1.30986        -5.90422
LJ          -6.44842        -4.04417        -5.72955
LJ           3.88822         5.19615        -2.05239
LJ           3.08461        -4.59959       -0.618456
LJ         -0.117252         1.15675         2.00198
LJ          -5.19981         1.42189         6.18607
LJ          -1.79295         5.12209        -2.53727
LJ           -1.3116        -2.10411        -0.50341
LJ          -3.32069        0.101458        -1.37853
LJ          -4.57321        -3.32446         1.74017
LJ           1.17087         1.76285        -3.30094
LJ         -0.436016         5.85303         4.03823
LJ           -5.2343        -1.90481        0.140566
LJ            -4.058        -1.42519        0.394797
LJ           3.61838         6.07865        -2.86194
LJ          -2.77851         3.54087         1.15988
LJ          -3.22776         5.34335         5.00226
LJ          -5.08857         2.04103         3.41908
LJ           4.69743        -3.88917         2.07977
LJ          -2.97349       -0.818304         5.50884
LJ         -0.486457        -1.32688        -6.29672
LJ          -6.19697         3.75116        -4.25795
LJ          -2.68815         1.23757         1.86242
LJ           3.30127        -4.01604         1.49203
LJ          -5.70577        -3.46737         1.15862
LJ           1.66626        0.966425         4.75201
LJ           5.91436        -0.67731        -3.19836
LJ           -1.3177        -3.29847        0.183118
LJ           4.74768           -1.78        -5.65564
LJ            2.4238         5.05117          4.9168
LJ           2.80533          2.6278            5.24
