108
#Comment!
LJ           4.75767        -5.79154        -5.82418
LJ          0.578223         3.79225         2.87005
LJ         -0.333137        -3.17123        -1.91633
LJ          -2.36711        -5.02519        -1.75419
LJ           3.97572         6.19018        -2.83879
LJ          -2.26456        -1.88625        -4.34161
LJ          -3.33403         -2.4839        -2.90208
LJ           4.41633         -1.9514        -6.29745
LJ         0.0801056         2.05415         2.03828
LJ           1.00427         2.40937         5.33643
LJ          -2.88455        0.213684        -4.87041
LJ           5.27757        0.359508         4.75424
LJ            3.0868        -5.53058        -4.37729
LJ          -2.55888         3.04082        -1.96662
LJ          -5.04626       -0.131028          -4.253
LJ           6.17943        -4.08996        -4.57481
LJ           3.07771         4.09139       -0.315796
LJ          -2.61106        -4.63541        -6.25449
LJ          -3.98638          6.2897         -6.2393
LJ           3.38361        -4.35862       -0.834401
LJ           3.30663        -4.89438         3.84625
LJ           3.19864         5.67547         4.08652
LJ           2.17977         1.67793        -4.14971
LJ           4.06228        -1.77968        -2.41893
LJ         -0.665688         6.16455        -4.94781
LJ           1.66642        -5.45146        -4.24144
LJ         -0.771413         3.11889         2.88254
LJ           6.29414        -2.03673        -3.78462
LJ           1.77875         5.86979        -4.44907
LJ           5.01464         2.14257        -4.55997
LJ           1.15792         -3.1776        -4.55693
LJ           -6.3836        -3.03817        -2.99825
LJ           3.74285         2.66636         5.42042
LJ           2.77611        -6.22104        -5.98559
LJ           2.42454        0.565135        0.539599
LJ          -3.25019        0.562284         5.59761
LJ          -4.79565         4.33659          -2.995
LJ          -2.04209        -1.03298        -2.93763
LJ           6.29908        -6.10156        -4.63156
LJ          -4.36244        -2.83162        -3.02827
LJ          -5.59862         6.27428        -4.32882
LJ          -2.73284         4.99722         2.30976
LJ          -2.11658        -2.21989         4.14511
LJ           0.92679        -2.39592          -0.765
LJ          -1.49881         1.58817        -1.70386
LJ           4.55385         5.09076         4.17533
LJ           2.30874        -4.32586       -0.998349
LJ          -4.15004        -3.59274        -4.49067
LJ         -0.144839         2.72571        -2.00499
LJ         -0.377069            2.11       -0.247834
LJ          -1.69853         -6.3336         2.05971
LJ          -1.84844        -5.37406          2.9183
LJ          -3.50019         2.04665         1.55698
LJ          0.787144        -5.74324        -2.14206
LJ           5.18281        -5.04695        -3.69606
LJ          0.788294         3.04514        -2.32341
LJ           1.94423        -6.38172         3.93455
LJ           3.17861        -0.15523        -5.97625
LJ           1.05629         4.64559       0.0835061
LJ          -4.73628         -6.4385       -0.975832
LJ          0.335824          2.8812         2.47561
LJ          -3.47461        -2.35684        -5.31094
LJ          -3.96132         2.72074        -1.20213
LJ           2.56401        -3.99972          4.8361
LJ          0.900887        -5.49285         3.20016
LJ           3.43456        -3.71106         3.91159
LJ          -2.45655        0.415436          -1.389
LJ          -2.95625        0.869438         1.81316
LJ          -0.27647        -5.15197        -3.41786
LJ          -2.99098         2.42824       -0.826823
LJ           0.35812          4.4082        -3.95881
LJ           5.98866         4.07052         3.32515
LJ          -2.18263         2.99668        -4.78708
LJ          -6.11005        -2.69072        0.189824
LJ          0.958569       -0.281308         6.29326
LJ          0.315392        -4.80877         5.34154
LJ           1.24621         5.70868        -2.71154
LJ          -5.54894        -6.01876         1.16444
LJ          -4.49415        -1.30003        -4.03709
LJ          0.230403        -1.86471         2.60211
LJ          -2.86749         4.69335          6.1504
LJ         -0.112765        -5.15547         3.89821
LJ           2.56015         -3.3063        -3.36521
LJ           5.84237         3.64172        -5.86922
LJ          -4.37952         4.84211       -0.469941
LJ          -2.09523        -4.34202         2.51391
LJ          -1.02231        -5.28295         3.60571
LJ          -5.81942        -2.22785        -2.50015
LJ           -3.9381        0.115972         1.67018
LJ            1.3709         3.38079        0.661803
LJ           4.27923        -6.00493        -2.30186
LJ           4.34516         3.06555        -4.45638
LJ          -2.21349        0.416105        0.205473
LJ           1.65882        -4.22835         5.51949
LJ           1.29845        -4.49451        -5.30742
LJ          -3.60594         4.53137        -1.66657
LJ          -3.58044         5.17419         3.44739
LJ           2.58887         3.53973         5.16313
LJ           5.30624         6.18373        -5.28361
LJ           2.93467        0.312364         1.50843
LJ          -5.10542        -2.22249        -3.90188
LJ           2.32504        -1.72675        -5.28054
LJ         -0.784518        -2.53324         3.94009
LJ            1.9282        -3.43259         5.98744
LJ          -1.08717        -3.69941         3.94396
LJ         0.0259804        -6.07044         2.46789
LJ         -0.481909         5.05847        -4.54666
LJ           4.56958        -6.31171         6.08033
