108
#Comment!
LJ          -3.85989        -3.11461        -5.34035
LJ          0.920535        -6.31805        -6.38918
LJ          0.533189         4.21825          1.3631
LJ            0.3409        -2.57563       -0.629403
LJ          -2.78067       -0.163113         6.44012
LJ          -1.26097        -6.10572          6.3319
LJ          -3.35425          5.1262        -3.40927
LJ           -4.9491         1.42019         6.13187
LJ           0.69646       -0.503653         5.08754
LJ          -3.05623         4.86988         5.89632
LJ           4.38751        0.433743        -5.59091
LJ          -2.65763         3.62175        -0.38369
LJ           5.62161         4.29565         5.19403
LJ          -1.71741        -3.97363        -2.89078
LJ           -3.9282         3.48463         5.87792
LJ           2.49906         5.08991        -3.28577
LJ          -2.72229        -4.18477       -0.165102
LJ           3.95702       -0.273936          2.5593
LJ           3.10822        -3.19992         5.51584
LJ             -4.88        -2.09453         1.80505
LJ           6.42732         3.54724         1.99765
LJ          -3.41269        -4.47275        -5.56519
LJ          -2.02146        -4.41793         1.45541
LJ          -6.06371        -4.01248        -5.68864
LJ          -5.73021        -2.15446        -4.41996
LJ          0.555332        -4.05135         -6.1215
LJ          -1.26256        -2.77186        -5.67754
LJ           3.70298         4.87316         1.94181
LJ          -3.12624        0.408854       -0.649537
LJ          -6.10425        -1.86978         -1.2122
LJ          -2.18497         4.20132         1.79788
LJ         -0.353559         -2.6271         -3.0899
LJ           4.31303          3.6555        -4.02058
LJ          0.272166         2.70273         4.72286
LJ          0.187325        -5.90768        0.678744
LJ           6.36169        0.520258        -3.63811
LJ           2.96562        -6.16069         5.60826
LJ          -4.70356         2.83893       -0.178906
LJ          -0.15186        0.130928        -5.25976
LJ          0.727158         2.09485         2.72523
LJ           3.75579         3.58961        -5.22138
LJ           6.23963        0.978272        -5.29979
LJ           -4.8864        -6.18247        0.472999
LJ          -3.14309        0.821126         5.46657
LJ           2.48604         -5.8109        -4.42875
LJ          -2.66022        -3.71459        -3.14359
LJ           5.15307         -5.3824        -5.57464
LJ           1.30288        -4.37732         5.42979
LJ           5.85122        -5.17874        -2.06723
LJ           2.96646         4.28852         -4.3147
LJ           1.95588        -2.48913         3.23402
LJ           2.20232         5.64757         5.22875
LJ          -2.14577          2.0594        -2.58868
LJ           2.97141         -6.1428        -2.29416
LJ         -0.354231         1.64031         2.28145
LJ           5.98582        -3.82859         2.52192
LJ            1.9089         -3.2837       0.0871664
LJ          -1.10092        -3.07915        -4.68118
LJ          -4.18615        0.524931         4.57836
LJ          0.456678        -4.31708        -3.27737
LJ          -2.87606        -5.23954         4.94173
LJ           4.72143         2.92027        -2.48865
LJ          0.819473         6.26124         3.44611
LJ           -5.4334         1.88621        0.152637
LJ         -0.605165        0.319666        -3.73882
LJ          -1.98898        -1.35217        -4.19986
LJ          -5.25804        -4.19888        -1.07617
LJ           3.88629        -4.01542        -3.11825
LJ          -5.88135         2.82391         3.97751
LJ          -3.63053          3.7276       -0.583828
LJ           4.65478         1.00199        -6.32879
LJ          -4.28089         3.23041        -1.40059
LJ           3.12764        -1.41354         1.69081
LJ          -2.82931         5.71285        -4.07648
LJ           2.52558         -3.7503        -3.27301
LJ          -4.94607        -4.28069         3.97883
LJ           2.41665        -3.30991        -6.21106
LJ           3.83128         5.15293        -2.88232
LJ          0.156628       -0.115781         3.18644
LJ           4.90939         2.80081         5.27786
LJ          0.866883         3.39459        -6.30815
LJ          -5.60604         1.79026         4.89577
LJ          -5.94389       -0.143701        -3.09845
LJ          0.412043         2.43008         5.83981
LJ          -4.02929        -4.41286        -1.96597
LJ          -5.43428         3.61549        -1.02733
LJ           2.45489         2.30308        -4.46118
LJ           1.19445         2.12681         4.38637
LJ          -1.72346        -1.73575       -0.970507
LJ           -2.3466        -6.01059         -5.8659
LJ             2.718        -4.45062         1.08758
LJ          -6.18018        -1.50651        -5.54546
LJ          0.352748        -5.17956        -1.57835
LJ           2.16029        -2.81105        -3.68041
LJ          0.148656        -5.95816         1.58981
LJ        -0.0812435         1.66615        -5.85566
LJ           1.92609        -5.03483         5.90465
LJ          -1.42996         5.50639        0.199155
LJ           1.41603         -5.6783        -1.22747
LJ          -2.71723         4.78758        -2.66755
LJ         -0.656461         4.04408        -5.76443
LJ          -4.61365        -3.92379        -5.77181
LJ           4.88721         -5.0846        -1.46622
LJ          -2.46679        -1.32949         4.19214
LJ           5.28728         3.06754         2.22589
LJ          -3.80506        -6.40065        -3.61802
LJ           2.46293        -4.64399        -1.01877
LJ           6.43278         5.33481        -3.71439
