108
#Comment!
LJ          0.767524        -2.82486         4.25187
LJ           2.83585        -5.86701         4.61985
LJ          0.161714         2.99466         -3.1012
LJ          -1.13264         1.34453        -4.28279
LJ           5.71993         3.43972         2.02993
LJ          -3.57533         1.46294        -2.97833
LJ          -6.13294         3.77966        -4.70901
LJ           4.77821         2.73061         2.63427
LJ           5.68468         4.49505        -3.20149
LJ           4.60737         2.97697         5.43623
LJ            3.8379        0.562155         2.39064
LJ          -4.28897         5.17014         4.90007
LJ          -5.92911         2.01415       -0.432504
LJ          -2.66038         3.90768         1.68785
LJ           3.66347        -4.43881       -0.744547
LJ          -4.93782         4.30913         -2.9208
LJ           5.83299        -1.67046         2.25467
LJ           1.48322        -2.22833        -1.32192
LJ           3.47207         5.17217        -3.54207
LJ           4.64768        0.256412          5.1054
LJ          -1.18673         3.41375        0.504437
LJ           2.40452          1.9792        -2.05108
LJ          -4.38721        0.468265        -6.13513
LJ           2.19571        -6.21356         3.68833
LJ          -3.88933         1.32564        -1.86497
LJ           5.28996        -3.10376         -2.1373
LJ          -5.78682         3.19873         5.18969
LJ          -1.52883        -2.00286        -4.40777
LJ           4.46536         5.24884          5.4072
LJ          0.276799         2.00421         3.35759
LJ          -3.13526        -2.35541        -2.89954
LJ           5.14069         5.03655         3.14145
LJ           4.83268        -5.48933         1.91036
LJ          -3.82898        -1.60856        0.586413
LJ           2.20661         -5.0252         -3.5396
LJ          0.745729         1.82365         4.90002
LJ          -2.06087        -6.14105       -0.106325
LJ           6.21641         5.67109         5.57737
LJ          -5.44287         5.06844         2.00218
LJ          -2.40546        -2.76174        -1.85591
LJ            4.5744        -4.50515        -4.59564
LJ           3.81819        -2.16698        -4.50681
LJ          -1.68827        -1.54683        -6.01938
LJ         -0.728085        0.695241        -1.77281
LJ           3.91248         5.96525         4.84226
LJ        -0.0436428         3.28451         5.50475
LJ           -3.9461         2.67218         2.28046
LJ          -6.03745       -0.329715          3.2416
LJ           -5.4426       -0.596299        -1.06937
LJ          0.236085         1.33854        -3.94348
LJ           5.32798         1.29352        -1.08869
LJ            2.2292        0.137648        -6.20398
LJ           1.48116         5.56658         3.30397
LJ           -1.0088     -0.00936215         6.01074
LJ           -4.2545        -5.75336         2.47306
LJ           4.04219        -5.76819          4.3687
LJ         -0.627223         2.36083        -5.88762
LJ          -4.50702     0.000499031         3.51546
LJ           2.97272         2.52245        -6.44036
LJ         -0.627648        -5.79938         5.05256
LJ          -4.46357          4.6939       -0.332305
LJ          -3.22769         3.73759        -1.61251
LJ          -5.22158        -2.40299        -4.05166
LJ            3.9933       -0.166494        0.816991
LJ           1.07853         0.36115         6.07904
LJ           5.79484        -4.74209        -1.19425
LJ          -3.60173         1.73873         5.07105
LJ          -5.98387      -0.0378726         -5.7829
LJ          -5.22905        -1.34227         3.64671
LJ           5.77221         4.19378         -1.2823
LJ           5.57336        0.245183         3.81227
LJ          -4.62529        -6.16463         3.71852
LJ          0.697671        -4.59424        -4.44964
LJ         -0.637472         6.17208         4.29448
LJ          -1.20951         5.19548        -2.20644
LJ          0.209897           3.842         -4.5915
LJ          -3.91736         3.87295         1.91625
LJ            0.1685         4.35058        -6.27922
LJ           2.01761        -6.19931        -4.81284
LJ          0.801774        -4.35812        -1.79148
LJ          -4.59279          2.2117        -5.42274
LJ            4.1264        -2.38191        -3.59857
LJ           5.21565         3.02861      -0.0695435
LJ          -3.94364        -1.15238        -5.70705
LJ          -3.06099        0.425182         4.98729
LJ          -2.31833         3.93549         6.26835
LJ          -5.07856        -1.20036         5.26803
LJ          -5.89048         3.61266        -1.86734
LJ           3.08525          4.5351        -6.39522
LJ           3.80754        -6.37828        -5.34705
LJ          0.377394        -3.58337        -2.79972
LJ            4.6279         4.79273        -2.19936
LJ            2.6806          1.3025       0.0919713
LJ          -4.83542        -4.81268         1.55886
LJ           5.65762         3.10817         6.11192
LJ           2.79197          5.0288        0.335937
LJ          -3.83079        -2.87482        -2.47853
LJ           2.62804         -3.5386       -0.801975
LJ           2.13695        -3.94025         1.47906
LJ           6.29353         4.26044        -3.89923
LJ           5.32674         5.38525          6.1994
LJ            -6.432        -1.01387       -0.368644
LJ          -4.98812         3.80245         3.05038
LJ          0.749933        -4.29371        -5.55629
LJ           2.51102         3.82169         -5.4361
LJ         -0.513778          5.4669         1.83195
LJ           2.82496       -0.478696        -1.21916
LJ            1.3671         5.61332         6.42711
