108
#Comment!
LJ          -1.65526        -2.37058        -1.40129
LJ          0.245842         -1.4089        -4.38643
LJ           2.04277         1.65212        -1.86615
LJ           4.03385        -6.03851      -0.0693473
LJ          -6.45208        -2.00945        -4.41578
LJ          -6.21252        -3.09784         -3.6402
LJ           3.72092         2.95446        -4.04234
LJ          -2.45307         3.74568        -5.50475
LJ          -1.38392        -1.50937        -4.72692
LJ           5.86375         1.96519         4.78283
LJ           3.80007        -1.45392         1.72913
LJ           1.04974         3.91829        -2.37379
LJ           5.24327       -0.256849        0.260708
LJ         -0.780053        -3.27103        -4.45387
LJ           5.61021         4.73893         2.79017
LJ            3.8446        0.810218        -2.95057
LJ          -4.56792        -6.30136        0.141813
LJ         -0.090061         4.41195         5.94157
LJ          -0.37333       -0.168768         3.01337
LJ           4.06046         3.23982         1.85172
LJ          -3.87408        -3.99714         4.50225
LJ         -0.673591         6.28955         5.11251
LJ           1.39172         5.80625         3.40715
LJ         -0.765873        0.515914        -1.49798
LJ          -4.49961         5.94753        -1.44896
LJ          -0.32877        -2.29543         4.20209
LJ          -2.68343         6.10512        -3.39716
LJ          0.908271        -3.33765         1.77635
LJ          -5.26961        -2.63471         2.99289
LJ           4.68992        -5.30228        -4.69837
LJ           3.78848        -2.33686        -2.15423
LJ           5.30375       -0.846236         6.11259
LJ           -4.5031         1.60117        -3.48134
LJ           2.27583         5.13695        0.439319
LJ           1.43496       -0.122867        -2.65778
LJ          -3.30145        -1.45332         5.34665
LJ           3.03015        -3.35333        0.314311
LJ           2.24556         3.32309        -3.61179
LJ           1.40509         3.15337        -4.49716
LJ           5.52102         1.27337        -4.55956
LJ         -0.634979         3.60019         5.83993
LJ          0.741713        0.879303         5.73495
LJ           2.46577         -1.7558        -2.59061
LJ           2.99256        -2.48093         6.07758
LJ           1.42033        -6.06009         5.22888
LJ          -2.65644         4.73614         -1.6605
LJ          -2.34019        -5.97754         5.00254
LJ           5.22576       -0.309061       -0.896863
LJ          -3.23119         6.28543          1.5793
LJ           2.10248         5.40961        -1.59303
LJ          -6.06504        -3.00164        -1.19528
LJ          -4.61126        0.630158         -6.1008
LJ           3.84364         5.87044        -4.06895
LJ           5.58114        -3.91031        -2.76378
LJ          -1.46061         2.64907         2.24933
LJ           3.92806        -4.44917        -1.92937
LJ          -5.82105         3.74736         2.39683
LJ           -3.7834       -0.317518        -4.18056
LJ          -5.41734        -3.88769         5.91248
LJ          -5.12186         4.69954         3.09468
LJ           6.17276        -3.94322        0.909847
LJ           1.64023        -4.87692        -4.79996
LJ           1.61662       -0.951995         5.51222
LJ           3.56335        -2.41235         1.70597
LJ          -6.29769        -2.59842         5.10194
LJ          -0.59095        -5.16334         6.28757
LJ            3.8537        -2.59378       0.0392778
LJ           2.77863       -0.528099         5.49807
LJ          -4.11148        -1.39065        -4.61156
LJ           3.34763         4.21486        -4.59839
LJ          -3.46249         4.91777         2.25338
LJ           -2.9975        -5.48237         3.08308
LJ          -6.11548         0.87475         5.42713
LJ         -0.436667        -4.61318         3.30185
LJ         -0.700842         -3.4592         4.23516
LJ            2.2287        -3.40791        -3.47288
LJ          -3.93855        -2.99594         3.18686
LJ           5.77706        -4.75491         5.30895
LJ          -3.61162         -3.3461         5.97163
LJ          -5.78888        -1.67301         6.06884
LJ          -3.97217        -5.24719         2.79793
LJ          -3.52124         6.37673        -3.02251
LJ           2.63666         2.22038         3.31493
LJ           5.49841         4.72174         1.75487
LJ          -6.45486       -0.205765          2.5276
LJ          -5.43261        -5.79415        -6.37187
LJ          0.425817         -5.7709        -5.06457
LJ          -4.63475         2.94985        -1.68575
LJ          -4.91561        0.111048         4.70704
LJ           6.17115        -1.19993        -1.80765
LJ          -5.84344        -4.25191        -3.12104
LJ           3.39614        -4.19997        -4.64467
LJ          -2.38776         5.36081        -6.33837
LJ          -4.89029         5.91235         5.34725
LJ          -2.60011        0.987413       -0.739301
LJ          -2.94126         -5.0919         1.27023
LJ           5.86596       -0.576422          5.0776
LJ           2.94993         1.95476        -4.35682
LJ          -5.70154         3.42132        -3.85305
LJ          -2.29613        -6.29104         2.43141
LJ           5.34451         3.56039        -4.53791
LJ           -4.2943       -0.871945         3.71098
LJ           6.17706         2.47281        -4.02268
LJ           4.37883        -2.56763        -4.23816
LJ          -6.09495         5.84023        -4.05401
LJ         -0.789437         3.52706        -3.42665
LJ          -2.81794         2.49142         1.51381
LJ          0.454485         4.61963         -1.1425
