108
#Comment!
LJ           3.28709         3.72092         -2.9489
LJ           3.95429        -1.69691       -0.140254
LJ          -2.37087        0.890377         2.03551
LJ            -3.363         2.33494        -4.96966
LJ          -6.31671          -3.813          5.5203
LJ         -0.991727         4.44229        0.789863
LJ           1.96763         4.80823        -2.60236
LJ           2.45865         2.16239        -1.11763
LJ           -2.1604        -5.30405        -2.49204
LJ           5.05494         3.14921      -0.0428843
LJ           5.03811         1.86404        -4.65036
LJ           5.90972         4.83353        -1.87482
LJ           6.41386        0.578343        -2.24388
LJ           1.18293         1.38631         4.94833
LJ          0.556838         2.30927         3.46338
LJ           4.89842       -0.650474        -5.29619
LJ           6.05122         2.65748        0.942195
LJ           5.35736         4.49084         5.00076
LJ          -3.79793          3.6392        -4.72995
LJ          -4.55566        -1.46819        -4.19804
LJ          -1.23489        -3.56834         4.13743
LJ          -4.68074        -3.67986        -5.62403
LJ          0.205879        -1.35711         3.28909
LJ           4.80026         1.32466       -0.805294
LJ          -4.41803         5.48237        -2.03608
LJ          -1.97193        -5.20596         1.51881
LJ           -1.0673         4.02206         4.23543
LJ          -2.66005        -3.57085        -0.96638
LJ          -5.43048         4.91124        -3.94015
LJ         -0.758978        -1.83896          3.9517
LJ           4.89984        -4.39751        -2.88672
LJ          -5.10789        0.871255         4.19279
LJ          -2.78771         3.93131        -2.58301
LJ          0.910376        -5.68468         4.03533
LJ          -0.93462        -5.76901        -1.65633
LJ          -1.73641        -5.90337         3.91223
LJ           2.48975         4.72863        0.242744
LJ           1.89055         1.15831         5.85623
LJ           2.89877       -0.880005         5.81472
LJ         -0.983569        0.179375       -0.372826
LJ          -3.75184        -3.83307        -1.76163
LJ          -5.36662         0.20143         -3.2611
LJ           4.11479         4.63563         4.23144
LJ          -3.08079        -5.79053        -4.79732
LJ           6.25738         6.33866         0.98437
LJ         -0.391479       -0.291179         6.26046
LJ           2.79875         1.33983          3.6132
LJ           2.02471        -2.14269         2.32975
LJ           0.41686       -0.323297         1.37517
LJ           4.47315         -5.9131        -1.82293
LJ         -0.311677         -5.9595         6.21277
LJ           5.03651         4.77566        -4.38829
LJ          0.592075        -0.28847       -0.656706
LJ          -5.82705         4.63474       -0.949202
LJ          -0.92778        -3.84916        -6.14445
LJ           1.44486        -5.71794        -2.09627
LJ          0.551889         4.52725       -0.312939
LJ          -3.88664         2.92776        -5.66696
LJ           6.24131         5.31462        -3.50934
LJ           2.49902        -2.40088        0.379263
LJ         -0.031245         5.42322       -0.868426
LJ            4.0514         4.23517         1.22898
LJ           1.47585        -6.35894        -3.14697
LJ          -1.73419         4.77631        -6.08215
LJ          0.511593         6.02485         4.59942
LJ           2.17454        -3.97941        -5.91962
LJ         -0.851861       -0.606504         5.26983
LJ          -6.19924         4.96527        -6.34503
LJ           3.34034        -5.00488        -3.54234
LJ           2.28092        -4.47076         4.61778
LJ          -2.73373        -4.42789        -2.19547
LJ          -5.35921        -3.82659         4.96325
LJ           4.68819         6.32948         3.42362
LJ           4.28376         4.43168        -2.63588
LJ           5.46004        -6.21357        -1.23889
LJ           6.42087         2.08096         3.37076
LJ           3.31431         -3.4839         6.38789
LJ          -2.30631         4.59294         4.70147
LJ            6.1677         -2.4475       -0.289153
LJ           1.35725        -2.33796        -6.02535
LJ           2.62041        -1.51222         4.02934
LJ           5.36179        -1.61901         5.10744
LJ         -0.790708         2.32054        -6.38323
LJ           3.25793        -4.05519        -5.44677
LJ         -0.321759         2.42191        -2.68521
LJ          -4.32397        -4.84999         5.69079
LJ          -1.19765         3.66446         3.13003
LJ            4.2157        -5.30316         1.80896
LJ           1.27936       -0.422094         2.02763
LJ           5.02415        -1.00798       0.0233303
LJ           4.11853       -0.844155         2.44002
LJ         -0.182149         3.94279        -4.64043
LJ          -5.74081       -0.978472        -2.30469
LJ           3.85841         5.74573          3.3182
LJ          -5.81288        -3.43511        -1.93619
LJ          0.642776       -0.894509         4.53168
LJ           1.98252         6.12024         3.46248
LJ          -1.04607        -2.67987         4.62973
LJ          -2.84909       -0.069463         6.29207
LJ          -5.62511        -2.37126        -1.90148
LJ          -6.23493        -6.24292       -0.909462
LJ          -3.07767        -1.92952         6.32405
LJ          -5.71901          2.5474         2.88743
LJ          -2.94325         3.46697        -5.81107
LJ          0.152798         4.80385        -4.11594
LJ          -1.50245         5.87292        -2.13397
LJ           3.51185        -3.74729        0.249352
LJ           1.85766        -4.21552      -0.0750753
