108
#Comment!
LJ           -4.7168        -1.57777        -6.10534
LJ          -3.34268         3.09966        -1.92273
LJ          -2.15656        -5.37162         5.73362
LJ            2.8766         2.46857        -3.73264
LJ          -2.19678        -4.87863        -2.51132
LJ           4.67638         5.43094         4.17078
LJ           2.03939         3.56523         2.98635
LJ           4.94657        -2.90339         -6.3382
LJ           2.29834        -1.44733         4.30978
LJ            2.9589        -4.08565        -2.09046
LJ          0.689028         -2.5866          3.3222
LJ           4.46404        0.409834         -1.2651
LJ           5.49629        -3.99208         2.96551
LJ         -0.685293        -2.87246          1.7063
LJ          0.661118         2.61209        -2.42223
LJ          0.656488        -3.42763         2.67084
LJ          -6.07303        -5.47457        0.451572
LJ          -2.88188         1.29367         5.62824
LJ           1.80994         3.85014         5.85059
LJ          0.392128         1.41778       -0.768622
LJ           2.73926        -1.33418         5.45908
LJ          -1.62508         1.08819        -5.41087
LJ           5.69106         1.23127         1.01434
LJ          -5.52533       -0.481079         6.41587
LJ           3.59487        -2.68596        -2.85556
LJ           2.23602         6.33222       -0.189299
LJ          0.606939         4.10923         4.87594
LJ           1.72603         3.04962        -5.85236
LJ           3.31883        -5.39824         5.27661
LJ           3.54437         2.86596       -0.168812
LJ           -4.6266        -4.88062        -2.14761
LJ           2.42769        -4.02358         5.25652
LJ           5.40639        -3.74365       -0.093202
LJ          -6.32705        -6.26832         1.29462
LJ           0.66522         5.16036        -6.18355
LJ           1.55775         6.17695        -1.25474
LJ          0.767543        -4.62667          6.4182
LJ          -3.45364         1.52541         -2.4615
LJ           4.77716        -3.85712         5.27751
LJ          -2.47103        -1.80365         6.43267
LJ          -3.71722        -5.84711         5.55232
LJ          -6.38081         1.34392         2.64806
LJ           3.09403        -2.01665        -4.39491
LJ           1.23169        -3.40968         5.61396
LJ          -4.21073        0.326209        -1.54226
LJ          -2.97134        -5.49645        -4.29788
LJ          -4.51768         5.49533        -5.58773
LJ          -2.88779        -1.84534        0.904824
LJ          0.266921         6.20852        -1.04717
LJ           2.17424        0.808063         6.19234
LJ          -1.08478       -0.281428         4.87393
LJ           2.12991        -4.38166        -4.09578
LJ              3.37          1.6319         1.26998
LJ          -1.86197         5.78562         3.77319
LJ          -3.05835         3.81298       -0.772939
LJ          -2.76064        -1.55034         4.71373
LJ          -2.88866        -4.61439         4.66245
LJ          -2.33178        -1.99428         -2.7727
LJ          0.268906        -5.36726        -3.30273
LJ          0.940872          4.7307         3.80315
LJ          -4.91247         3.98165        0.491633
LJ           3.68507        -3.05082       -0.808092
LJ          -4.23766         4.49469         3.10208
LJ          -2.68974       -0.106013        -3.49851
LJ          -3.56731        -2.39124        -4.32498
LJ          -3.45381         1.55209         0.19159
LJ          -3.82072        -3.05989         2.48117
LJ          -5.13288         5.19171         2.05363
LJ           5.39231         0.99962       -0.128032
LJ          -5.04486         3.58898        -1.99726
LJ          -2.45282        0.652049         4.91303
LJ           -5.2441         5.11774       -0.508064
LJ          -6.32737        -3.20327       -0.227788
LJ           3.54098        -1.98277        -1.08047
LJ            -3.472         -2.7891        0.510777
LJ          -2.50158        -4.40692        -3.83417
LJ           6.32123       -0.539396         3.57625
LJ           3.71386        -4.25623       -0.894731
LJ          -2.37538         2.71664        -1.71132
LJ           5.02599        0.703383         3.11121
LJ           1.56182        -1.24334        -1.33264
LJ           5.29243         2.79931          3.6678
LJ          0.115913         2.33865         4.03138
LJ          -3.35754        -3.12548        -5.65147
LJ          -3.72644         2.27361        -1.02542
LJ           6.26916          4.3159         1.50419
LJ           1.18869       -0.315611         6.16301
LJ          -1.15793         5.68824        -1.21867
LJ           4.30914         1.24261        -5.95127
LJ           3.07258          -3.064          1.9752
LJ          -6.02349        -6.29086         5.44538
LJ          -5.75775        -1.57832        -5.55114
LJ         -0.923532         2.79721          -2.796
LJ           2.83042        -3.78687       -0.429789
LJ          0.525236         5.67858         4.05294
LJ           3.12808        0.226865       -0.419367
LJ          -3.84915         6.26161         4.97582
LJ          -2.25664         5.31406         1.83743
LJ          -5.50476        -5.64542         6.15186
LJ           2.10552         2.85718         5.78851
LJ          -3.73049       -0.057764         6.17824
LJ          -3.22114        0.573461        -4.11253
LJ          0.218715       -0.625793        0.502871
LJ          -4.08496         1.40578        -4.14037
LJ          0.356426        -1.46648         -1.0543
LJ         -0.745047       -0.389573       -0.444537
LJ          -1.03123        -1.26774          3.9798
LJ          -2.70943         2.30335        -2.65158
