108
#Comment!
LJ          -1.94425       -0.622905         4.02125
LJ           5.82034       -0.849771         1.75495
LJ             4.245        -1.40747        -2.51166
LJ          -3.34862         3.37588        0.845375
LJ           4.98585        -3.31423         2.93046
LJ          0.546688         0.72444         3.89721
LJ           1.34477         2.27145         5.86322
LJ          -5.56353         4.12198         -2.0292
LJ          -1.72492         4.20426        -2.45387
LJ           1.62677         2.03032         -6.0911
LJ           5.88532         1.62029         1.23559
LJ           4.21452        -2.45416         1.86373
LJ          -2.77593        -2.11077        0.296724
LJ          0.590273        -6.18061         -4.5308
LJ           5.74338        -4.08054        -3.91192
LJ           1.71357        -1.30781         -3.0415
LJ           2.79939       -0.232059        -2.52327
LJ          -5.00079         5.66024        -1.34288
LJ          0.222609       -0.616893          4.1924
LJ           3.95953         1.88607        -6.38333
LJ          -1.28961         3.41504        -1.37724
LJ          -3.19504        -6.07046        -1.33223
LJ          -5.60427       -0.187929        -3.32831
LJ           4.72731        -4.11288         5.65118
LJ          0.800048         5.64614        -4.67411
LJ         -0.184891        -5.76075         4.35614
LJ           4.20028        -2.98488        -4.92501
LJ          -5.94763        0.479006        -4.62147
LJ           1.30006         2.17683         1.02611
LJ           5.27738         3.45527         1.82097
LJ           -3.2112        -5.28978       -0.570081
LJ           2.77166        -1.60804        -1.29971
LJ           2.73068         3.59137        -2.62525
LJ           2.07001         4.83506        -3.70138
LJ          0.475497        0.392526         5.90409
LJ           3.34219        -3.55012        -1.05014
LJ           3.12838         4.87377        -1.73413
LJ           6.22851        0.157882        -3.34724
LJ          -6.20317       -0.477126         4.35469
LJ          -4.30323        -2.43133        -2.00033
LJ           -1.9911        -4.82388        -5.07126
LJ           5.16266        -3.16276        -4.25664
LJ         -0.626289         4.79703         1.05888
LJ           2.86322        0.492508        -0.58873
LJ          -6.19179         5.42139         6.14485
LJ          -5.64781       -0.208821        -1.12075
LJ           2.45752        -3.54429         4.64239
LJ           -5.3248        -6.43537         -2.4684
LJ          -5.06196        -5.63976        -3.48053
LJ          -3.61018         4.49612        -1.76511
LJ             -1.31        -1.25909        -1.16295
LJ          -4.64189        -4.87917        -1.02087
LJ            3.3635         2.47699        -2.04391
LJ           2.62612         1.80632       -0.663222
LJ          0.510216        -3.35546       -0.979298
LJ           5.87113        -3.77302         5.83198
LJ          -4.26264         5.56482         3.86523
LJ          -0.26416         2.87558        -2.83434
LJ          -2.47881        -5.79749        0.603327
LJ           4.59643         1.49974        0.286245
LJ           5.06664        -6.35533        -3.37495
LJ           -4.4308        -6.07849         5.21296
LJ           1.75954        0.215719        -4.61834
LJ         -0.973351         2.32764       -0.884962
LJ          -2.15261        -5.93168         3.19206
LJ          -2.74967        -1.64936         3.36748
LJ           4.82441         4.13613        0.712032
LJ            4.6638        -3.26453          4.4975
LJ           -1.2969         1.14718       -0.858785
LJ          -2.94144         2.35284        -1.91217
LJ           4.74743        -1.24157        -4.91439
LJ          -1.11851         4.41818       -0.824199
LJ         -0.943156         1.85769         0.32736
LJ          -2.40998        -5.17199        -3.94479
LJ           5.70294          3.9696        -1.65022
LJ          -4.29738         1.96177        -6.10733
LJ          -6.30162         1.08087         2.01777
LJ           2.05214        -1.42576         2.08464
LJ           4.89523         2.12686         1.02565
LJ           2.46624         5.58067       -0.334375
LJ           3.54728         4.26962        -3.27942
LJ          -5.23169         4.03507        -5.37211
LJ           1.89182         3.34102        -2.94335
LJ           2.14913         5.92255        -5.95308
LJ           1.83988          2.4998         3.02326
LJ            5.4824         2.64554        -4.83944
LJ            -4.471       -0.891713        -4.93884
LJ           4.29051        0.343734        -5.89611
LJ           5.94782        -1.16201         3.89615
LJ           3.36192         4.94013      -0.0474144
LJ           4.72676          1.1474         2.13224
LJ          0.559789        -5.96547        -2.22324
LJ          -3.19914        -6.13367        -4.54376
LJ           5.68281         -6.2793       -0.967966
LJ           5.07959         5.77338        -0.11352
LJ           -4.3463         6.45757        -6.30635
LJ           5.90283         3.58421       -0.276111
LJ           4.98225         3.06108        -2.07431
LJ           4.97678         1.37991        -5.09732
LJ           5.79144         5.73609         4.57283
LJ         0.0762701        -2.43435         5.40422
LJ          -3.76044        -3.09837         6.13491
LJ          -5.34626       -0.363049          2.0815
LJ           4.82818         1.39588         4.91352
LJ          0.936242        -3.49108         4.41338
LJ          -5.19295        -5.10498        -2.24295
LJ          -2.62697         5.33016        -6.23185
LJ           5.03189         2.77844      0.00810392
