108
#Comment!
LJ           3.90912          6.0172        -2.17956
LJ          -5.15856         6.12721        0.551552
LJ           1.81088         1.59322        -4.10194
LJ          -1.38841         4.32768         4.68027
LJ            3.0698        -1.50695        -5.48872
LJ         -0.711777        0.101472         3.61862
LJ          -2.45068        -6.41776         -6.0821
LJ         -0.463626       -0.955984        -5.46357
LJ           4.95548         3.58966         5.99788
LJ          -4.66506        -3.69386        -2.15942
LJ          -4.45102       -0.887669        -1.94655
LJ           5.78306          1.5149        0.706183
LJ          -3.49253        -3.16942         5.71368
LJ          -2.32435        -1.83524         5.85068
LJ          -1.71871         3.81911        -1.12782
LJ          -3.89302          4.7051         3.83671
LJ          -6.10701         0.44356        -3.13661
LJ          -6.39435        0.236099       -0.846329
LJ          -1.58001         4.45204        0.300313
LJ           5.04313         1.23566         1.81423
LJ          -1.93355         6.03647        -4.43376
LJ          -1.95458        0.263558         2.79027
LJ         -0.247944        -5.43146        -4.93077
LJ           5.28485        -3.23253          -3.634
LJ          -5.22222         2.91904        -2.01592
LJ          -0.48588        -4.38539        -4.08436
LJ          -5.28002        -1.70731          4.0668
LJ         -0.853008         3.75791        -4.15706
LJ           -3.4742       -0.585043        -0.51513
LJ          -2.73808         2.32948          5.4286
LJ           5.58989         5.67744         -6.3853
LJ          -1.25407        -1.67139         3.19884
LJ           5.96726        0.104106        -3.72531
LJ            4.5818         3.14841        -3.05286
LJ          -4.13123        -2.98322        -5.90847
LJ           4.34466         4.13141         4.97438
LJ           5.33918         2.96593        -2.37736
LJ          -4.22482       -0.136944         2.24685
LJ          -5.96956        -5.35241        -5.58001
LJ           3.50176        -2.93793         1.22008
LJ           5.53361         0.36166        -5.35754
LJ          -0.18655          4.0401         2.04093
LJ          -2.35059        -4.27929         6.11543
LJ          -3.37951       -0.606443        -1.41678
LJ           -5.7877         -6.0038        -3.62125
LJ           3.03952         4.07067         3.36186
LJ            3.9034        -2.38953        -5.30476
LJ          -2.39601       -0.880442        -4.42416
LJ           5.16458        -4.18446        -3.18924
LJ           2.93917         3.75512         -1.0483
LJ           -4.3987        -6.10631        -2.93956
LJ           3.00972         4.83612        -3.44659
LJ           6.45685        -4.23616        0.383807
LJ          0.121091         2.31316        0.447962
LJ          -3.26725        -1.88659         3.29396
LJ           2.72114        -2.09961         -2.6699
LJ           1.60263        -4.84259        -1.01184
LJ          -1.34353        -1.33455         5.35398
LJ          -4.51503         5.21609        -3.04052
LJ          -6.04546         2.86781        -3.38952
LJ           4.57403        -2.23779         1.82986
LJ         -0.389819         3.69006        0.141868
LJ         -0.201431        -3.08276       -0.924478
LJ           5.56019        0.969183         5.11121
LJ          -1.96158         1.77675         3.41321
LJ          -3.21632         5.78078        -6.06335
LJ          -3.17918        -1.18027        0.598939
LJ          -6.21294         1.93927         5.52755
LJ           2.52723        -5.70398        -4.01328
LJ          -1.77186        -2.82262        -5.70908
LJ          -3.16274       -0.294606         3.87131
LJ           4.44646         1.03918         5.80065
LJ         -0.491194         0.95796         3.12384
LJ          -1.11333        -2.44407        -4.40444
LJ           -6.1809         1.86587        -2.16215
LJ          -2.24636         -5.9379        -3.35543
LJ          -4.13901        -2.90629        -3.11259
LJ          -5.42307         2.81985          5.2015
LJ          -3.30649          3.6101         5.41527
LJ          -5.70609        -4.06991         -5.1256
LJ         -0.993305         5.19228       -0.169275
LJ          0.980464         1.02656         5.85722
LJ           2.34048        -1.48291        0.932218
LJ          -5.30266        0.653892        -3.86499
LJ           1.76214        -2.36955         5.55419
LJ          -3.49022          2.1396       -0.895304
LJ           2.18423          6.2798         3.00986
LJ           1.45096         -3.0891         4.51405
LJ         -0.944127        -4.51361        -0.97751
LJ          -2.14753        -5.95124       -0.509784
LJ           3.16027        0.363578        0.226742
LJ           3.60526         1.19395         3.53628
LJ           3.82847         5.10136         3.80943
LJ           4.47755         1.94542         3.42443
LJ           -2.4589         -3.1503         1.86027
LJ           -1.1815        -4.54787        -4.93784
LJ           3.99731        -3.65949         -1.6975
LJ          -2.71869         4.44644         1.05442
LJ           4.96271         3.88139        -5.60264
LJ           3.85758         5.01331        -2.24723
LJ          -3.46194        0.531589         2.84566
LJ          -1.09646        -3.98654         -3.1639
LJ          -1.72182        -4.15367         -5.8112
LJ           3.06496         4.82386         4.62319
LJ           2.90963        -4.10076       -0.538674
LJ           -2.1651        -1.34249        0.336487
LJ           2.77306        -3.48787         4.61752
LJ           -2.2922        -1.74352       -0.605132
