108
#Comment!
LJ          -1.04203        -5.45171        0.224245
LJ           4.98257        -5.69045        0.717725
LJ           1.45277         4.75629        -4.73374
LJ          -6.28726        -2.77098        0.260652
LJ          -1.23455         3.94771         3.84247
LJ           4.26293        0.318089        -4.66651
LJ          -3.77658         5.62136        -5.08013
LJ           3.85203        -5.88914        0.391983
LJ           3.27469        -5.60826        -2.50583
LJ          -3.97077         2.33705         4.54391
LJ          -2.13206        -5.46873        -4.14581
LJ           4.51936        -5.76432        -3.95702
LJ           2.73673        -2.27859         2.53073
LJ          -3.03306         -6.0169        -2.02861
LJ          -3.02739        0.698289         3.62639
LJ           4.80387        -2.57248         1.98297
LJ           -4.3151         1.12419        -3.92391
LJ           6.19907        -1.21742        -3.22881
LJ           2.65298        -3.30804         2.11633
LJ         -0.868175        -4.38749         2.92907
LJ           1.48069        -6.18453        -5.76248
LJ         -0.757203        -5.97561         2.67972
LJ           3.68047         1.30136         4.62361
LJ          -2.18186        0.168524         5.91675
LJ         -0.385741        -3.27837           3.326
LJ           1.23414         5.79522         1.54964
LJ            1.9061         5.55194         6.01817
LJ          -5.99464         5.38938         5.91192
LJ          -2.26636          1.2908         -6.1203
LJ          -3.89204        -3.22261          6.4402
LJ           1.08646        -3.39159        -6.17174
LJ           1.31311        -5.37226        0.217884
LJ          -2.58998         3.17309         2.66676
LJ           5.72789         3.26441         1.19039
LJ          -3.65656         4.28578         4.24149
LJ          0.734107         5.13124        0.163377
LJ          -6.27197         5.86315       -0.474963
LJ           4.12376        -4.42555        -2.01052
LJ           5.20105         3.29452         2.20071
LJ           5.11022        -4.01313        -2.93759
LJ           5.83157         2.29118        -4.15074
LJ          -3.24079         6.37882        -3.18705
LJ            3.9149        -3.13369        -1.03507
LJ          -3.13178        -1.39242        -6.20603
LJ           2.89752        -6.01032        0.894176
LJ           -1.1912         5.65807        0.775025
LJ           5.22649         5.83417         1.93521
LJ           3.91897       -0.736423        -6.19213
LJ           4.40762         1.83614        -4.91629
LJ          0.666135        -1.44612         6.38391
LJ         -0.100999       -0.433612        0.741386
LJ          -1.13544        -2.60684          3.3389
LJ           6.01988        0.999364        -4.15313
LJ          -5.51625         5.99271        -2.40061
LJ          -2.61283         1.46263         1.29156
LJ           6.38301        0.143816         -3.0234
LJ          -3.30871        -4.61967       -0.588447
LJ          -1.15911         4.53093        0.148235
LJ           3.65796          1.7398         5.67247
LJ           -3.7919        -0.92986         2.24027
LJ           6.43242        -3.35538          -3.125
LJ          -3.52092         4.33872         1.06474
LJ          0.996919         -1.3833        -3.02184
LJ          -4.03725        -5.73107        -4.87174
LJ             4.036          2.4251         5.00207
LJ          -3.20856         -2.5428         4.08369
LJ           1.49238         1.61103        -3.12883
LJ           6.04536      -0.0209195        -6.14601
LJ          -1.83776        -3.50165          2.5397
LJ          -5.02318        -1.00846          1.8324
LJ        -0.0736667        -6.34856         5.31531
LJ          -3.14805       -0.654775         1.45397
LJ           2.96747        -6.08493        -5.62335
LJ           6.16952         6.32551         2.15953
LJ          -3.06019         3.41217         1.62337
LJ           2.29401         4.07409         4.90665
LJ           -2.3311         3.68022        -4.91261
LJ          -2.85526        -1.53398        -2.88579
LJ         -0.280636         2.52095        -2.41206
LJ         -0.795496         5.39141        -1.31291
LJ            3.8958        -2.51839        0.186191
LJ           -4.2399        -4.89744        -3.48823
LJ          -4.45312        -4.74564         -5.0589
LJ           2.64998           6.139        -3.88899
LJ           2.13627        -4.68066         2.54934
LJ          0.821718         1.98851        -4.56082
LJ         -0.461029         1.41777        -1.49355
LJ          -1.55597        -5.38424          1.8999
LJ           3.03006         2.75967        -6.33945
LJ        -0.0387761          1.6557       -0.439823
LJ           4.29041        -2.28544        -2.41192
LJ          0.721476         5.47202         3.66843
LJ           6.38549         3.47842          -5.145
LJ          -2.54907         4.79242        -3.18439
LJ         -0.031272          3.4592        -4.03775
LJ            5.5426        -5.83019        -5.86962
LJ          -1.84342        -2.02148        0.633592
LJ           3.00153        -1.98115        -5.69241
LJ          -4.24052         3.02766         3.74504
LJ           2.83026       -0.436984       -0.879579
LJ           0.53555       -0.727923         1.99492
LJ         -0.255096         3.81578        0.096027
LJ          0.823045         2.36662         2.52168
LJ          -3.39386        0.902097        -6.41581
LJ            2.3704         4.61314        -5.57992
LJ           3.61251          -4.411        -3.25161
LJ          -4.32988       0.0317189        -3.06344
LJ          -2.74969         1.62679         2.56336
