108
#Comment!
LJ          -3.69252         3.08172          1.0105
LJ           1.00638         1.35995        -2.70079
LJ          -6.26358        -5.88795         -1.4466
LJ         -0.406715        -6.06913         5.61152
LJ          -5.18144         6.22509        -5.31859
LJ           1.30725         3.71314        -2.68007
LJ          0.205963        -5.53052        -6.27273
LJ         -0.629565         5.38943         -2.3837
LJ          -1.50636         5.14529        0.542884
LJ          -5.07217         6.34003         5.49086
LJ          -3.25469         5.99677         6.31394
LJ           1.45252         5.67136        0.422264
LJ           5.16302        -1.61088         -4.6721
LJ          -4.65311        -2.18794        0.836089
LJ           6.23844        -5.89899        -5.28581
LJ          0.815599        -3.06297        -2.79256
LJ          0.950876       -0.558579         4.26839
LJ           -5.0668        -5.60454         4.27244
LJ          -4.32768       -0.669785       -0.594904
LJ            6.3038         -3.1682        -2.37249
LJ           -2.8574         3.47052        -3.42101
LJ           3.90578         1.50026         3.97782
LJ           -5.5042        -2.72142        -2.48457
LJ          -5.00349        -4.13923       -0.672941
LJ          -4.14952         5.84564        0.155966
LJ          0.118187        -2.32749         3.68861
LJ           2.66897          3.5306         2.93694
LJ             2.673        -4.72836        -3.87742
LJ           4.58455         2.96819        -2.30248
LJ          -2.85965        -2.08465         1.04705
LJ          -3.05839        -4.52614       -0.631501
LJ          -2.55457        -4.19309          4.4346
LJ          -6.23269       -0.250686        -5.46639
LJ          -1.67207         3.46374      -0.0222172
LJ           1.47715          4.8453        -5.70575
LJ          -0.65957        -5.49888      -0.0649498
LJ          -3.77651        -2.61038       -0.294182
LJ          -4.92737         5.28239        -4.12347
LJ          -4.70084        -5.49943        -1.62129
LJ           6.12662         5.83752        -1.61978
LJ          -3.68933         4.67146         4.88652
LJ          -2.87522         3.36352        -2.15119
LJ           2.56699         1.56618        0.459957
LJ          0.786644        -5.36799         2.03889
LJ           5.86032         5.51676         4.60473
LJ          -0.37761        -5.15438         3.49738
LJ          0.167027         2.90572        -3.28814
LJ          0.918472        -2.67507         1.72146
LJ          0.405574         4.50429        -4.43851
LJ          -1.55392        0.406579       -0.134385
LJ           5.32487        -2.90181         4.29709
LJ          -4.64939         4.12234        -4.08222
LJ          0.243968         4.71753        -1.20819
LJ          -4.21158         1.81164         3.29242
LJ         -0.893517         2.34667        0.652424
LJ         -0.463115       -0.326142         5.33343
LJ          -1.17792        -6.27987        -4.59984
LJ            5.8813        0.590647        -2.97212
LJ           -3.5264        -2.99456         2.25731
LJ          -4.26534        -2.36535         5.30807
LJ           5.90673         3.43918          2.2004
LJ          -3.12348         1.30563        -3.05492
LJ          -4.89064         1.15306        0.285668
LJ          -6.38949        -5.22187          1.2103
LJ           2.63463         5.90135       -0.335829
LJ            3.4593       -0.828437        -5.72205
LJ          -0.13408        -3.51046        -2.34029
LJ          -2.75374        -1.05719        0.602073
LJ           4.71132        0.174078        -4.03309
LJ           -5.7378          3.2922        -1.74856
LJ            3.7147         5.55488        -3.48502
LJ          -5.21041        -1.81279        -5.52913
LJ          -3.60311         5.38091        -2.91593
LJ          -4.70965        -4.88099         6.30226
LJ           4.63896        -1.35707        -5.52522
LJ          -3.02134        -3.63872           5.966
LJ          -4.52387        0.313649         -2.4896
LJ         -0.232339          3.0895        -4.92263
LJ          -3.81284         2.03421         -2.6128
LJ           1.29157        -3.04149        -1.66569
LJ          -1.76966        -3.10093         1.50947
LJ           1.75123        -3.54232        -4.00557
LJ           1.79008        -5.16385         2.05318
LJ         0.0417635         5.16955         1.14182
LJ          -3.35097        -3.04098        -6.23427
LJ          -4.05998           4.091        -1.76928
LJ           4.50276         5.21437         5.06568
LJ           -5.1092         5.43877         3.56735
LJ           1.17447        -4.77185        0.266174
LJ         -0.236585         1.75383        -3.64241
LJ           -1.5417        -5.21477        -4.71708
LJ           5.78112        -4.18266         -5.3063
LJ           5.25221        -6.26928         3.30526
LJ          -6.22326        -1.00577        -4.53368
LJ           6.29617           1.239        -5.93104
LJ           -5.0274        -6.10502         2.66316
LJ           4.01016        -4.94393        -2.68035
LJ          -4.55879         1.91353        -1.59963
LJ          -3.95119         1.95886       -0.919719
LJ           1.59634         3.45506         1.18222
LJ          -3.35467        0.103511        -1.64088
LJ            3.6101         5.49015        -4.79267
LJ          -1.32466        -5.33866        -1.68363
LJ          0.874591        -1.28711        -5.21372
LJ           3.37086        0.412102        -2.19342
LJ           1.81041        -5.47585        0.732793
LJ          -1.85499         4.89866        -1.04025
LJ          -5.82067         4.54238         2.11039
