108
#Comment!
LJ           3.76102        -3.14869           6.325
LJ          -5.15284          1.7304         1.27477
LJ            3.3985            1.01        -3.31262
LJ          -1.28019         3.19521        -4.76629
LJ          -1.75181         2.07848         3.63155
LJ           4.33554         3.52468       -0.721512
LJ          -3.20543        -6.25637         1.27259
LJ           6.06126        -4.41986         5.67341
LJ           6.00704        0.681805        -4.17583
LJ          -3.98556        -2.48327        -3.49919
LJ           5.48787          3.6311        0.960846
LJ           1.61905        -4.63616         5.91793
LJ          -2.32239        -1.96371         4.87885
LJ           6.34539        -1.48848         2.17039
LJ            6.0573         1.67001        -4.44755
LJ         -0.835706         2.00231        -3.52781
LJ          -3.82148        -1.45562        0.264689
LJ          -3.65868         5.29046         4.97915
LJ          -5.87203         3.72326        0.564491
LJ          -1.75232         3.52991       0.0171007
LJ           1.29133        -3.51169        -4.83942
LJ          -3.17503        -5.33763        -3.73664
LJ           4.06906         -1.5578       -0.155005
LJ          -5.68999        -5.50295         2.29748
LJ          -2.76202         3.50722        -4.64948
LJ          -2.77281         1.62232         4.65371
LJ           -3.5058         1.18816        -6.05232
LJ          -5.63219        -5.06246       -0.509488
LJ          -1.68414        -1.69265       -0.573822
LJ           5.17509         2.52583         3.29932
LJ           5.55289        -4.20173        0.612986
LJ          -1.73113       -0.392751        -1.13759
LJ         -0.852725        -5.53985        0.137028
LJ          -2.35483         3.30207         2.56978
LJ           1.59398         4.20667        -3.06478
LJ           5.76325         5.00182        -2.12277
LJ           5.27746          5.8412         6.29284
LJ           6.20832        -3.18772         1.65586
LJ           4.72944         4.14755        -1.92802
LJ         -0.876567        -4.75587        0.905798
LJ          -5.79124        -1.12251       -0.260047
LJ          -2.87178       -0.400089        -1.66728
LJ           5.61297        -3.25283         2.97397
LJ         -0.906232        0.858552        -1.60967
LJ          -1.39677         1.13439         6.11269
LJ          -5.17858        -2.03995        0.298288
LJ          -3.14341        -2.29035         6.26999
LJ           4.28619         2.96144         4.76125
LJ          -1.21004          5.2146         3.31506
LJ          -5.96212         -5.8858         5.06782
LJ           6.44121         4.77668       -0.213892
LJ          -6.23661        0.237058        0.475259
LJ          -3.53367         1.84713        -1.07237
LJ           4.90127        0.645468        -4.37381
LJ           2.06151         3.93703        -5.00697
LJ          -0.94544        -6.09233         4.64113
LJ           3.58125         4.27872        0.916965
LJ           2.93979         6.21062         5.94362
LJ          -1.16902        -1.45829        0.460341
LJ           4.96906         4.78003          4.3814
LJ           2.68791         1.43045        -1.46356
LJ           3.15944         4.45989         5.98202
LJ           4.81223          2.3062         2.02842
LJ          -1.88681         4.72408        0.808799
LJ           5.28405        0.886313       -0.523074
LJ          -5.63364         3.88251         3.24163
LJ           5.09181         -2.9589        -1.76597
LJ           3.74891        -3.09802        -4.58054
LJ           -3.5319         4.33459        -1.33691
LJ           4.25761         4.02829         3.98404
LJ          -4.52133       -0.545943        -5.49709
LJ           1.75242        0.187239         1.41988
LJ          -2.86915         3.38605       -0.499173
LJ          0.860254        -5.56671         0.63881
LJ          -2.65133        0.985569        -5.09361
LJ           4.65838          5.6603         3.63342
LJ           3.39637         3.48695         3.19917
LJ          -6.26641          -3.936         2.51011
LJ          -2.44781        -1.60845        -2.38626
LJ           2.05539        -3.48069        -1.62806
LJ           2.38841         4.89688        -5.72515
LJ          -3.67716         5.66692        -1.13298
LJ          0.321005         3.57042        0.724929
LJ           2.27718         3.17423         1.71813
LJ           4.27639        -1.79307        -5.94632
LJ           5.83044        -5.75406         5.16704
LJ          -5.01957          4.7922        0.542971
LJ          -3.79088        -1.93987        -5.89152
LJ          -3.68777        -4.94612        0.034923
LJ          -2.99124        -3.95073          2.8521
LJ          -2.60768         1.70843        0.917627
LJ           2.42423      -0.0538837        -5.71944
LJ           3.54913       0.0603841        -3.73287
LJ          0.545885         5.80622        -4.89524
LJ          -5.55518         5.65534         -2.8502
LJ          -3.62084         0.70559        0.945038
LJ          -4.56962         2.32687         2.71351
LJ           6.19205         2.83072          3.7147
LJ          -5.04834        -6.38038        -2.03484
LJ           4.70957        -2.92101        0.299065
LJ          -5.19487         6.30163        -3.99166
LJ          -1.44378       -0.669311        -2.46426
LJ           4.36559        -4.96031        -5.25586
LJ           6.22382        -1.54793        -3.47588
LJ           5.03122        -2.45472        -6.21303
LJ          -6.22853       -0.123905         -0.8476
LJ          -6.32756        -3.54015        -6.06482
LJ           1.06515        -4.37919        0.930551
