108
#Comment!
LJ           5.75242        -4.84843        -4.91501
LJ           1.73022         4.75158        -6.05466
LJ          -3.04102         3.91907         2.60932
LJ          -4.28226        -5.58604        -5.87809
LJ         -0.364639        -4.22057         -4.3781
LJ           1.96942        -2.11988         2.75199
LJ          -4.65115        0.534799        -6.20509
LJ           5.11104         2.56168        -1.38213
LJ          -4.61317        -4.21036         5.25273
LJ           1.44766        -3.52168        0.254642
LJ          -6.38428        -1.60982        -5.42104
LJ          -3.66262        -4.93829         5.99715
LJ          -4.45232        -1.11723        -2.12456
LJ          0.597305         2.67991         -1.6521
LJ            4.3731         2.71893         5.76582
LJ          -3.63055        -6.19907        -2.68717
LJ          -6.38213        -5.96676        -5.47583
LJ          -5.13467         4.02048         6.38489
LJ          -6.08253         6.40541         3.29413
LJ          0.837039          -4.436        0.284952
LJ           2.62832        -2.29099         3.72404
LJ            1.4021         2.37141        -3.01382
LJ          -2.64561       -0.752379       -0.383606
LJ          -1.59033         5.30316        -1.45992
LJ          -4.54703        0.832795        -4.79825
LJ          0.938883        -3.29648        -5.12444
LJ           2.42233         1.05488        -2.81923
LJ            5.8207         4.25608       0.0133798
LJ           1.60693        -5.69256         3.70297
LJ          0.584225        -1.59551         5.98802
LJ           5.37329         5.23313         5.23803
LJ           -3.9052        -4.08608        0.645111
LJ           4.78227         1.53719         1.76357
LJ          -3.93764         4.75174         6.05658
LJ           6.28418        -6.23957       -0.539553
LJ           1.59898        -2.40599        -2.51087
LJ         -0.814135        -5.81092         1.53859
LJ          -2.44368        -4.42267        0.963555
LJ           2.17917         3.49299        -1.83484
LJ          -3.51192         2.96886         -1.3008
LJ          -1.63102         4.93932        -4.69561
LJ           2.86717        -1.26699        -1.10326
LJ           1.21374        -4.27521        -0.77766
LJ           -4.1131        -2.13232        -2.89469
LJ          -1.22976        -3.22494         4.54366
LJ         -0.694117         1.30861        -4.88289
LJ          -5.92885        -3.23942        -4.27578
LJ           1.99072        -4.28246         1.02808
LJ          -1.41723        -3.55692        -2.68144
LJ           -5.6645       -0.288138         5.40683
LJ           -5.9532       -0.907945        -6.26851
LJ           2.60121         3.33952         4.33763
LJ           5.96796        -3.82229         5.34656
LJ          -4.35464        -3.76808         6.25446
LJ           5.98011        -1.73654         1.05641
LJ          -4.49352        -5.53558       -0.953758
LJ         -0.416254         4.15107        -1.06806
LJ          0.419804        -5.55428        0.161024
LJ          -4.12345        -4.87208        -1.67547
LJ           4.69263         5.74299        -5.75574
LJ           4.74518          1.2983         4.82618
LJ          -6.41403         6.15422        0.364448
LJ           6.08521       -0.242819         4.89073
LJ           1.27313         3.57471         6.44063
LJ          0.151329        0.972065         3.17964
LJ         -0.688831         3.06462         3.92429
LJ           -1.6509        0.118555        -5.63261
LJ           2.14196        -1.96802          5.9121
LJ          -6.29833         6.27303        -6.25559
LJ          -1.56195        -2.89717         1.61777
LJ          -3.83687        -5.73922        0.472398
LJ           6.19892        -1.63726         5.42698
LJ          -5.15804        -4.88398         1.93045
LJ           5.81418        -2.17302         3.51695
LJ           2.34379        -4.37452        -2.31786
LJ           2.53598         3.78655         5.60874
LJ           5.90049        -4.57741         2.69447
LJ          -3.99566        -4.51009         1.99405
LJ          -5.79864        -2.78158        -5.78882
LJ           6.41107        -4.87759         3.77371
LJ          -1.33444        -1.01325        -3.22651
LJ          -2.27277          2.4815         5.88317
LJ           1.16508        -3.48204        -6.15084
LJ          0.857154         3.17843         4.79022
LJ         -0.633708         4.02538        0.122823
LJ          -3.01257        -3.00866         5.27791
LJ          -2.88089         3.98596        0.318928
LJ          -3.51641        -4.38949        -5.77341
LJ           1.84419         1.70387         1.99252
LJ           5.34059         6.05389       -0.340782
LJ           2.49561        -1.03106         1.41466
LJ           5.42728         2.45297         5.29933
LJ         -0.746096         -3.6371         1.18372
LJ          -1.79918        -4.44428         3.82578
LJ           3.76703         1.89454        -1.15436
LJ          -5.64566         6.45495        -3.07517
LJ           6.16514         2.58021        -1.35897
LJ          -2.21773        -1.45956          -2.453
LJ           1.37696        0.201121        -3.62969
LJ          0.170601         5.92166         3.00773
LJ          -4.64342        -5.49896         -2.2951
LJ          -4.42724        -6.02158         6.03253
LJ          -3.85357        0.382625          4.4555
LJ           3.09311         1.02901        -4.25967
LJ           1.91642         3.46521       -0.838101
LJ           3.70095          6.4577           1.045
LJ          -3.54364        -6.30761        -1.40619
LJ          0.342319         3.21911         6.28357
