108
#Comment!
LJ          -5.56164        -5.86448        -5.45044
LJ           1.01912         5.48568         6.37376
LJ          -5.63737         3.62597         1.66174
LJ          -4.20553        -4.89306         5.37271
LJ         0.0141459        -6.36283        -6.33512
LJ           1.43692        -2.06216         3.93888
LJ          -4.98214         1.30158        -5.08465
LJ           3.70529         2.74533         -2.1703
LJ          -3.75553        -3.91416         5.16796
LJ           2.27487        -3.84935        0.525463
LJ          -5.70455        -2.16859          5.7325
LJ          -2.38285        -5.55065        -6.33114
LJ          -3.72741        0.163847       -0.326379
LJ           1.14552         2.45476        -1.01861
LJ           4.42645         3.07317         4.90971
LJ          -3.50271        -5.29658        -2.67583
LJ          -4.93743        -4.80662        -6.33748
LJ          -4.00231         3.96253        -5.50481
LJ          -3.63342        -6.45236         3.14575
LJ         -0.644985        -3.08459       -0.507269
LJ           2.59752        -1.74729         3.95104
LJ           2.45567         1.06048        -2.67961
LJ          -2.37632        0.951201        -2.25049
LJ         -0.520878          4.2875        -2.46091
LJ          -5.09369         2.25826        -4.61409
LJ           2.29286        -2.15293        -4.99194
LJ          0.992438        0.398725        -2.55574
LJ          -6.18259         5.19029       -0.191792
LJ         -0.540363        -5.80595         2.25527
LJ          0.595316       -0.890293         5.62733
LJ          -4.94243        -6.16433         5.24166
LJ           -5.2329          -3.716         1.56902
LJ           5.53034         1.75627         1.58005
LJ           -4.5792         4.62751         5.98159
LJ          -5.91994        -5.46107        -2.42863
LJ            3.1971        -2.14484        -1.02676
LJ          0.842932         5.50944         1.49187
LJ           -2.7351         -2.4106         0.47962
LJ           1.45618         2.96365        -1.84319
LJ          -2.69382         2.54912        -2.17803
LJ          -2.87165         6.09965        -6.08573
LJ            3.5676        -2.57737      -0.0744766
LJ            1.9824         6.31077        -1.68519
LJ          -3.66072        -2.47156        -3.30941
LJ          -1.51628        -1.24874         3.81464
LJ           0.24249         2.15675        -5.02705
LJ           6.08598         -5.2963        -3.64978
LJ           3.04605        -3.24125         1.10079
LJ          -0.18121        -3.12364        -3.60202
LJ           5.99868         1.75036         5.34687
LJ           4.85732       -0.133731         6.27484
LJ          0.289887         4.46981         4.89982
LJ           5.57486        -5.49858         6.28634
LJ           -2.9598        -3.59919         5.85675
LJ          -5.99751        -2.67192          1.5866
LJ          -4.17909        -5.28331       -0.282564
LJ          0.443363         2.98222        -2.01625
LJ         -0.284088        -4.94005         -2.2452
LJ           -4.1684        -3.91226          -1.567
LJ           6.39123         6.39404        -5.33165
LJ           5.02804         2.30132         5.58937
LJ           6.02876         6.31353        0.688928
LJ           5.51189        0.298146         4.44405
LJ           1.85387         3.73859        -6.42161
LJ           1.88428       -0.684655         3.39684
LJ         -0.556766         4.81339         3.71024
LJ           -3.0166      -0.0277334        -4.63506
LJ           1.68876        -2.08458         5.85089
LJ           5.27253         5.83747        -6.39832
LJ          -2.93315        -2.67273          1.9543
LJ           -4.8535        -5.73591         2.47118
LJ          -3.27034        -2.19728          5.1487
LJ          -5.59812        -5.65315         1.36644
LJ           3.66045        -3.13884         2.49928
LJ           3.11219        -5.04334        -1.74366
LJ           3.77941         4.66655         4.94976
LJ           5.77629        -4.74002         1.15877
LJ          -3.83136         -3.2467         1.66468
LJ          -4.73427        -2.16671        -5.93486
LJ           5.34467          -5.064         2.91754
LJ          0.623505         1.32482        -2.09756
LJ          -4.51027         3.02746         4.95936
LJ          0.698267        -3.99632         6.32464
LJ          -1.03963         3.16985         5.05202
LJ          -1.27895         4.59227       -0.936429
LJ         -0.159323        -2.03304         6.31119
LJ           -1.4472         4.01111        0.730594
LJ          -4.44647        -3.78863        -5.49442
LJ           1.06987         2.12184          2.7875
LJ           5.08208        -5.70072        -2.70757
LJ           -1.1155        0.179266        0.184661
LJ           6.22406         4.07339          6.1128
LJ          -2.97677        -3.99103         2.26884
LJ          -2.78484        -5.52167         5.16149
LJ           3.70442         1.90146        -1.33134
LJ          -4.93888         5.66459        -3.45862
LJ          -6.31167         2.67876       -0.465875
LJ          -1.18084        -2.74024        -2.19824
LJ           1.57915       -0.554146        -3.82181
LJ         -0.644477          5.7244         4.32664
LJ          -4.13511        -6.28498        -3.19152
LJ          -2.75277         6.29643         5.49889
LJ          -4.28496        0.290159         4.20052
LJ            2.5734        0.998218        -4.22473
LJ           2.33058         4.24958       -0.703379
LJ           3.40121        -6.28855         2.09221
LJ          -3.13765        -6.06379       -0.149338
LJ           0.46787          2.0033         5.51193
