108
#Comment!
LJ           2.89614         5.70791       -0.186508
LJ          -4.11783          3.2702         4.10557
LJ          -1.77842        -4.37115        -1.57933
LJ         -0.719492         0.84784         6.09562
LJ         -0.608462         4.39589         4.22568
LJ          -5.84475         2.49412         4.52379
LJ          -6.20083        -4.12377        -1.75537
LJ           0.41027        0.262741         5.52382
LJ         -0.958755         5.01856        0.898339
LJ          -0.80641         1.18116        0.221745
LJ          -6.27334         3.53777       -0.549193
LJ           -1.0746         2.86605         5.33341
LJ          -5.21908         1.70586        -4.47461
LJ          0.967098        -4.36446          6.3353
LJ          0.118978         4.14454         -5.4159
LJ          -6.37547        -5.37466        -2.22161
LJ            2.9965        -3.91269        -1.55082
LJ           3.80501     -0.00455187         4.31243
LJ           2.33236        0.474378       -0.417344
LJ          0.316009        -5.79785        -4.13994
LJ          -1.18646         5.01618        -5.04998
LJ          -4.31774        -1.59418       -0.184652
LJ           3.10848         1.72194        -2.63252
LJ          -4.60045          6.2637       -0.398843
LJ          -2.35615          1.6596         -5.9234
LJ          -2.10499         2.10066         4.21062
LJ          -2.77247         5.49711         4.67658
LJ            1.4947        -3.36755         4.20409
LJ          0.483564          1.3767         1.68756
LJ          -2.38945          5.2465        -2.66401
LJ          -3.46285        -2.88462         2.65543
LJ           2.72551         4.51109         3.50257
LJ          -6.31065         4.36066        -3.87833
LJ           6.10332        -3.09705         4.69169
LJ           4.80017        -4.46483        -3.33487
LJ           3.47903          6.0966        -4.76525
LJ           4.42521         5.26712        -2.52826
LJ          0.484423       -0.512761          1.7546
LJ          -5.53396        -0.71898        -1.98349
LJ           5.05985         3.43485        -2.77077
LJ          -1.47092        -3.93953         5.17767
LJ          -3.79009        -4.89291         3.70774
LJ         -0.641764        0.655766         1.78308
LJ          -4.19791        0.654754       -0.442817
LJ            3.6318         5.30847         1.56857
LJ           4.96214        -5.24697        -1.78605
LJ          -4.38501       -0.953134        -1.28622
LJ          -1.96503       -0.704136         4.21347
LJ         -0.454956        -3.06733         0.60766
LJ           3.55855       -0.426022        -1.75971
LJ          0.461597         5.35378         5.52131
LJ           4.06752         5.80682        -6.04596
LJ           4.49101       -0.781776       0.0158121
LJ           3.58032         2.48186         4.20209
LJ          -4.80018         3.64982         3.31183
LJ         -0.139967        -1.08384          1.0724
LJ          -1.62212         -3.6347         1.08427
LJ           -5.2766        -0.18609         5.02432
LJ           4.72375         2.40809         2.26055
LJ          -0.23692          3.8732        0.754186
LJ          -4.54268        -6.30165         3.35136
LJ          -3.05891        -3.05855         5.42876
LJ          -1.94451        -6.22668        -3.80927
LJ            5.2729          1.2874        0.407268
LJ           1.40334         2.81507        -5.56779
LJ          -3.01622        -2.30436        -6.23382
LJ          -1.94976         1.49242        -2.19479
LJ           4.19501         6.17385         -3.3761
LJ           2.90301       -0.995784         1.57289
LJ          -5.44802        -4.61789        -5.85052
LJ          -6.10105        -1.86855        -6.13514
LJ           1.83646          4.4139         2.17577
LJ          -2.03347         5.02394        -3.96713
LJ            5.1704        -5.59272        -2.96892
LJ         -0.689279         2.42461         3.71055
LJ           1.97749         5.57589        -3.36012
LJ          -3.42652          4.2147        -4.30671
LJ          -4.12018         1.18415         4.36523
LJ         -0.159155        -5.36884        -1.51702
LJ          -1.29778         3.48076         4.49248
LJ           2.80508         2.20847        -3.83675
LJ           1.09149        -1.41069        -3.62172
LJ         -0.747212         5.77282         2.17156
LJ          -1.35264        -3.52909         3.54073
LJ          -5.85956       -0.729944         1.48816
LJ           6.36237        -1.27654          -3.543
LJ          0.757105          4.0535        0.965474
LJ           6.19194         1.36214         4.05053
LJ          0.794275         5.76316         0.41268
LJ           4.26739        -1.48613        -5.61133
LJ          -3.37425        -6.05021         5.51321
LJ          -0.11452       -0.574873        -5.77055
LJ           4.74862         -1.9848         5.58434
LJ          -6.25944         4.95464         1.03829
LJ           6.40075         6.04274        -2.69409
LJ          -5.19457        -5.74571        -3.90318
LJ          -2.22343        -3.81587        -3.05203
LJ           5.70946         5.22877        0.892389
LJ           2.56888        -2.44053        -4.05909
LJ           4.12871         3.49494         -1.1034
LJ           6.40702        0.614027         -4.8817
LJ          -4.63118         5.15204         1.88248
LJ          0.159844        -3.03727         3.37674
LJ           4.45537        -6.10283         6.00597
LJ          -6.09396        -5.25717         4.56276
LJ           1.12112       0.0386014         1.16023
LJ           4.32388        -1.21165        -1.29588
LJ           4.17048        0.775489        -2.10126
