108
#Comment!
LJ           3.89886        -4.34195        -3.96799
LJ            6.3264        -2.90046        -4.19277
LJ          -4.80453         4.51311        -5.54362
LJ          0.422288        -2.97543          4.6987
LJ         -0.682852         4.50752        -2.94821
LJ            1.0647         3.54102        0.290255
LJ          0.488628       -0.757036           2.198
LJ           1.29836         3.66639         5.67794
LJ           3.16711         -3.5122        -3.02928
LJ           2.86591         4.24665        -3.73101
LJ          -6.04006        -0.34553          -3.036
LJ          -4.96849       -0.723272         3.49789
LJ          -3.89854        -5.84253       -0.413771
LJ          -2.18321        -6.23457        -5.52573
LJ          -3.58107         4.18412         0.48495
LJ          -3.26908         5.89689        -2.94801
LJ          -6.04151         0.63421        -2.29999
LJ          -3.96971       -0.452809        0.687397
LJ           5.71696        -1.78933        -5.48662
LJ          -2.48687         1.49078         2.39132
LJ         0.0944773        -3.48561          2.9658
LJ           5.75356        -4.80393         5.22083
LJ          -3.78794         1.92751        0.648195
LJ           5.98414         0.86143         2.89159
LJ          0.264789        0.667128         1.73969
LJ          -3.47847        -1.77668         1.71765
LJ          0.782699        -5.59888        -5.90201
LJ           1.41741        -2.80508        -4.56353
LJ          -4.75609         4.01506         5.70029
LJ          -1.69819        -3.14399         4.48581
LJ           4.09991        0.111444        -1.32077
LJ         -0.541451         1.79207        -2.88286
LJ            4.6904        -3.07456         -4.2365
LJ          -5.60566         -1.2624        -4.29174
LJ          -5.94653        -4.58496         4.73247
LJ           -2.0985        -6.14027        -4.48857
LJ           2.54762       -0.208542         5.69324
LJ           3.34271       -0.689665         3.11232
LJ           4.42187         -1.5308        0.480229
LJ           1.19579       -0.875301        0.944437
LJ           3.50719         2.17804        0.527451
LJ          -2.94744         -3.9839          3.8267
LJ          0.521651        -3.14712        -3.90357
LJ           5.89523        -2.30135        -3.52375
LJ          -3.69999         -5.0233        -4.67455
LJ           1.57253        -5.78115         1.16314
LJ           5.31282         3.09404       -0.997589
LJ          0.233385        -3.80558         5.42989
LJ         -0.203656        -3.06114         2.14258
LJ           2.25597        -2.62602        -2.94836
LJ        -0.0797466         -6.3017         1.32717
LJ          -4.00818         2.99837        0.459435
LJ           6.32211         -5.1043        -6.12351
LJ           1.08024         4.67486        0.619962
LJ         -0.314149        -3.66137        -2.95723
LJ          -3.88528         5.47767         3.59841
LJ          -6.14216       -0.144534         5.18259
LJ           2.38481         4.59855        -4.68741
LJ           6.06021        -5.24972         4.41067
LJ           6.22894        -1.55003        0.330186
LJ          0.732546          1.7046          4.9105
LJ          -3.05572          4.4688         3.79929
LJ          -3.01864         4.40102        -5.54304
LJ          -3.42484         2.81037         -3.6281
LJ          -4.67186        0.572534        -5.09961
LJ         -0.213418        0.235063        -5.16816
LJ           4.32562         2.72876         6.05149
LJ           5.00253         2.04229         0.99324
LJ          -4.52387         5.09069        -2.81067
LJ          -6.19953        -4.28043         1.36052
LJ          -3.40017       -0.386025        -1.83423
LJ          -1.55783        -4.32469         4.02208
LJ          -5.46485         5.91186         4.75382
LJ            2.5502          1.7854        -5.52525
LJ           4.42804        -1.42421        -1.38226
LJ           2.48593         5.91461        -5.72531
LJ           5.04105         -5.9433        -5.72084
LJ          -5.54045        -3.39143         2.55715
LJ          0.150111         3.83193        -3.76908
LJ           2.01145         4.62046        -1.30176
LJ           6.03452        0.240022         4.24692
LJ         -0.327667         1.38742        -5.17396
LJ         -0.925473        -3.47569         0.12255
LJ          0.180555        -4.21362       -0.349954
LJ          -3.50452        -4.91351         4.45534
LJ           5.73776        -3.29408           5.764
LJ           4.30634         3.11267       -0.430663
LJ           3.71334       -0.693949       -0.725496
LJ           4.64709         4.56563        -1.92773
LJ         -0.270566         5.51914        0.206401
LJ           1.23465        -5.06994         1.64344
LJ           4.98156        -4.16695         4.73027
LJ          -1.56243       -0.285464        -4.26709
LJ         -0.365484       -0.215665          1.4511
LJ           1.13377        0.165256        -3.02567
LJ           1.62102        -4.71749         -5.3349
LJ           3.99936        -3.51771       -0.467904
LJ           1.45244         -3.7202         3.35135
LJ           2.52026        -4.93429         -3.8196
LJ           5.90259        -6.02386        -3.40778
LJ            6.1953         6.06741        0.149346
LJ           3.86428        -0.36638        -4.83209
LJ         -0.712519        -2.40055        -2.75334
LJ           2.09975        -2.59326        -1.56858
LJ           5.50186         5.91495        -5.85758
LJ         -0.215114         -5.7226        -4.48198
LJ           -4.3217        -1.07318        -2.03108
LJ           4.75133         3.38964        0.452524
