108
#Comment!
LJ          -3.04189        -1.28087         2.93718
LJ          -4.00391        -2.64665        0.638749
LJ          0.840688         5.89194        -5.73936
LJ          -1.57763         5.35865         2.17433
LJ          -4.69053         5.42826         4.69553
LJ         -0.169857       -0.849598       -0.472891
LJ         -0.372572         -2.6737          4.0655
LJ          -3.33461        -6.18908        -4.01267
LJ           2.46923         4.41651         5.29735
LJ           4.12973        -3.34866        -3.50706
LJ          -5.15757        -2.86023         5.14082
LJ            3.5624        -3.93636        -6.33428
LJ           2.26671        -6.03126         6.10038
LJ          0.306056        -3.56529        -1.91226
LJ            2.7563        0.790289        -4.97349
LJ          -4.95835        -2.19615        -1.79082
LJ          -6.26688         -4.7906       -0.731056
LJ         -0.342332        -1.44313        -5.52068
LJ          -4.55835         1.31449        -1.73009
LJ           6.13828         3.27728        -2.89488
LJ           5.65909         -4.0364         2.97321
LJ          -2.71937          5.4364         2.50927
LJ          -3.16997          6.3423        -5.97233
LJ           4.14435         1.76667         1.09453
LJ          -3.09094         0.72845        -3.75418
LJ          -3.23706         4.13132          4.4245
LJ           5.74167         5.41646        -3.18154
LJ           6.37015      -0.0739802         4.90173
LJ           5.97369         1.60687        0.679522
LJ           4.36798        -3.21835         2.75701
LJ          -3.42839         2.91555          5.4019
LJ          -1.75082        -5.72646         2.06089
LJ          -4.11184         5.11492         5.81334
LJ          0.160616       -0.108899         4.11718
LJ           2.42484           3.055         1.06104
LJ          -1.34052         1.81119         5.94757
LJ           1.58274        0.356606         6.18687
LJ           2.10043         5.91556         5.24635
LJ          -5.65118          5.6353        -2.45773
LJ          -3.07085         6.37352         -2.6858
LJ           4.07507         5.32367         6.31508
LJ          -5.78202        -2.02904        -6.17552
LJ           5.56261         5.50883         5.96148
LJ          -3.35842         6.27931         2.14719
LJ          -3.18642         3.45988         1.61343
LJ          -1.78529        -3.32812        -5.42071
LJ           -0.7684        -4.41027       -0.519919
LJ           3.64951        -4.00956        -4.41568
LJ          -2.32918        -5.26506       -0.468978
LJ          -1.76394      -0.0761124         -1.9451
LJ           1.76646         2.51527       -0.516822
LJ          -5.73752         4.11428         4.42721
LJ          -1.48509         4.25464        -6.21934
LJ          -5.17917        0.724291         0.93048
LJ          -3.29979         6.39773         5.07757
LJ          -4.20979        -1.75277         6.44368
LJ           1.15558         5.24212        -1.42573
LJ           -2.6628          3.6607         6.02413
LJ          -5.74046        -3.96043         2.21279
LJ            4.8929         1.25842        -3.10038
LJ           -5.4558         2.28032        -4.90597
LJ          -1.51943        0.657313        -4.51595
LJ           3.34194        -5.27385         4.09416
LJ          -4.63275        0.320783        -2.08343
LJ           3.68545         3.55471        0.616076
LJ           5.23547         4.34187       -0.345782
LJ           -2.7434        -5.73338        -6.17234
LJ            -2.447        -4.63995         1.59071
LJ           2.71762        -5.23651         1.26835
LJ          -4.86809        -2.71133         3.86833
LJ          -1.81254        0.742444        -5.60371
LJ          -5.00501        -1.42818         1.10522
LJ          -1.75209        -5.70162        -1.66458
LJ           1.39984        -4.07773         -3.0565
LJ           5.26357        -3.58391         1.91254
LJ            2.2024        -4.00976         3.27667
LJ           5.58478        -3.89346        0.656572
LJ           6.40408         -1.6979         1.37147
LJ          -3.60755       -0.955291        0.888335
LJ            1.5882       -0.683159        -4.10133
LJ          0.273382        0.831651        -3.67889
LJ          -3.13045         1.15915        -4.74387
LJ          -3.32952        -5.49052         1.28715
LJ           4.83874        -2.95262          1.1529
LJ        -0.0115964        -5.83713         4.10567
LJ           2.39746         5.46537          4.3723
LJ           6.42749           -3.25        0.963559
LJ          -3.87176        -2.80346         6.06234
LJ          -3.37945          4.6939        -4.84059
LJ           5.16678        -5.32745         0.60436
LJ           -3.9275        -3.93663         5.11774
LJ          -4.58428         6.40349         5.64727
LJ          -4.90533         2.62226        -1.13624
LJ          -3.70554        -5.61626         5.51268
LJ          -5.39179        -3.41098       -0.188092
LJ           2.71689         3.02551       -0.539126
LJ         -0.221285          4.1699       -0.422619
LJ          -2.13679         -4.1955         2.59585
LJ           3.95058        -4.69597        -3.70713
LJ            4.6303        -1.70341        -1.99424
LJ           1.61799        -4.42778        -6.18298
LJ           2.05287        -1.06002         6.15788
LJ           1.71492         2.80842         -2.3738
LJ         -0.073866        -3.44366        -5.66519
LJ           1.60522        -5.32586        -2.74197
LJ           1.08917        -5.56257        -6.33541
LJ          -3.92349         6.15596        -1.94004
LJ           6.32832         -2.6819      -0.0175656
