108
#Comment!
LJ           4.71089       -0.615891       -0.387747
LJ           6.26835        -1.87081         5.63075
LJ            3.1309         2.66269         6.44614
LJ           -1.9106         1.77414         5.12557
LJ          -1.47185      -0.0396308        0.510021
LJ           4.09751         4.47814         2.48346
LJ            1.7889        -2.18923         6.27308
LJ           2.08852        -4.33407        -5.21429
LJ          0.336183         6.40355        -5.39549
LJ           3.85019         3.59057        -1.72439
LJ           4.35947         4.36475         1.38618
LJ          -5.36758           4.764        -5.57262
LJ          -3.99127         -1.2213         5.73889
LJ            5.2889       -0.894219         1.02147
LJ           6.37211         4.66593        -1.23408
LJ           1.20102        -1.24814         5.72333
LJ          -4.58163        -4.64254         2.06696
LJ          0.882324         4.51628         2.43126
LJ          -2.46899        -5.67187        0.943167
LJ           1.95507         3.21296         6.31632
LJ          -5.84782         2.78943        -6.43254
LJ           5.29738         1.98586         1.94524
LJ          -1.60147        0.699657         3.67556
LJ          -5.79133         3.51068         4.37758
LJ           3.03631         4.56267         3.64504
LJ           3.32696         1.60587       -0.700611
LJ          -2.61377         3.94469         -4.3074
LJ            3.1042        -2.02905         2.47054
LJ          -2.97762         3.44414        -2.36018
LJ           3.61553         6.24744        -2.55098
LJ          0.160889        -3.90821       -0.541531
LJ          0.432309         2.35363        0.997644
LJ           1.78925         -3.0481        -4.03653
LJ           -4.5053        -1.64864          -4.867
LJ           3.30025        -1.82139        0.320756
LJ          -1.31348         4.40971        -3.84042
LJ         -0.369589        -2.33214        -2.96049
LJ          -5.03379         3.12857         3.91453
LJ          -3.03582        -6.24407         1.70922
LJ          -4.66875         2.04397         4.60538
LJ          -2.94067         5.64692          3.2796
LJ          -2.08369         -1.5492          5.7237
LJ          -5.53635        0.257775        -4.26472
LJ          0.491373         3.85013         5.77041
LJ          -2.47582           3.655         4.70933
LJ          -4.15111        -1.13329        -3.72661
LJ          -1.59973        0.319322        -1.25501
LJ          -2.65122         4.21374         5.91574
LJ           2.42819         2.52878         1.26181
LJ          -5.48468        -2.32055        -6.44814
LJ           5.78777         4.70953         1.07222
LJ         -0.227215        -2.71858        -5.55239
LJ          0.454718         1.29322        -2.86464
LJ           3.30058         5.44563         1.11319
LJ           5.20275         4.41565        -3.22092
LJ           6.00625        -1.58244        -4.51718
LJ            4.0524         1.79481          5.7984
LJ          -3.75674       -0.711961        -4.56758
LJ            -1.418       -0.705682       -0.137028
LJ          -1.48197         5.41897        -4.89345
LJ          -2.61656        -6.23457         4.00081
LJ          -1.27869        -1.30128        -3.03718
LJ           5.84307       -0.971311       -0.727057
LJ          -1.69284         2.67954         3.53672
LJ           5.36996         3.99858        -6.27864
LJ           1.20808        -3.61232       0.0933055
LJ           4.72443        -5.55828        -2.26471
LJ           5.74511         1.04778       -0.101177
LJ          -2.31741         4.10673        -2.93359
LJ           3.39794        -2.37604         6.45865
LJ           4.12527        -3.90002         5.28079
LJ          -5.95895        -1.15396        -1.62105
LJ        -0.0657502        -6.14997        0.354443
LJ           5.52358        0.770661         2.17237
LJ         -0.514282        -1.46456        -2.10925
LJ           3.31101        -6.27415          4.4889
LJ           4.85081         -1.3851         4.15611
LJ            4.4504       -0.493665         2.21088
LJ          -4.13327        -4.87085         4.15893
LJ           2.43972         5.13847          1.6615
LJ          0.514027       -0.417348        -6.44184
LJ          -5.67437         4.18347        -1.49749
LJ          -1.18703        0.936767        -5.13212
LJ           5.24928        -5.89014         3.30952
LJ          -5.27123         6.35707       -0.759652
LJ           -3.3643         2.33834         5.47335
LJ           3.47882        0.410786        -2.44787
LJ          0.666825       0.0186878        -5.03459
LJ           2.95512       -0.997247         5.76826
LJ           5.62972         1.00092        -1.97818
LJ          -4.36492         2.36718         3.28095
LJ           3.99074        0.525199          2.4055
LJ           5.88067        -4.06343         4.35232
LJ           3.11872         -4.5317         4.96644
LJ          0.807434          5.4939        -3.87106
LJ           2.21743         5.97245         5.09464
LJ          -3.77697         2.65249         1.24326
LJ          -3.56426        -5.69203         5.60337
LJ           4.30597        -5.04551         5.51433
LJ          -2.43193         5.55738        -5.08642
LJ           3.45375        -5.22678        -3.43615
LJ           4.12145         5.43878         5.59498
LJ          -6.26149        -3.42246         5.01862
LJ          -2.09619         -5.1943         -4.7455
LJ          -4.46428         6.25972          2.5539
LJ          -4.01004        0.210983        -6.37841
LJ          -4.51903         3.91855        -2.59337
LJ           3.47847         -5.1313         1.68973
