108
#Comment!
LJ           2.23611        -4.23266        -4.67062
LJ            4.3928         1.90905        -2.06973
LJ          -1.58821        -3.27867        -4.81111
LJ           6.00828        0.256696         2.92937
LJ           2.38964         1.41718         4.10759
LJ           4.87917        -4.62763        -2.62889
LJ          -6.03112       -0.257989        -5.42985
LJ           5.80925         5.26922        -4.68326
LJ          -1.24606        -2.09084        0.849502
LJ           1.00986        -1.99179        -5.53059
LJ         0.0608544        -1.03407         1.07543
LJ          -1.24922         2.02753         6.15402
LJ          0.700427         1.71258         6.03029
LJ          0.461452        -4.53433        -2.38738
LJ          0.789299         -2.6612      -0.0955995
LJ           1.34926        -3.16785         5.91963
LJ          -3.47242         5.22911        -2.53336
LJ          -1.75032         3.17764         -1.2177
LJ           -3.3924        -6.39855         3.19469
LJ            2.0005         4.23558        -5.05956
LJ           2.19489        -2.41542         4.16824
LJ           4.57182         4.37893         -4.5804
LJ           2.78444        -5.09887        -2.97669
LJ          -4.15829          -5.619         -6.2044
LJ           2.77242         3.97089         2.19023
LJ           2.63389         4.48843       0.0867079
LJ           1.44607        -1.10987         1.50981
LJ          0.100094         1.87004         4.64161
LJ          0.319578          5.3758         4.12534
LJ          -5.90636         1.02144        -2.17713
LJ            -6.031          1.1384         3.22273
LJ           1.46512        -3.33561        0.376274
LJ          -3.22238         -5.2563         5.91009
LJ          -3.89491        -3.74004         1.36577
LJ           5.68331        -2.22272        -1.05858
LJ          -4.26247       -0.874697        -2.43595
LJ          -5.83743        -4.98608         2.62643
LJ          -5.81161        -4.45257        0.022462
LJ            3.3896         2.45045          1.9241
LJ          -5.44732        0.260618         2.97677
LJ           4.42313         2.82446        -2.80309
LJ          -3.92491         1.08586         5.81866
LJ          -3.62766        0.895466         3.76546
LJ           6.23793         1.76598          6.3208
LJ           5.80455         6.23801         6.43997
LJ           0.25802         5.48946        -3.11058
LJ           4.15748        -3.52303        -3.54881
LJ           1.14084         -5.9359        0.398207
LJ          -1.48549         5.01568         -6.2722
LJ           1.86542        -4.22439       -0.851205
LJ          -5.17076         4.08336       0.0968737
LJ         -0.993721         3.83171        -1.30968
LJ          -3.83566         5.98224       -0.210661
LJ           4.22053         5.39092        -4.31588
LJ           5.38386       -0.076066         5.65613
LJ            3.2081        -2.30691        -4.63637
LJ           2.33581        -1.98985        -1.61581
LJ           2.90663        -4.82618        -5.56218
LJ           5.85243        -3.22799         2.84501
LJ           2.80709         4.41662          3.2716
LJ          -1.95888        -1.41187         3.65135
LJ           0.90443         3.17011        -5.94336
LJ           2.85208        -1.97137         5.91283
LJ           4.26479       -0.286598         5.69322
LJ          -2.22227      -0.0716604         3.23415
LJ          -2.00537        -1.37573        -6.44142
LJ          -1.16289         6.43277        -2.03868
LJ          -6.22944        -1.59247        -3.54652
LJ           -1.5965         -5.3043        0.282225
LJ          -1.01376        -5.42449         -5.2092
LJ         -0.012891         2.49417        -5.24049
LJ           1.64962        -2.91155        -3.77523
LJ          -1.98649         3.63589         1.07339
LJ          -1.40502       0.0786589        -3.74067
LJ           2.19661        -0.34604        -5.23331
LJ           5.46528         3.06569         3.93553
LJ          -5.87259          5.8939        -4.88478
LJ           4.26077        -6.14815         4.24536
LJ           5.96523        -5.94474        -4.04125
LJ         -0.816709         3.38819         1.48833
LJ           2.48322        -3.88068        -1.74454
LJ           1.46295         2.56968        -3.46145
LJ          -4.59035        -1.47978         2.54661
LJ           2.75024          5.4994        0.927281
LJ           5.36115        -6.02695        -2.17721
LJ          -1.33869         3.42231         4.07787
LJ           3.19786         1.45928          1.9394
LJ           2.20442        -2.99513         5.09024
LJ          -1.11493        -6.07158        0.866025
LJ          -1.71182         5.74354        -5.15019
LJ         -0.365397        -1.04567        -5.58215
LJ          -2.70549        -6.09637         1.48363
LJ         -0.435279         1.69687        -1.75929
LJ           1.07859        -2.29953         4.08532
LJ          -5.29296         1.56817         1.70046
LJ           5.36056         5.07554         3.71326
LJ           1.38348        -4.35187         5.42257
LJ         0.0199385          4.1968        -1.84935
LJ          -6.14186        -2.97624         3.44648
LJ           2.10759       -0.121411         2.30891
LJ           4.05707         5.03104        -5.90996
LJ          -6.40181        -0.16707          3.9208
LJ         -0.493124        -5.91172         5.23087
LJ           3.99425        -5.35569          3.4088
LJ          -1.54764          2.6322        -4.85877
LJ           2.42604        -6.15337         4.33204
LJ           3.68067         0.59024         4.13647
LJ          -4.22448        0.259979         2.54917
