108
#Comment!
LJ            5.1551         2.59102        0.261447
LJ          -4.61577         1.08701        -1.47147
LJ           -3.2139        -3.90507        -6.20019
LJ           2.20291         5.49947        0.472114
LJ           3.12768        -3.44584         -1.9883
LJ          -3.50913         1.03455        -1.20302
LJ            2.3486        -1.12848        0.596996
LJ           4.97278         1.26998        -2.12857
LJ           3.39154         2.90725         2.11689
LJ           6.31162        0.179777         2.87382
LJ           6.12021         3.51561         6.31213
LJ           1.36164         5.06646        -2.89906
LJ          -5.06058        -2.01876        0.735914
LJ          -2.67504        -4.61014         4.26831
LJ           4.29987         1.17739       -0.974498
LJ          -2.54364         4.22954        0.810815
LJ           4.00267         2.44277        -6.24354
LJ           2.31914        0.609324        -1.27619
LJ         -0.264309          1.4239       -0.281007
LJ          -2.40916         3.86568        -3.22845
LJ          -5.95809         5.69024         3.82804
LJ           6.44164        -3.78023        0.676827
LJ          -1.53245        -5.41923        -3.35936
LJ         -0.653045        -4.92961         3.31395
LJ          -4.07016         3.83719        -6.24927
LJ          -2.65343        0.557808         2.59313
LJ           5.52793        -5.57433        -1.90077
LJ            2.4925         6.20386         2.22639
LJ           3.66162        -2.34523        0.957679
LJ          -1.21935        -1.60858        -2.01863
LJ           6.17889        -3.13425        -1.79372
LJ          -4.92814        -3.03781        -1.44589
LJ          -2.22751       -0.678141          1.8197
LJ           2.80306        -2.47054        -2.50153
LJ           -3.4061         5.44379         4.16516
LJ           2.47857        0.135977         2.69297
LJ          -1.20264         5.28075         5.11837
LJ          -2.27104          4.8127          3.6324
LJ           2.72316         -2.7786         2.95217
LJ          -1.24414         4.36849        -3.09492
LJ           1.55013         4.87424         2.95519
LJ           5.76061        -4.99409        0.617565
LJ          -5.03718          1.0591         4.96592
LJ           5.50191        -4.42246         5.18453
LJ           2.45914        -2.53396         -1.2811
LJ          -2.56319         5.09379         0.10731
LJ           4.02615        -5.13811        0.626753
LJ          -0.69487        -2.29653        -6.11014
LJ           -2.7406         -2.0711         -5.3155
LJ          -1.05259        -3.30717        -2.57927
LJ          -3.37177        -1.20184        -1.40319
LJ          -3.99166        -3.83049         3.54249
LJ         -0.992507        -5.00801         1.03213
LJ          -1.71253        -0.39233        -3.31639
LJ           0.14489        -3.53934       -0.124254
LJ          -2.29849        -3.12864        -6.18439
LJ           3.28789        -4.16513         4.23065
LJ           5.42833         1.13251        -3.70284
LJ          0.307566        0.851504       -0.852007
LJ          -5.91358         4.36525        -4.16422
LJ          -3.01254        -1.06269         2.31043
LJ          -1.03548         0.20956          3.7138
LJ          -5.56976        -2.63404         5.33435
LJ           2.95937        -5.07796         3.31239
LJ         -0.358332         2.94306         3.33041
LJ          -1.07463        0.472246         5.27968
LJ           5.65002        -1.98249       -0.338342
LJ           6.20414         1.47279       -0.389964
LJ           5.76285        -5.37681       -0.872716
LJ           6.16477         1.03487         5.73936
LJ          -2.65693        -3.87813        -1.18951
LJ         -0.235457       0.0403543         1.19956
LJ           4.25606         1.79287         1.15355
LJ          -5.57566         6.44725        0.732145
LJ          -5.85516         4.14535         4.98454
LJ           4.40033       -0.867599         -1.7314
LJ          -2.30842        -4.44898         2.02242
LJ           6.12905        -1.23673         4.02188
LJ          -4.70043        -4.71187         4.79666
LJ          -2.59005        -4.10126        0.525472
LJ           4.68056        0.771988        0.709449
LJ          -4.90694         -5.4858         3.95253
LJ            5.1197         6.25344        -6.41818
LJ          -4.61196        -5.11704        -2.23029
LJ            3.5908         5.43841        -5.37526
LJ          0.763648        -4.50237          4.4995
LJ          -4.39939      -0.0270567         4.74135
LJ          -5.91098       -0.465416         4.91568
LJ           3.64849        0.409797         5.98086
LJ           4.38394        -4.29098         3.30008
LJ           4.59694        -5.78405         4.90147
LJ           2.00022        -1.75272         3.37843
LJ           3.62124         1.30165       -0.309008
LJ          -5.70639         1.88665       -0.636307
LJ          -1.01915        -1.97375          3.4104
LJ           1.86001         3.27899         2.59404
LJ          -2.54898        -5.21246         3.25647
LJ          -3.26566         5.63246        -2.84053
LJ          -4.23231        -2.67835        -4.45174
LJ          -1.30574        -3.29242        -1.43125
LJ         0.0499255         1.78579        -3.43546
LJ           4.98188         2.34145         1.41948
LJ          -5.70186        -5.70465        -2.47235
LJ           5.47238        0.324606        -4.94422
LJ          -1.19992        -3.68103        0.924958
LJ          -2.68922         6.17982         3.42257
LJ          0.237632        -2.51905        -2.72544
LJ          -4.69427         1.88873         5.96073
