108
#Comment!
LJ          -2.90087         4.64202          5.4345
LJ           1.74607        -5.95708         2.87583
LJ          -2.75958        -4.05057        -3.05396
LJ           0.80438         -5.7186         3.28061
LJ          -1.21592       -0.149234       -0.933789
LJ           4.31431         6.42676        -2.73903
LJ           5.81619         -5.1351         2.09045
LJ           3.15223        0.987169           2.009
LJ           2.79861        -1.77791        -2.73362
LJ          -3.95774        -1.95574        0.563404
LJ          -1.00488         -0.0127         1.41337
LJ           3.95793         3.83719         3.15754
LJ          -3.41556         5.07217        0.514222
LJ          -4.62334        -3.43144         1.92395
LJ          -5.81854         5.29601       -0.944406
LJ          0.787962        -1.21343         4.23396
LJ          -5.31327          5.7562         2.79543
LJ          -1.30914        -2.43656        -3.67098
LJ           5.19834        -1.69182         -4.1516
LJ           2.21408        0.472889        -4.69098
LJ           6.01908        -3.91962         2.73609
LJ          -3.57203        0.522439         1.92037
LJ          -6.41613         5.32578        -1.97298
LJ             4.898        -3.34655         -6.1056
LJ           6.33303        -4.37001        0.125174
LJ           5.21247       -0.695682         3.55637
LJ           3.93404         2.43871         2.69176
LJ           4.19901         -6.2465         6.35104
LJ           5.22055         1.02869       0.0176278
LJ         -0.178575       -0.281447         3.51669
LJ           2.02217         3.48179         2.24644
LJ          -3.12819        -2.65302        0.928587
LJ           4.25904        -1.97566         3.83204
LJ          -4.99228        -6.16206         6.23685
LJ           3.23699         5.91561         4.62257
LJ           3.67664        -1.27496        -1.55522
LJ          0.605208         -0.4424        -2.93099
LJ          -6.06373        -1.90618         4.93757
LJ          -3.10984         3.62923         3.14461
LJ           4.69853         5.58196         1.82025
LJ          -5.49903        -1.98575        0.181379
LJ           4.89261         3.01104          5.3195
LJ           3.36012         2.84784        -1.87546
LJ          0.593323        0.645957         2.86344
LJ          -5.95904         1.73844         6.05484
LJ          -3.78176         6.40068        -3.98625
LJ          -2.23375         -3.4978         4.16579
LJ          -4.25014         2.68621        -2.88448
LJ            5.8323         6.26337         2.55728
LJ          -4.88561        0.744455         4.97698
LJ           4.92049         2.00712         2.83326
LJ          -4.93824         3.86423        -3.37124
LJ          0.890621         2.33926          1.9133
LJ          -6.23078         4.04411        -2.54075
LJ           3.44705        -1.45242        -3.62772
LJ          -2.93572       -0.519795        -4.78577
LJ          -5.88492        -5.93304        -5.51098
LJ           4.21344        -4.17246         5.46156
LJ           6.17762         2.88265        -3.68826
LJ         0.0059722        -2.31031         2.10764
LJ          -5.34851        -6.39556        -4.11149
LJ          -2.69331        -3.52664        -4.42985
LJ           1.19956        -2.19415        -5.03803
LJ           6.34327         5.55766        0.151625
LJ             4.933         4.82415        0.601711
LJ          -1.36603         -2.8402        -2.65283
LJ           5.57967         1.29558         4.64152
LJ          -4.33467        -2.51091          6.1096
LJ          0.490971          3.3789         2.77746
LJ          -0.30288         4.16061         2.08716
LJ          0.645884        0.748756        0.738436
LJ            5.0713         4.40927         3.50716
LJ           4.99359       -0.275007         6.44369
LJ           1.62666        -5.95649        -4.30376
LJ           3.97603        -1.61698        -2.78415
LJ           1.81129        -2.10904         3.02561
LJ           6.28579         1.41946        -1.50459
LJ          -2.99021        0.577541        -3.79331
LJ          -4.29499         -1.6021        -0.49533
LJ          -5.71016       -0.841799         2.32844
LJ           2.90859         2.60471        0.385643
LJ           5.59525          -3.187        0.757202
LJ          -3.51512        -1.51202         2.16839
LJ          -5.64984         -4.8812        -1.70303
LJ           2.57074           4.146        -4.53952
LJ          -3.37009         3.29891        -1.85476
LJ           4.81807         5.19993         -3.8234
LJ          -6.05067        0.881433         5.12268
LJ          0.874134        -1.83805         2.52347
LJ            2.7968         5.65201        -1.21828
LJ           3.24374         3.95866        -1.52017
LJ           5.94086         3.08668         -1.7752
LJ           3.56161       -0.796307         4.21382
LJ           3.81219        0.988338         3.41436
LJ           1.19369        -4.92912         1.79186
LJ           5.49009         5.85655        -3.57548
LJ           4.40959         3.74844         2.05229
LJ           3.04693        -6.14774        -2.46653
LJ          -6.24139        0.736343         2.45659
LJ          -3.09072         1.66999         3.80172
LJ          0.905905         -3.6445         5.36084
LJ          -1.21228        -3.98092         3.76652
LJ          0.671271        -1.23577         1.25028
LJ           3.90984        0.347521         2.27819
LJ             3.264        0.536036         5.41062
LJ           2.98769         5.43303        0.912135
LJ            5.0896         6.18855        -1.70957
LJ          -4.74325         2.00263         4.78231
