108
#Comment!
LJ          -6.41252         1.55761          2.3968
LJ          -1.45417        -2.78973       -0.840126
LJ          -4.43984         1.78186       -0.723614
LJ          -4.71361        0.873995           4.924
LJ           1.82895        -2.18325         2.33661
LJ          -4.57103          3.9388         5.54452
LJ          -2.06199       -0.855238        -2.57128
LJ          -5.00178         4.83629        0.499478
LJ          -3.60121        -4.18325         5.76347
LJ           2.96519        -3.43575         2.84307
LJ         -0.388502       -0.899237        -5.89828
LJ          -4.41718        -2.86008        -1.40934
LJ          -3.47941         3.93218         6.18074
LJ          -4.67507        -3.29281          3.2403
LJ           2.07087         1.81118        -3.00313
LJ           2.52116         -6.1122       -0.799946
LJ          -1.80237         5.26768        -6.26409
LJ           4.87325         1.50771         1.25884
LJ          0.871649         2.04741        -3.99251
LJ          0.589674        -1.17439        -3.68666
LJ          -2.21345         4.25019         3.09632
LJ           1.12778        -3.17532        -1.37412
LJ            4.7292        -1.35552        0.256853
LJ           4.60016         5.83085         5.20012
LJ           6.13456          4.5532         4.15801
LJ          -3.74134        -6.21733        -5.37442
LJ          -5.98699         1.30275        -1.59071
LJ         -0.808357         4.76261        -1.97302
LJ            2.3851        -5.48071        0.482699
LJ          0.227759        -2.42735         1.04427
LJ           3.89243        -5.88619         6.35503
LJ          -3.92931         5.37432        -4.85493
LJ           1.91419        -2.42769       -0.410118
LJ          -2.45382        -3.61119           0.481
LJ          -0.82009        -3.91412        -2.27766
LJ            4.9775        -3.70114        -5.80902
LJ          -4.17046        -3.61238          5.2088
LJ           5.37884        -2.41086         1.52338
LJ           4.61807        -3.67908         1.32155
LJ          -0.81463         2.30496         2.74978
LJ            6.2527        -5.25832        -5.51762
LJ        -0.0641908        -4.83068        0.498599
LJ          -5.54676         5.74525        -5.47474
LJ          -1.17499        -4.33482        -3.50942
LJ          -3.17371         4.77228      -0.0424337
LJ          -4.61967        -5.88229        -4.41315
LJ           4.39422         1.89373         2.20988
LJ              5.82        -2.71582          5.6336
LJ           5.65122        -4.58857         2.31541
LJ          -6.01158        0.222173         2.40015
LJ            4.1423          2.2504        -2.56787
LJ           3.46256        0.804133        -1.64458
LJ           2.36308        -2.82024         4.92387
LJ         -0.286777         2.35167        -6.27548
LJ           1.19922         3.63091        0.841898
LJ         -0.881259         1.78597        0.294052
LJ           1.49336        -6.26905         4.36344
LJ          -1.94989         5.23971         4.95543
LJ           5.57862        0.974417         4.23638
LJ          -5.74414        -2.79838         5.70756
LJ          -4.71147        -1.12455         3.17672
LJ         -0.312162       -0.668472         -1.2522
LJ          -5.79238         3.42272        -2.00976
LJ          -3.50232        -1.46934        0.573046
LJ           4.29119        -5.08172         1.31124
LJ          0.335553         1.31466        -5.56165
LJ          0.378658         5.32224        -4.56564
LJ          -2.70498         -1.2724        -3.34737
LJ         -0.999705         1.91865        -3.61113
LJ           2.63393        -3.94843        -1.42587
LJ         -0.749507        -6.23096        -1.31445
LJ           2.64069         1.01359        -2.40215
LJ          -2.94207        -1.34027        -4.73007
LJ           5.29833         1.45828          -0.644
LJ            6.4502       -0.115122        -1.08607
LJ           5.20773         1.81875         -1.6029
LJ           5.42184        -1.16275         6.42672
LJ          -0.23343        -5.43549        -1.79362
LJ         -0.485397        -1.43118         3.70828
LJ          -3.22887          2.8605        -1.04829
LJ           6.36179        -6.08869       -0.439532
LJ           1.76443         -4.9509         3.75659
LJ          -1.77323        -6.09075        -3.32553
LJ          0.130414        -3.89356        -4.47462
LJ           1.91857        -3.88616        -2.16532
LJ           2.37462         5.96735        0.679903
LJ            4.7538         3.37615        -1.55654
LJ          -5.30699         4.59297         5.15757
LJ         -0.150271         2.43012         2.03504
LJ          0.419897        -3.75833        -2.78549
LJ           6.00726         2.58135        -2.31979
LJ           1.83882         2.41686        0.176318
LJ         -0.915764        -1.92223       -0.660813
LJ           6.08176         3.21934        -3.38405
LJ          0.509358         3.17125         2.28397
LJ          -0.02719        -6.01461        -5.96308
LJ           -2.3175        -3.95705        -4.26163
LJ          -6.32453        0.236376         5.09137
LJ           -5.5571         3.50294         3.57096
LJ          -4.89847         6.02973        -2.69845
LJ          -1.57747        -4.57744        -6.45263
LJ           1.20936         3.54014       -0.182412
LJ          -2.68975         5.07792         5.73325
LJ          -2.15976         1.16661        0.123156
LJ          -6.33312          6.3334        -4.98034
LJ           3.53282        -4.68648         6.26024
LJ           2.83893         4.54135        0.828061
LJ           -5.4151          -2.591          -5.102
