108
#Comment!
LJ          -5.37382        0.912235         3.43613
LJ           4.01065           6.411         3.52908
LJ          -4.23773       -0.826467        -2.63976
LJ          0.199401         6.16467        -5.64543
LJ          -3.78513         3.40249        -4.91687
LJ           6.39612         0.22987          6.1134
LJ         -0.709829        -6.45019       -0.808432
LJ          -4.62498         4.05667       -0.709549
LJ           -5.1068         5.45864         4.25537
LJ          -4.87248         4.76039         5.91817
LJ          -1.22064         3.09412          5.2258
LJ           5.60969        -2.23531         4.16749
LJ          -5.90515        -1.65389        -6.01996
LJ           4.67993          1.3691        -2.33479
LJ           5.86226         1.42402         4.27383
LJ           4.20888         5.58374         6.16158
LJ          -1.11001         6.03524        -3.66938
LJ          -1.64192        -4.30521         1.26692
LJ         -0.379707        -3.33627         3.54012
LJ           6.46035        -3.03929        0.503286
LJ           2.69542         6.45141         6.03741
LJ          -6.43659         4.40463         4.26502
LJ          -3.17273         3.58399         1.46001
LJ          -3.99416        -4.72688        -4.85577
LJ          0.614913         4.75711         5.55993
LJ          0.863402       -0.186826         1.97873
LJ           -2.4473         2.79662        -3.85441
LJ          0.805606        -3.10218         6.19005
LJ          -4.97118         4.84089         -5.4817
LJ           2.64995         2.98221        -4.70834
LJ          -1.69271        -5.76491        -3.49629
LJ          -4.45325        0.404355        -5.34557
LJ           4.47021         1.57207         2.86252
LJ          -6.28267         6.21612         4.91839
LJ           2.22481        -2.35741        0.636614
LJ          -2.67047         2.44877         5.85284
LJ         -0.973359        -3.78767        -5.32595
LJ          -4.37373         3.75373          5.0524
LJ          -4.16842        -5.73763         3.53304
LJ          -2.90651        0.575422         5.96532
LJ          -2.72061        -4.14442         3.49144
LJ           1.23689         -3.5984        0.409453
LJ          -3.43233       -0.290627         4.63521
LJ          -4.28579         1.01248         3.39242
LJ          -2.65822        -1.33772        -5.00669
LJ           5.07839         3.35627         1.18121
LJ          -4.74446        -0.71723         -3.8481
LJ           -3.9704        -3.87423         5.32484
LJ          -2.55644         3.61323        0.301694
LJ           1.52806         6.04728         -5.9188
LJ           -5.9055         5.24093        -2.18374
LJ          -1.26572        -4.68458        0.147632
LJ          -3.26698        -4.39344         2.27416
LJ           5.63842         3.19232        -4.22159
LJ           2.29538         5.84578        -2.57672
LJ          -2.38081        -1.99373           4.536
LJ          -5.95407         4.03781         3.27122
LJ           2.13771        -1.51798         2.45357
LJ          0.228176        -1.73979         2.40236
LJ          -2.89852         2.03681         4.85081
LJ           3.29381         5.69627        -4.72207
LJ           4.94818        -1.96062         -3.0924
LJ          -5.72583        0.925414       -0.924195
LJ           1.97223         6.05828         5.02311
LJ           3.48306         5.68862        -2.58577
LJ          0.735611         6.31021          5.6772
LJ         -0.902742        -1.91037         6.03049
LJ          -4.20699        -5.33331        -1.84157
LJ            -2.173        -5.99163        -2.35867
LJ          -3.81871         3.21067         -1.9519
LJ          -1.17016        -6.17095         -5.0768
LJ         -0.415499         1.68465         2.41101
LJ           1.13229         3.27726         -3.9684
LJ           6.06116         4.29569        0.422284
LJ          0.777056       -0.980907         1.10551
LJ          0.930066        -4.23695         3.49789
LJ           4.28307         5.60297        -4.96405
LJ          -5.15471        -3.25262         3.27651
LJ          -5.09633        0.746138         6.35727
LJ         -0.820041        -6.21087         1.05035
LJ         -0.955186        -2.47739         3.44461
LJ           1.74015        -1.39638         3.68158
LJ           3.18706         3.47378          -3.465
LJ          -5.40957         5.63741        -3.99843
LJ          -2.71611         4.68021        0.153154
LJ           6.26918        -0.57027         4.17112
LJ          -5.03026         -2.2695         2.91347
LJ          -5.69029       -0.229121        -5.38938
LJ          -2.21334        0.216094          1.8934
LJ           5.83274        0.618459         1.31707
LJ          -4.91202         0.21625        -4.39324
LJ           2.24351        0.849173        -1.69022
LJ           2.99803       -0.841485          3.4704
LJ         -0.412219         5.02143        -5.98805
LJ         -0.351446         6.21049          5.5096
LJ          -1.68427          4.3671         5.67463
LJ           4.56933          2.4892        -5.19935
LJ          0.602866      -0.0626888         4.37563
LJ          -4.60751         3.91991         3.34579
LJ          -4.31457         1.69911       -0.310405
LJ          -4.15558         2.58974        -2.96932
LJ           4.21174          1.1758         6.21225
LJ          -5.54022         0.92683         4.58661
LJ          -6.45601        -3.85656        -2.05155
LJ          -4.80289         2.40625         5.09199
LJ         -0.661451         5.30976        -4.92219
LJ          -5.60591        -3.69701         4.55756
LJ          -5.65276         4.03188         5.27004
