108
#Comment!
LJ       -0.00699198        -4.78904         -3.7562
LJ          -1.69876        -2.52701       -0.128075
LJ          -4.23414        -2.33627         6.36005
LJ           3.26943        -5.63552        -3.18878
LJ           5.82368         1.47243         1.20846
LJ           4.68023        -3.94693        -1.39158
LJ           3.09956        -5.15498         1.34689
LJ           -2.1485        -5.00472         4.93669
LJ          -6.13433        -2.12471        -5.13069
LJ         -0.250111        -4.23742         6.28491
LJ          -2.42187         6.15928        -2.27447
LJ         0.0814341        -3.80128         5.16538
LJ          -5.74787        -5.73224        -1.62545
LJ           -3.5215         2.76399         1.54191
LJ           2.81562        0.878183         4.62351
LJ           1.98491        -1.72167         6.10796
LJ           5.15481        -4.36002        0.714985
LJ           1.38157        -2.28335        -5.06111
LJ          -1.20645        -5.19262        -2.27306
LJ          -6.13959         6.37882         1.36454
LJ          -4.43074        -1.95832        0.979782
LJ          -5.33597         3.62398        -3.41929
LJ            -6.243       -0.473459        -1.64939
LJ           1.20008        -4.58573        -1.39367
LJ           4.36266         5.17828        -0.47454
LJ           4.17703        -5.92442          2.2126
LJ          -5.40477        -4.03514        -2.77561
LJ           1.71184        -2.94263          2.6436
LJ          -3.49251        -6.13978        -5.64116
LJ          -6.32559        -4.55932         3.37436
LJ          -6.32322          3.7804        -3.48869
LJ          0.171111        -2.50723         4.43458
LJ           5.48064         5.12091        0.466596
LJ           2.21243        -1.46071         3.75362
LJ           5.31154        -2.38696        -1.14704
LJ          -3.87417        -6.23753          3.2779
LJ          -2.75598        0.921502        -1.72605
LJ          0.403287        -2.42867         2.01847
LJ           1.28058         1.66305        -1.42318
LJ          -5.64324        -3.93785         5.39172
LJ          -2.80453         4.36532       -0.609475
LJ          -5.23524         5.49771         4.11452
LJ           5.99259         3.59666        -4.31216
LJ          -1.04532         1.98835         4.33813
LJ          -1.97267         5.50589         3.18389
LJ          -1.77714         1.68503        0.992378
LJ          -3.78602        0.192256        -4.19966
LJ           0.92564         -2.1757         -1.0203
LJ          -5.44291        -2.24351       -0.270539
LJ           2.43758         1.71327        -3.32142
LJ            3.2298         1.24809        -2.13676
LJ           5.90901         0.23304        -4.70876
LJ          -4.34114        -2.33113       -0.275353
LJ           3.24374         1.48119        0.417182
LJ           5.61407        0.787904         2.56335
LJ           5.82206        0.457242         5.53549
LJ          0.558051        -3.55342        -1.62019
LJ           1.57158        -3.33483        -5.87505
LJ          -3.09557        -1.12974        -2.31087
LJ           4.69217        -3.80168        -4.32273
LJ          -6.15381        -4.23134        -4.20766
LJ           2.90326        -2.64524         3.17571
LJ          0.466751         1.61646          5.2114
LJ         -0.890789        -2.93783         2.72239
LJ          -2.87355        -2.83816        -1.03873
LJ           4.16055        -1.61614         3.71245
LJ           5.15058          4.9705        -2.92634
LJ            1.7597        -1.10781        -5.39593
LJ           6.09119        -3.61154         4.72327
LJ          -2.41583         1.65908        -4.27142
LJ          -2.33916         5.36834         2.20269
LJ             1.662        -4.63598         4.41931
LJ           1.35685        0.329099        -1.06845
LJ           -1.7042        -0.56631        -5.71698
LJ          -4.18199          3.7021        0.893568
LJ          -5.93666        -3.41068         2.47802
LJ         -0.817554          2.5849        0.769368
LJ          -2.08888        -3.37665        -6.32654
LJ          0.587092        -3.55774        -3.69386
LJ         -0.421705          6.1112        -4.37471
LJ           4.04687         3.26806        -4.92262
LJ            3.6117        -6.04163        0.986527
LJ          0.049067        -1.34445         1.38123
LJ          -2.12218        -1.96848        -6.37434
LJ         -0.206051         6.33828         2.08454
LJ           4.61044         3.48746        -5.71082
LJ           -5.3549         5.28169        -5.91852
LJ           4.69592        -5.02762        -3.75477
LJ           1.53199        -3.18489         -1.8116
LJ          -3.70194         0.62903        -5.29615
LJ           4.53436         5.98874        -3.50146
LJ            -4.777         2.06314          -5.782
LJ             3.108         5.18302         4.84451
LJ          -6.09654         6.13154        -4.44753
LJ         -0.505962        0.390109         1.97556
LJ           3.94398         5.60475         2.51567
LJ          -5.20558        -6.14777        -4.51957
LJ           2.00524        -4.11095          5.2527
LJ          -1.28076          6.3545         2.53706
LJ          -2.05438        -5.03591          1.9993
LJ           2.41655         3.15192       -0.389637
LJ           3.55795         5.26239        -1.21078
LJ           3.18953        -1.57023        -5.77769
LJ           4.97767       -0.436064        -4.92826
LJ          -6.30031        -6.27562       -0.556765
LJ          -5.40438         5.92926        -1.64107
LJ            4.4257         2.87566         5.45495
LJ          -1.14976        -5.99008         1.26184
