108
#Comment!
LJ           3.83449        -2.17047          5.2663
LJ          -5.56237         1.60856        0.351829
LJ           2.09347         0.95157         -3.4833
LJ          -2.07677         4.22741        -3.30058
LJ          -2.48008         1.10861         4.72572
LJ             4.891         2.36542      -0.0599783
LJ          -2.45314         5.99026         1.33643
LJ           5.63355        -5.93177         5.86456
LJ           5.83364        0.515192        -2.84587
LJ          -3.71641        -3.82494        -2.40602
LJ           6.00185         3.92673         1.14839
LJ           2.10446        -4.02571         6.43742
LJ          -2.55159       -0.589683         4.70817
LJ          -6.27979        -2.60537         2.60264
LJ           5.86659        0.954226        -6.37703
LJ          -2.49873         1.47583        -2.83509
LJ          -3.88521        -1.27798        0.138544
LJ           -4.8176         5.85661         4.49613
LJ          -5.61353         5.10147         1.11803
LJ          -2.29739         3.23997         1.10142
LJ         -0.389004        -3.76126        -2.89345
LJ           -2.8897        -4.99085        -1.77221
LJ           4.47343        -2.22637        0.149553
LJ          -5.53544         -5.7138        0.555689
LJ          -2.78268         2.58816        -5.54766
LJ          -2.72662       -0.774816         3.57074
LJ          -3.93428         1.78311        -5.78386
LJ          -5.12573        -6.02236       -0.915812
LJ         -0.708865        -1.85759        0.356019
LJ           5.61583         1.22506         2.85878
LJ           5.88897        -4.57788       -0.589525
LJ          -2.30348       -0.979904       -0.295348
LJ         -0.551041        -5.65305        0.891622
LJ          -1.68331         2.76584         1.77269
LJ           3.50186         4.93237        -4.38585
LJ           4.76631         4.93172        -1.39154
LJ            4.0427         5.39938         5.60017
LJ          -6.25934        -2.85474         1.26788
LJ           3.77929         3.16256        -2.47331
LJ          -0.28176        -4.69735          1.5097
LJ           -5.7704       -0.989819       -0.189031
LJ          -2.75655        -1.20209        -2.39065
LJ           5.05748        -2.99512         2.83388
LJ         -0.778161        0.828632        0.305193
LJ          -3.40841         1.77146         5.97318
LJ            6.1635        -1.03594         1.12321
LJ          -1.77401         -2.9944        -6.31537
LJ          -6.16392         2.72968         4.41029
LJ         -0.827263         4.64176         2.88912
LJ          -5.78099         5.49669          5.2907
LJ           5.31244          5.0362         1.15861
LJ          -6.44548        0.378822       0.0184488
LJ          -2.79879         1.52161        -1.88567
LJ            4.9368       -0.551085        -3.88976
LJ           2.15527         4.16789        -3.99992
LJ          -1.61459         -6.0896          5.0754
LJ           4.01683         4.43751         1.12731
LJ           1.30378         5.66108        -5.04416
LJ         -0.753278       -0.751703        0.847336
LJ           4.11632         4.42192         4.47264
LJ           1.59376        0.933903        -1.89979
LJ           2.32341         4.05896         5.46086
LJ           4.73363         4.33517         2.29983
LJ           -1.0891          4.9362        0.295661
LJ           5.81413       -0.234398       -0.708085
LJ          -5.56684         3.85837         3.54557
LJ           5.11767        -3.50458        -1.23268
LJ           4.70065        -2.89075        -4.05434
LJ          -3.50335          5.5411       -0.896212
LJ           4.02557         4.88812         3.02399
LJ          -5.01455        -1.22632        -4.73838
LJ           1.61122        0.101938        0.321132
LJ           -3.9369         4.12631        -1.61836
LJ           1.21262        -6.03115         0.56395
LJ          -3.05517         1.33728        -5.18162
LJ           5.13322         5.81406         4.16839
LJ           3.64868          3.8124          2.7251
LJ          -5.65959        -3.91445         2.06553
LJ          -2.01297        -1.97853        -2.04656
LJ           3.09269        -3.38962        -2.74083
LJ            2.8401         5.92351        -4.30987
LJ          -3.75573        -6.14935       -0.164475
LJ          0.199613         2.87207         1.03238
LJ           1.75514         3.38885         1.52088
LJ           5.37239        -1.18226        -5.77896
LJ            5.9096        -5.49244         4.72342
LJ          -4.49946         5.46329      -0.0931509
LJ          -2.96675       -0.817316        -6.16714
LJ          -3.46116        -4.88943        0.604541
LJ          -1.76003        -3.69743         2.96622
LJ          -2.74438       0.0737804        0.206021
LJ           1.78736        0.422337         6.13016
LJ           2.06935       -0.109973        -4.53424
LJ         -0.620544          5.2509        -4.31235
LJ          -6.31685        -6.35523        -2.02331
LJ           -4.9687        0.862204         1.21393
LJ          -5.84599        0.938292         3.89127
LJ          -4.96759         2.35213         3.91018
LJ          -5.19077        -5.13803        -2.82991
LJ           6.39616        -4.52454            1.84
LJ          -6.14154         4.19173        -3.06208
LJ           -2.6694        0.637132        -1.03467
LJ           4.13908        -5.07268        -6.23997
LJ           4.88119        -1.84274        -3.51479
LJ            5.8614        -2.47162        -6.27754
LJ          -4.17789       -0.203346        -1.43734
LJ           5.08462         -4.2248         5.98697
LJ           1.67573        -4.79463        0.476272
