108
#Comment!
LJ            3.8814         4.69609        -4.32105
LJ            3.7771        -5.25914         2.45883
LJ           1.11171         2.47457        -5.55226
LJ           3.96522        -5.46198        -3.80979
LJ            6.0294       -0.876755          1.6764
LJ           2.99336        -2.41821        -2.56275
LJ           5.07602        -5.15163        0.271747
LJ          -2.31003         1.33871         5.92476
LJ         -0.141657        0.580366        -5.55024
LJ          -3.55256        -1.34473        -4.08951
LJ           3.84963         2.36816        -4.34169
LJ           1.39504        0.999696        -2.34791
LJ           -4.2933         2.59226        -4.41427
LJ          -2.48919         0.75425        -5.64892
LJ           4.27365         2.90056         6.39489
LJ         -0.789205         3.03741         5.38949
LJ          -3.00843        -4.33391         2.08197
LJ           2.86616        -6.43675         5.94891
LJ          -1.03248       0.0945479        -2.47341
LJ          -6.40944         1.48911        -4.09749
LJ          -4.50337        0.549637         6.05471
LJ            5.4656         3.16585        -4.14914
LJ           1.24168         1.78186         2.88942
LJ           5.55024        0.451361        -5.24531
LJ         -0.717234         5.84501         4.41983
LJ          -2.07669        -6.06351         2.46181
LJ           -3.4967        -4.91526        -1.25061
LJ          -2.55604         -1.7538        0.924158
LJ           5.29652        -4.10217         3.68206
LJ           -3.1313         4.86494          6.0635
LJ          -3.48233         3.47334        -5.18919
LJ           6.28102       -0.532645        -1.90478
LJ          -2.04696         3.81493         1.91396
LJ          -4.52009        -4.44647       -0.908155
LJ          0.813654        -6.39991        -2.80455
LJ          -4.63531        -4.02849        -3.38825
LJ           1.03008        -0.48215          -5.754
LJ           2.19869          5.5112         2.75913
LJ           1.23426        -6.28936         1.12397
LJ          -2.92371        -1.93856         4.72599
LJ           3.75326            2.09         1.14509
LJ         -0.753296         2.77013         2.13595
LJ           3.46296         5.91276          5.1663
LJ          -5.44458        -5.29602        -3.92162
LJ          -2.82617        -4.09052     -0.00634722
LJ          0.425094         6.15792         5.31649
LJ           2.65004         2.04883         6.38004
LJ           3.18022         3.18576         1.42289
LJ          -4.27824         3.98265        -5.68332
LJ           3.82085         3.44566         2.26842
LJ           -4.9176        -1.33135        -4.46392
LJ           1.52504         2.22733        -2.09579
LJ          -5.10062         3.68812        -3.38836
LJ         -0.128335        -1.28101         1.05666
LJ          -5.75925        -2.37226       -0.769212
LJ          -1.73522       -0.373512         2.19052
LJ           -4.1994          3.8124         1.42172
LJ         -0.339777         4.61608         1.73281
LJ           6.12743         4.03329          4.0216
LJ         -0.993816         3.75366        -5.19672
LJ         -0.765905        0.764802         2.03596
LJ          -4.78749        -4.78599        0.836544
LJ          -4.30407         5.39259        -2.45623
LJ          -6.22654        -2.68942         5.01563
LJ          -4.34997       -0.389414         5.49534
LJ           6.27973         -4.7988        -4.04039
LJ           5.96761        -5.66174        0.150255
LJ           2.31205        -5.61459        -3.08914
LJ           1.56672         6.23143         -3.6364
LJ          -4.02148          1.0217        -5.50273
LJ           2.65273         4.56736         6.22332
LJ         -0.246396       -0.289026         4.78518
LJ         -0.846288         4.67039        -6.38111
LJ           2.37372        -1.01229        -2.28656
LJ          0.163195         5.01833        -5.58149
LJ           6.24395        -5.86414        -2.57393
LJ           3.78013       -0.579427         1.46181
LJ           2.57698        -2.91187       -0.756381
LJ           3.34314         1.91522      -0.0683936
LJ           1.52673       -0.996288         1.24086
LJ           1.14676         3.68098         1.76505
LJ          0.332357        0.482212         3.87819
LJ            3.3078        -1.57631        -5.12935
LJ          -2.53269        -3.13861       -0.657076
LJ           1.27695        -2.64288        -1.43454
LJ         -0.299814         5.42836         5.94394
LJ           1.48698        -4.03261         5.88162
LJ          -5.49806         1.50357         3.92513
LJ          -3.28443        -2.25943        -3.33343
LJ          -3.17301         2.39097         5.31513
LJ          -4.56701        -1.27642         3.51098
LJ          -5.10888         3.78796         5.94427
LJ          0.915203          3.2117        -3.70148
LJ          -1.91132        -5.52233       -0.355546
LJ          -5.81344        -4.56255         3.79688
LJ            6.3125        -3.00207        0.679496
LJ           2.66092          4.9322      0.00965351
LJ          -5.11706        -1.88076        -2.27778
LJ          -2.39136         6.24138        -2.41978
LJ           3.64803         3.32716        -1.58715
LJ          -2.19855         3.48449         3.78919
LJ          -5.99332         3.80464         1.06098
LJ          -5.82341         -4.5584        -3.04763
LJ           3.64207        -5.30372       -0.648341
LJ          -3.83648       -0.177233        -3.02899
LJ          -5.33867        -5.55415         3.90381
LJ          0.684458         5.83862         6.22617
LJ          -4.76533         2.78119          4.6457
