108
#Comment!
LJ          -6.23687         6.46301        -4.96279
LJ          -4.30765        -4.30692         4.74416
LJ          -4.74643          -4.312        -4.30896
LJ           -4.3078         4.74312        -4.32122
LJ          -2.15634         -4.7421         6.46002
LJ         -0.233259        -4.30702        -4.94458
LJ          -2.37932        -2.81467        -4.29668
LJ            1.7201        -6.44995        -4.31444
LJ          0.434222        -6.46007        -6.45802
LJ           4.31093        -4.31157        -4.74357
LJ          0.893492        -4.32506        -4.30701
LJ           5.80531        -6.46138         -4.0881
LJ          -6.44946        -2.37959         4.96458
LJ          -4.31006         1.26019         -6.4622
LJ          -6.29723         1.41028        -4.13385
LJ          -4.53565        -2.15906        -5.82804
LJ          -3.41464        -2.15643         6.45655
LJ        0.00197024     -0.00311379         -4.7437
LJ          -2.15128      0.00852742        -2.58778
LJ          -1.49197         -1.9331        -4.31075
LJ          0.431939        -2.15495         -6.4632
LJ           2.58738      0.00438909        -6.45458
LJ           3.87573      0.00317142        -4.30708
LJ           4.30695        -2.15079        -3.04646
LJ          -6.28574         2.15584        -5.24358
LJ          -4.30698         5.81387        -6.23594
LJ          -6.29682         2.90256        -4.13884
LJ          -4.32431         2.38681        -5.82915
LJ           -2.1492         3.64921         6.24069
LJ       -0.00658104         2.58822         6.46271
LJ          -2.16018         4.53268        -5.80398
LJ       0.000450956         2.38423        -2.78777
LJ           2.15539         2.15426        -4.76259
LJ           4.53521         4.30687        -4.96049
LJ           3.64766         4.30575        -4.08639
LJ           5.53444         2.15441        -4.15517
LJ           6.45132        -4.74223        -2.15933
LJ          -2.81071        -4.53016        -2.15614
LJ           6.23953        -2.81163      0.00141241
LJ          -4.30681          -6.454         1.72258
LJ          -2.15422        -6.46162        -3.87364
LJ         -0.236284        -4.30291        -3.67934
LJ         -0.655332        -4.30387       -0.223364
LJ        0.00314601        -6.45226         1.72122
LJ           2.14735         4.74117        -2.14578
LJ           4.31957        -6.02967        -2.15567
LJ           2.15031        -6.00999       0.0132696
LJ           4.14194         5.23984     0.000547459
LJ           4.93917         -2.1562          -1.923
LJ          -4.30719         -1.7179        -2.15349
LJ           4.74427      0.00764335    -0.000396819
LJ          -5.80321        -1.93103      0.00124249
LJ          -1.92492        -3.65351        -2.16819
LJ       -0.00306627         1.25502        -2.15498
LJ         -0.452345      0.00376014      0.00911589
LJ       -0.00394559        -2.15382        -1.71694
LJ           3.68168        -2.14114        -1.91385
LJ           2.58769      -0.0126284        -2.16621
LJ          0.453107    -0.000406999     -0.00622111
LJ           2.59291        -2.15458     -0.00909573
LJ          -4.96987         1.93253        -2.15832
LJ           -4.0844         2.80924        -2.15697
LJ            5.2365         4.14187     -0.00488238
LJ          -4.31063        0.438448      -0.0004126
LJ          -2.14321         2.14422        -3.87401
LJ         0.0106627         6.03042        -2.15674
LJ          -2.15104         2.58957      0.00243175
LJ       -0.00365083         2.38205        -1.51612
LJ           2.14358         2.15018        -3.85735
LJ           4.13674         4.14075       -0.750474
LJ           2.16893         6.01127      -0.0113334
LJ           6.03046         2.16058    -0.000325034
LJ           4.74368         6.45814         2.15425
LJ          -4.31206        -4.31563        0.431178
LJ          -6.46056        -6.02704         4.30965
LJ          -4.30978        -6.23811         5.81577
LJ          -2.32817         5.09015         1.98083
LJ          0.225116        -4.32563        0.655705
LJ         -0.890761        -4.31419         4.31198
LJ          0.237884         -4.9328         4.31067
LJ           2.15106        -4.74189         2.15419
LJ           4.08276        -2.80913           2.166
LJ           1.92041        -5.81094         4.29803
LJ           2.80997         6.24476          4.3085
LJ           4.96759        -1.93029         2.15388
LJ          -4.30699          -1.719         2.15419
LJ           6.45856        -1.49744         4.08254
LJ          -4.54609        -2.16225         5.83596
LJ          -2.15115        -2.37932         3.64864
LJ           -1.4987       -0.227468         2.14614
LJ          -2.15796        -1.49482         4.53384
LJ          0.228655         -3.6736         4.30752
LJ           2.15743        -2.15596         3.87552
LJ           4.31317       -0.226737         3.65172
LJ          0.437828       0.0102696         4.30677
LJ           4.31137        -3.87112         4.29442
LJ          -4.74451         2.15825         2.15337
LJ          -4.30719         4.30891          3.8749
LJ          -6.45205         4.30943         2.58484
LJ          -4.30635         2.38604         5.83225
LJ          -2.37687        0.659886         2.15207
LJ          -1.38303         4.13714         1.98918
LJ          -2.33046         4.13665          2.9218
LJ           1.49693         2.14666         4.53623
LJ           2.38021         2.15102         3.65342
LJ            4.1395         4.14206        0.756019
LJ           2.15119          4.3089         6.02894
LJ           4.30293        0.656529          4.5308
