108
#Comment!
LJ         -0.798015        -3.26579        -2.61168
LJ           5.44554          4.8208         4.21766
LJ          -4.64277         5.61071         5.10329
LJ         -0.489733         4.64983        -3.93723
LJ           2.37651         6.04158        -2.35881
LJ          -4.64136        -2.52989        0.655762
LJ           6.12667         5.66827        -4.74997
LJ          -1.18973        -3.73704         1.56506
LJ          0.398432         6.45907         3.66045
LJ          -1.68246        0.176606        -2.46527
LJ         -0.120647        0.512348         5.68081
LJ           -3.1089        -5.98601        -4.58128
LJ           3.53546         -5.8793        0.905827
LJ            1.0775         -1.6866         2.51775
LJ          -2.62745        -4.77916       -0.488465
LJ          -4.97469         5.15727       0.0582832
LJ           2.88544        -1.34986        -3.26082
LJ            6.4574        -5.09146        0.637505
LJ           5.89023        -3.15395        -1.74193
LJ          -1.15181        0.672025         4.90457
LJ           3.85924         4.98178         6.06681
LJ           5.97075         3.99453         4.51761
LJ           5.48049        -5.11272        -1.63983
LJ          -4.40691        -5.28346        -1.33237
LJ          -3.64093        -2.43989        -1.60493
LJ           1.63969         1.97154         -6.0367
LJ          -5.82165        -2.90289         3.91157
LJ            3.1664        -5.93851        -2.68585
LJ           6.15878         3.98846        -3.49351
LJ           3.60645        0.525569         -4.0687
LJ           5.82633        -4.21644         1.83496
LJ          -1.46101         4.01969        -2.83377
LJ          0.398451        0.718792        0.383118
LJ          0.449109         -1.3364         5.20358
LJ          -2.46618        -6.00369         5.62585
LJ           1.95352         2.79149        -4.92697
LJ          -2.20976        0.194839         1.10655
LJ          -3.97433        0.502006       -0.783892
LJ         -0.520683         5.05214         4.43582
LJ          -5.73496         1.20905         1.23371
LJ          -3.49278        -3.52781        0.699959
LJ           4.99639        -1.10189        -4.77721
LJ          -5.21147         5.58392        -2.59066
LJ          -4.59115       -0.894095        -6.39709
LJ           5.28639        -2.08237       -0.345929
LJ          0.966716         3.11531         2.21209
LJ           2.82858       0.0649814        -6.00189
LJ         -0.333688        -4.35071         1.81669
LJ          -1.69776        -3.75045        -3.67083
LJ          -2.88786         2.33185         1.84937
LJ            4.1938       0.0570047         6.26078
LJ           3.99946         3.69564          6.0915
LJ           1.82364        -0.63652        -2.55354
LJ         -0.814297      -0.0472219       -0.120452
LJ          -2.73689         5.71919         4.67663
LJ         -0.112906        -3.38876        -5.87859
LJ           2.90555         -6.1826         5.20558
LJ           5.88108          1.0625        -4.50688
LJ         -0.373258       -0.923491         1.31563
LJ          0.475288        -4.16819       0.0728239
LJ           2.94129         6.35493         1.22208
LJ           2.85563         3.29317         5.91687
LJ         -0.641879         3.39684         4.95388
LJ          -3.33006        -3.62901        -3.17096
LJ           -4.4624        -3.24408         6.00251
LJ         -0.454059        0.429641         1.04846
LJ          -1.44979        -4.76183        -5.51865
LJ           1.06221        -6.02469         -4.6997
LJ         -0.874906         3.38975        -3.59314
LJ          -3.48798         3.00385        -5.66359
LJ           0.10238          1.8256         4.02238
LJ           2.94867        -1.75955        -1.57877
LJ          -2.87261         3.64814         3.07462
LJ           6.31527        -2.16203        -4.81983
LJ           5.33604         2.84489         0.74594
LJ           -4.0406         3.62462         5.44474
LJ           6.43635        -2.06017         5.65955
LJ          -3.70744        -2.99873        -5.70087
LJ          -1.91661        -6.09304        -1.73363
LJ           4.92548        -3.22668         1.23787
LJ          -4.02652         3.70725         1.08872
LJ          -6.43928        -6.11309       -0.398148
LJ           6.27837         6.34331         3.28313
LJ           1.15347         5.03902         0.96518
LJ           5.41612         -2.8023        -4.36909
LJ           3.26756        0.807083         2.31048
LJ           -2.0719         1.44831         4.62217
LJ           2.73969       -0.208283        -1.24415
LJ          -6.30814          4.2269        -1.24743
LJ          -4.80215         3.86306         -6.4374
LJ          -0.21818        -2.60059       -0.859779
LJ          -5.27047        -5.44883        -6.05263
LJ          -5.71841        -5.89911        0.866607
LJ          0.746071        -5.32588         -1.8313
LJ           -3.7917         5.01628         3.35816
LJ           5.70436         3.32229         2.24562
LJ           4.62251         3.10752         3.42669
LJ          -3.38381        -4.81888        0.809023
LJ          -2.17962        -3.16136        -2.07637
LJ           3.44795         0.38773        0.238273
LJ           2.78096        -1.00422        -4.63282
LJ           2.05746           4.819        -4.67279
LJ          -4.82045          3.3863        -4.22571
LJ           6.27127       -0.381776         -2.6423
LJ          -1.97936         4.61999         3.33939
LJ           4.07043         5.17002          2.0547
LJ             4.514        -5.50557        -4.12038
LJ           2.89139         2.55259        -1.55674
