108
#Comment!
LJ           5.41004        0.707105        -1.04667
LJ          -2.65889        -5.33377         6.34431
LJ           3.57418           1.008          4.6267
LJ          -2.06034         3.58759        -4.43175
LJ         -0.214188        -1.05275          3.6675
LJ           4.09948         3.35788         2.61293
LJ           3.48108         2.34986         3.56484
LJ          -5.47988        0.965612        -1.14758
LJ          -2.22244         5.23495        0.775795
LJ        -0.0692838         2.03779         4.52393
LJ          -2.53396        -1.16444         -5.2466
LJ           2.10755        -2.38139         3.51617
LJ           3.77292         5.47775       -0.207871
LJ           5.94335        -2.22214        -3.02425
LJ            6.1701        -5.09612        -5.99176
LJ          -1.21985        0.378605       -0.911247
LJ           2.05914        -2.73293        -2.48341
LJ           -2.4844         6.17868        -4.91174
LJ           4.97958        -3.64049          5.2611
LJ           4.96719        -5.93602        -3.25395
LJ          0.356307       0.0272856        -0.98175
LJ          0.132627         5.82795         3.11375
LJ          -3.69333           5.673        0.733861
LJ           2.59005        -5.76282        -5.21976
LJ           5.47614          4.7205         3.21292
LJ           1.13081        -3.94884        -3.49451
LJ          -4.84629        0.403556        -2.51274
LJ          -6.31801        -3.92701        -1.40363
LJ          -3.24169         2.83385        0.706461
LJ           3.52293        -4.00721       -0.689059
LJ          -1.28114        -1.50822        -3.21786
LJ           3.77598         1.41149        -1.14878
LJ           4.10728        -4.23658        -5.88449
LJ           4.97733         4.13865         -2.1642
LJ           2.79282        -2.50782        -4.90056
LJ           5.16565        -3.09213         2.07589
LJ          -2.87333        -1.69579       -0.755212
LJ           6.43837        -4.53516         4.21172
LJ          -5.21086        0.920466         4.38136
LJ          0.442456        0.405923        -2.74912
LJ         -0.587368        -5.09386        -2.11507
LJ           6.32272        -2.20717        -4.00166
LJ           3.86042         2.88201        -2.00039
LJ          -1.20539        -5.86028        0.479104
LJ          -5.38788         3.03965        -4.80016
LJ           1.86628         2.98997       -0.295186
LJ          -5.31501         4.06048         4.61068
LJ           6.45686         -5.2874        -3.61462
LJ           -4.1768         6.44186         -6.0182
LJ           4.34488         2.09014        -1.54575
LJ           1.29437        -2.09336       -0.913139
LJ           5.54792        -3.83446        -1.01264
LJ           1.05574         4.56593        -1.91894
LJ           1.84583        -0.08756         2.09925
LJ          -1.41077        -1.75901        -1.49068
LJ           3.41098        -4.30842         5.00937
LJ         -0.597421        -1.64424         4.40943
LJ          -2.02091        0.397442         1.16904
LJ          -3.17053        -1.77102         -2.0931
LJ           2.74018         5.48877        -5.70216
LJ           2.72619         4.24217        -1.47955
LJ           6.38943         4.43897       -0.977689
LJ           4.23651         4.95978          5.3762
LJ           1.82985         2.39998        -6.05167
LJ           5.03386         3.09407         3.55566
LJ          -4.82991        -4.83736         3.26784
LJ           5.63579         5.91589       -0.432107
LJ           2.01249        -5.25081         4.19085
LJ           2.25483        0.870896        -3.29881
LJ         -0.304672         3.89549        -3.69407
LJ           1.52676         -1.9765        -5.40835
LJ          -1.33608         2.88132        -3.41213
LJ           3.63685        0.116392        -1.02898
LJ           6.18862          1.4188        -1.38155
LJ           1.50936          5.6604         1.29008
LJ           2.66244        -2.63683       -0.474688
LJ           5.38145        -6.03481          4.9804
LJ          -5.00834        -5.28499       -0.453787
LJ           4.67882         4.95777       -0.346723
LJ          0.766439        -5.70464        -3.46441
LJ           6.18452         5.18721        -2.47648
LJ           4.75403         5.56364        -4.13734
LJ          -5.01344        -6.25181         5.65434
LJ          0.972875         1.65535         2.20961
LJ           5.52763         4.39977       -0.121954
LJ           3.75226         3.33083        -5.12551
LJ          -2.95773        -6.31207        -5.99187
LJ          -5.16945         2.55214        -1.48501
LJ          -4.61345        -1.89061       -0.109158
LJ          -5.95769        -6.16967        0.848369
LJ           4.52984         1.32713         5.51223
LJ         -0.162491         5.35456         -2.0027
LJ          -4.06303        -3.78972        -3.82693
LJ           4.07239         1.99894            4.33
LJ          -2.21779        -5.14547         1.56679
LJ           5.71932         3.29165       -0.979767
LJ           3.64918         2.90088        0.872081
LJ          -3.89505         1.95484          2.3669
LJ           -4.3417        -1.93307        -5.56504
LJ           3.76053         4.49852         1.26002
LJ         -0.893921       -0.525317        -5.17882
LJ          0.169335       -0.722812         4.85177
LJ          -3.16613          -2.226        -4.86882
LJ           4.45975        -5.84064        -4.29676
LJ           1.57967        -4.06089         1.96263
LJ          -5.38266        -4.02043        -3.95922
LJ          -2.46697       -0.542694        -6.00114
LJ           3.62753         1.36491        -2.92907
