108
#Comment!
LJ           4.04286         6.03042        -4.37377
LJ           3.60352        -5.43168         2.86834
LJ          0.471884         2.55701        -5.98568
LJ           3.72484        -4.90699        -4.07932
LJ           5.18504         -1.0793         2.39117
LJ           3.48027        -2.22346        -2.73092
LJ           3.73093        -4.83021         1.32556
LJ          -2.70342         1.58994         5.99406
LJ          0.337352         1.15359        -5.44354
LJ          -3.63408       -0.947126        -3.43336
LJ           4.67028         2.85492        -5.13537
LJ           1.59933         1.05114        -1.36131
LJ          -4.17492         3.31752        -4.23244
LJ          -3.25565        0.212558        -5.47567
LJ           4.95895         2.87198        -6.12666
LJ         0.0527357         3.20873         5.02844
LJ           -2.8522        -3.98137         1.60551
LJ           3.24091         6.36705        -6.30644
LJ          -1.14078       0.0594257        -1.91338
LJ           -6.1914         1.83324        -4.01183
LJ           -4.7678         1.11308         5.62789
LJ           5.29155         3.61724        -4.36105
LJ          0.721084         1.67206         2.50954
LJ           5.77026        0.821315        -4.60746
LJ          -0.95001         5.81234         5.00551
LJ          -1.61153         6.23555         2.45926
LJ          -3.01157        -5.33875        -1.87423
LJ           -3.0779        -2.38248         0.39976
LJ           5.23891        -3.65104         3.03745
LJ          -2.61354         5.18535         5.20307
LJ          -3.44825         3.22987        -5.57991
LJ          -5.96005       -0.543762        -2.98287
LJ           -1.7893         4.71609         2.12732
LJ          -3.98723        -5.72976         -1.2583
LJ          0.786951        -6.35149        -3.06048
LJ             -4.18        -4.12525        -2.74258
LJ          0.602834       -0.749983        -5.33894
LJ           2.18949         5.82109         2.46929
LJ           1.16998        -6.07774        0.540661
LJ          -2.80905        -1.54833         5.09398
LJ           3.75459         1.69699        0.977955
LJ         -0.449603          1.9801         2.27245
LJ           4.74135         -6.0637         5.20729
LJ          -5.60616         -5.3517        -4.71992
LJ          -3.35064        -3.91846      -0.0172721
LJ           1.17917         6.37141          5.0062
LJ           2.56553         1.47734         5.84593
LJ           3.92547         3.05112         1.26678
LJ          -4.06275         5.07435         -5.4383
LJ           3.87666         3.51517         2.53062
LJ          -3.94298        -1.30219         -4.6566
LJ           1.40369         1.96062        -2.38488
LJ          -4.96237         3.61356        -3.67212
LJ         -0.868688        -1.53247         1.25852
LJ          -6.15736        -2.06829        -1.10754
LJ         -0.824618       -0.316878         2.51848
LJ          -4.04683         3.76926        0.921322
LJ         -0.703608         4.92212        0.892953
LJ            6.3228         4.01238         3.61401
LJ         -0.867028         3.35138        -6.09297
LJ          -1.55663        0.399817         1.10361
LJ          -4.73596        -4.39998         1.39473
LJ          -5.05614         5.91872        -1.83494
LJ           6.27252        -2.46404         5.40703
LJ          -4.56448       -0.781474         5.34197
LJ           6.44501        -4.01112        -4.77599
LJ           4.90869        -6.16362         1.01287
LJ           1.63896        -5.49291        -4.13996
LJ           1.26058         6.05334        -4.05106
LJ          -4.10331         1.54501        -5.62945
LJ           2.80315          4.3016         6.19792
LJ        -0.0137296        0.588817         5.01398
LJ          -1.00775         4.03112         6.10642
LJ           3.22286       -0.681348         -2.7681
LJ          0.142189         4.41094        -5.57908
LJ           5.93559        -4.90516        -2.21425
LJ           4.41788       -0.355581          1.9407
LJ           3.11249        -2.01078        -1.34471
LJ           3.20892        0.825561       -0.568977
LJ           1.64109        -2.24385          1.7348
LJ           1.87407         3.51992         1.70123
LJ          0.338619         1.57323          3.5306
LJ           3.23222        -1.33825        -5.12181
LJ          -2.37019        -3.28604       -0.476225
LJ           1.90216        -2.62917        -2.21162
LJ         -0.637629         5.47834         6.16835
LJ           2.20524        -4.38526         6.06741
LJ           -6.0916         1.88159         3.52318
LJ          -2.81826        -2.27544        -3.89206
LJ          -3.30046         2.90401         4.91993
LJ          -4.58393        -1.22928         3.98423
LJ          -5.18956         4.59486        -5.90987
LJ           1.26466         3.17137        -3.37715
LJ          -1.63753        -5.74895        -1.50456
LJ           -6.1072        -5.41358         3.94882
LJ           5.81512        -3.09708        0.516792
LJ           2.79073          5.3058        0.168852
LJ          -4.75419        -1.96938        -2.25393
LJ           -3.2624          6.2578        -2.17876
LJ           3.79932         3.06886        -1.37842
LJ          -2.60062         4.28135         3.28776
LJ            6.0602          3.8305         1.68466
LJ          -5.92756        -3.48034        -2.46245
LJ            3.9583        -5.49044       -0.329984
LJ          -2.86442       0.0574979        -3.63469
LJ          -5.85728        -6.35875         4.75373
LJ           0.34519         5.78161        -6.29164
LJ          -4.15422         1.46556         4.62484
