108
#Comment!
LJ           1.60438         1.81963        0.908622
LJ           1.51373       -0.450636         3.33983
LJ          -2.63293         4.47634        -4.74789
LJ          -1.91457         -5.8842         2.40436
LJ          -3.52333        0.704486        -3.11017
LJ           3.75146         3.30873         3.02422
LJ             3.173         3.38861        -5.53516
LJ          0.723965       -0.224971        -4.67101
LJ          0.338184        0.926227        -3.09751
LJ           1.14429        -5.83856        0.785408
LJ          -4.61213       -0.462183        -2.23673
LJ           5.74391         1.85691        -5.00729
LJ          -3.84227         -2.9354        -5.98576
LJ           4.50404        -6.37142        -1.12006
LJ           1.98069         2.73868         6.25213
LJ           2.04194        0.657365        0.132395
LJ         -0.818802         5.64679        -1.56898
LJ           6.08772         4.71689        -6.33587
LJ           5.23014        -6.03197        -6.00819
LJ          -3.24289         6.20886        -4.29892
LJ          -2.65165        -6.04877        0.127303
LJ          -5.08311        -4.29167        -3.16037
LJ           5.92052        0.191584        -2.48301
LJ           2.11015        -1.42591         5.08859
LJ          0.447877       -0.889197         6.27233
LJ          -6.11216        -5.87178         3.54626
LJ          -4.21987        -2.06837         5.21634
LJ           4.35525       -0.546063         3.38934
LJ           3.94082          5.0166        -1.89043
LJ          -6.26432          4.0724        -3.08773
LJ          -2.20716          1.1105         3.31166
LJ           4.84247        -1.29496        0.147761
LJ           4.54949        -2.51472        -3.65293
LJ          -5.04032         0.41442        -3.06364
LJ           3.16027        -4.57113        -1.25517
LJ       -0.00538603        -5.15282       -0.125984
LJ           1.41457        0.779174         2.62706
LJ           6.08015         1.04551         4.27558
LJ         0.0982578         2.52879        -1.44407
LJ           -4.2857        0.297131         -1.6859
LJ           6.23988         5.65994        -2.09726
LJ          -6.39171        -5.37758        0.434848
LJ          -3.85788         2.95463         3.94277
LJ          -4.68788         -4.0465        -4.33175
LJ           4.58861         3.28353         3.67773
LJ           2.18065         3.22939         1.90696
LJ          -1.35883        -5.83663        -3.00121
LJ          0.786227         1.25053        0.905529
LJ           1.14505         2.51827         3.26519
LJ           -5.6696        -1.65258         4.77598
LJ           5.71621        -1.75753         6.13538
LJ           1.93624        -5.33695         5.84003
LJ           4.70286        -4.53505        0.917267
LJ           2.02616         3.28139        -5.29712
LJ          -2.01934        -3.37909        -5.56782
LJ          0.761949         4.06869         0.84609
LJ           4.43378        -5.19637        -1.42532
LJ           6.44056         1.95056         4.58207
LJ           3.95982         2.77573        0.165792
LJ           2.01967         3.86121         -1.4454
LJ          -4.56005         5.97778       -0.862491
LJ           4.16928        -2.50485        -6.41859
LJ           -3.7477        -1.18974        -3.70913
LJ          -2.25193        -3.05457         4.92018
LJ          -3.75074         1.43327         2.82738
LJ          -2.90108        -5.43332         1.35865
LJ          -1.81837        -2.43347         -6.2066
LJ          -5.04955         -5.2355        -3.51677
LJ           4.11836        -2.79231       -0.232012
LJ           4.51855         3.30121         4.97246
LJ           1.11497         6.43288        -3.78182
LJ           1.68481          6.2042        -1.65482
LJ          -3.37507         6.18996         4.71162
LJ           6.09273        -2.24169         4.49421
LJ           4.30976         4.45129           3.912
LJ           1.70601          4.1235         2.76059
LJ            2.8468        0.764026        -5.18846
LJ          -3.36128        -4.14138        -5.85877
LJ           3.78183        -1.49835        -4.77358
LJ          -5.61704         4.13184         4.59541
LJ          -5.79368       -0.125586        -6.44063
LJ           2.26608        -4.13064         5.82231
LJ           4.88415         1.19961         3.74223
LJ           -2.7819         2.10803        -6.39316
LJ          -2.66676         6.32767         2.89522
LJ          -1.48267       -0.475823         4.82576
LJ           5.80391         4.81389         3.28164
LJ           3.86661         1.74941         3.26672
LJ          0.960824         2.87857        -5.81228
LJ          -2.08563        0.540844         4.17142
LJ        -0.0441354        -4.70399        -1.39169
LJ           2.69431        -3.00311        -5.30979
LJ          -2.97112        -2.81792        0.877149
LJ           6.07174        -2.82496         1.93254
LJ           1.72667        -2.01669         2.62104
LJ          0.555356       -0.045139        -3.63631
LJ          -3.03455         2.69525         -3.3877
LJ          -5.00128         1.12602         0.65574
LJ           5.39581         6.02488        -1.80043
LJ           5.84029       -0.543483       -0.658388
LJ           1.13028        -0.26007       -0.132957
LJ           0.30473         4.50743        -3.87104
LJ           4.16979        -1.75103         5.05261
LJ          -5.72601        -4.09629        0.520676
LJ         -0.184331         -5.9904        -1.62452
LJ          -4.36015        -5.34891        -1.24019
LJ          -4.05569        -5.29352        -5.29481
LJ          -5.86621        -2.70192       -0.380024
