108
#Comment!
LJ          -5.79304        -6.42962         3.42628
LJ           6.23323         4.42469        -3.77797
LJ           1.03108         6.09075         3.69583
LJ          -6.12192         1.26224        -6.29591
LJ           1.19105        0.634154        0.641854
LJ          -6.18225         4.29718        -2.95903
LJ           2.26576          4.2947       -0.924941
LJ           3.36889        0.582595          4.8877
LJ           5.01864        -5.47748        -3.86265
LJ          -1.89825         3.56626       -0.591246
LJ           5.18673         1.24874         -6.3743
LJ          -4.76193        0.933191         -3.3638
LJ            2.9157        -4.80185         -1.1374
LJ           2.69947         1.40513         5.99059
LJ          -2.35867          6.3807          -3.913
LJ          -5.85253         5.30628        -3.15958
LJ           2.28789        -3.85728        -2.42937
LJ          -1.21351        -2.09193        -4.23039
LJ          -2.97902        -1.65562         5.32608
LJ          -3.57869       -0.369989         5.46561
LJ          -5.50646         4.67118         4.41408
LJ           1.04718        -2.24803         5.53771
LJ           1.53384        -5.32125      -0.0385153
LJ          -3.32984        -2.49099         0.20472
LJ          -4.43108        -0.77351         -3.1548
LJ           1.36987       -0.953007        0.469282
LJ           4.33011        -1.18561        -4.39056
LJ           4.61599        -4.27126          4.2795
LJ           2.32781        -4.50195         5.31597
LJ          0.737718          -2.284         2.42235
LJ          -4.14736         5.87493        -2.03066
LJ           -5.6197         4.83392        -5.63975
LJ          -4.87425         -2.8836        -1.88158
LJ           4.70316        -3.26249       -0.143769
LJ           1.70744        -5.23538         4.43663
LJ          -2.26463        -2.10148        -4.27288
LJ          0.106055        0.867847        -2.23527
LJ           5.94881        -3.47375        -5.05609
LJ          0.448167         3.69998        -2.79435
LJ            4.6314        -3.69128        -3.59234
LJ           3.69976        -5.99552        0.115726
LJ          0.451553        -2.87722         4.43216
LJ           3.58772         -1.2433       -0.815693
LJ           -5.8055        -2.77577        0.301362
LJ           6.03829       -0.282173        -2.20611
LJ         -0.231245        -4.92258        -5.50886
LJ         0.0818751        0.173935     -0.00503606
LJ           5.60112        -3.46374         4.09731
LJ           3.63032        -0.55278        -1.79857
LJ          -2.53303        -2.04225        -6.40176
LJ         -0.364439         2.89943         -5.9545
LJ           1.26193        -4.00064        0.630484
LJ         0.0347519         1.44483         4.50494
LJ          -4.37811        -1.08421         5.04101
LJ          -2.76783        -3.40111         3.23145
LJ          -2.93432        -2.93329        -3.95416
LJ           3.56471        -4.83056        -6.41994
LJ           6.11881         2.91394         3.27803
LJ           5.50335        -4.42104        0.175405
LJ           -4.3411        -2.46889         2.98975
LJ           1.36795        -3.83436        -2.02456
LJ           1.67359         1.98087        -2.09918
LJ           4.13681        -6.30545        -2.30075
LJ         -0.533308         2.17803         5.86734
LJ          -1.91686        -6.15196         4.44634
LJ          -3.28457         6.22627        -3.15773
LJ           2.21318       -0.466142         3.90824
LJ         0.0208615        0.667283         2.87673
LJ          -2.26306        -3.50416          1.2197
LJ           2.05323        -3.33855        -4.24837
LJ         -0.271599         2.58735         4.44184
LJ          0.825003       -0.205706         1.25706
LJ          -1.58564        -1.85727         2.68296
LJ           5.56722        -5.89478        -5.44661
LJ           1.18371        0.164329         3.66057
LJ           3.35487        -1.58625         2.17872
LJ          -6.08151          6.0567        -1.83314
LJ            5.0343        0.551066        0.320072
LJ          -5.49932        -6.37875          1.5128
LJ          0.621656          3.5621         4.57137
LJ           6.19469         2.02981        -5.87523
LJ          0.281716        -1.94638        0.163077
LJ           4.21703        -2.05115         4.03734
LJ          -5.18336         5.89463        -4.03284
LJ           5.21512        -2.13192        -1.04536
LJ           1.12438        0.438295        -5.37908
LJ          -2.00472         -4.0757         5.74768
LJ           1.68767         6.37987        -2.13937
LJ          0.735474        -2.69213        -6.27561
LJ          -1.44603        -2.83583         5.93537
LJ          -5.24129        -4.62406        -2.31597
LJ           4.84208         6.01663         2.20963
LJ            1.2995         3.35483         5.60265
LJ          -4.64673        -2.61665        0.876432
LJ          -2.60375        -2.60127        -5.38916
LJ           4.92785        -4.59763         -6.3492
LJ          -1.82021        -1.74134         5.83533
LJ           5.10888         2.61331         -4.0003
LJ          0.592087         2.00066        -1.65457
LJ          -5.67026        -4.39395         5.29115
LJ          -1.54153         -4.1091        -4.55681
LJ          -5.00275         4.68423        -4.90126
LJ           3.90568        -2.04497         5.34371
LJ           4.22533        -4.75688         2.37012
LJ           1.94708         5.32333         1.23923
LJ           1.41912        -4.70533        -3.40489
LJ           4.62399        -5.47286         4.05011
LJ           2.77429         3.12008         5.64656
