108
#Comment!
LJ        -0.0144929         2.57239        0.515485
LJ           6.19407         5.62702        -4.03343
LJ          -4.23448         -1.6935         1.71931
LJ           4.54855           2.245         -4.6857
LJ           2.31821         1.50127         -3.9105
LJ          -5.29243         1.91319         4.11714
LJ          -2.60415        -2.05023       -0.835708
LJ           2.68023        -4.17932        -6.26588
LJ           1.35591        -5.83345          1.1999
LJ         -0.415392        0.176746       -0.430607
LJ          -5.63282         5.12067        -1.17438
LJ          -5.56168         3.35915        0.783772
LJ          -1.39061        -4.83054         6.02158
LJ          -1.53734         4.97914         5.74167
LJ           3.42827        0.636879         3.90354
LJ          -4.42052        -2.93531         3.58087
LJ          -1.99759        0.421844         5.53662
LJ         -0.566479         1.92849         4.89878
LJ           4.41226         3.06512          4.5593
LJ           -1.2831         3.02338         4.38641
LJ           4.86839       -0.679497         1.48063
LJ          -3.23788         5.72471         4.86997
LJ          -4.09229        -2.92347        -0.34375
LJ           2.19747        -3.70011         4.00465
LJ          -6.04674        -3.05462        -4.63503
LJ          -2.09968        -1.50915        -4.14928
LJ           2.44516         2.47339          -4.118
LJ          0.338872        -5.97268         6.09508
LJ         -0.226195        -4.11744        0.802855
LJ           -1.8586         1.30124         -6.0216
LJ           3.54975        0.937949        -2.91274
LJ        -0.0434288        -6.44416         4.63486
LJ          -2.65652         4.11204        -5.06529
LJ           5.05906         -5.5892        -1.03406
LJ          0.308367        0.368281        -4.23358
LJ           4.89974        -6.11736        -4.26316
LJ          -2.21736       -0.425526         5.14087
LJ          -6.35246         1.58253         6.04742
LJ          -3.42867        -3.42388        -4.85632
LJ          -2.75537         0.86892         4.07667
LJ           6.43479         2.66976       0.0233543
LJ         -0.252618         5.44802         5.18323
LJ          -2.90576        -5.70527         2.17297
LJ          -5.12831        -2.23116        0.012093
LJ           2.61878         1.02459       -0.373492
LJ           5.29454        -5.34214         4.54058
LJ            4.4212          -2.556        -5.00879
LJ            3.0581        -3.26686        -5.56735
LJ           2.28178         3.01067         5.90903
LJ          -3.99204        0.101979          2.3249
LJ           6.06996        -3.46195        -5.45263
LJ           1.28872         4.59355        -4.61604
LJ            4.6899        -3.03183        -2.76525
LJ           6.10648         3.63692         5.37411
LJ            2.0716         3.99342        -5.55591
LJ          0.732592         5.81706        -3.12796
LJ           -5.5953         4.45357         0.72471
LJ         -0.642994         2.50852        -2.03938
LJ           1.28495        -0.75843         1.74076
LJ          -4.85982        -2.64606         6.44679
LJ           2.23218        0.947187         3.61697
LJ           6.40118        -2.93202         1.66996
LJ          0.187544        -6.06169         1.61768
LJ           4.29575         5.84181         1.22711
LJ          -5.71721        -3.04999        -1.96878
LJ          -1.36916         6.07658         3.20009
LJ           5.15776         -3.3313        -4.93605
LJ          0.777292        -3.17434        -5.46993
LJ           5.66829         2.98962         1.78862
LJ          -2.60977        -2.68969        0.269867
LJ          -3.33773         3.43698         1.91762
LJ          -2.58491        -2.19423        -3.36552
LJ          -2.09064       -0.325766         1.51714
LJ          0.352994       -0.336902         0.41268
LJ           3.07336        -2.37824         5.20603
LJ          -2.10413        -3.45404         2.31529
LJ          0.968135         1.26951        -3.51455
LJ           6.43159         5.54587        -2.52459
LJ          -6.07916        -4.95094        -5.11772
LJ           -5.9472         6.25859        -3.65658
LJ          -2.53319         2.28943        -1.56278
LJ           5.39963        -4.44801       -0.131941
LJ        -0.0798339        -4.82879          5.7296
LJ          -3.95738         5.50189       -0.912962
LJ          -3.75677       -0.761483        -2.47461
LJ         0.0339641        -3.91856        -5.68922
LJ           5.41706         2.72299       -0.626727
LJ          -4.37482         6.31342         1.38582
LJ          -2.55205         2.37711         5.04609
LJ          -5.78662         4.11509         5.37415
LJ          -5.46886        -6.11925       -0.753568
LJ          -5.57941        -0.77647        0.159524
LJ           2.25567         3.53851        -3.75283
LJ          -3.97516         -1.8265        0.498532
LJ          0.633726         2.00783       -0.374885
LJ           5.86482         0.68814         3.87795
LJ           -5.4886        -1.29407        -4.03886
LJ          -3.72086        -1.76948        -1.89939
LJ           1.32011         1.48898        -5.57115
LJ           -1.8646       -0.892265       -0.560407
LJ           1.78714         1.96476        -1.24976
LJ          -5.71666         5.84962         3.24541
LJ          -4.23774        -3.87974         2.72466
LJ         -0.991285       -0.261311         5.43956
LJ          -1.57388         -4.4897       -0.569757
LJ           4.09816          1.6238         4.12097
LJ           5.81249        -4.91458         6.42378
LJ           2.61468         2.07419         2.49262
