108
#Comment!
LJ           2.96161        -1.31968         1.75394
LJ           2.99223         1.73087         2.08482
LJ          -5.97894          1.5741        -0.94856
LJ          -4.14235        -1.87911        -0.85447
LJ            1.7509         5.34661         6.28242
LJ           1.15112         3.37372        -2.90795
LJ           3.44248          1.1513        -6.29625
LJ           2.24931         3.03414        -5.92139
LJ          -5.48825        -3.90679        -0.74346
LJ          -2.66893         3.24356        -6.00442
LJ          -1.35236          -4.577          5.3255
LJ            5.2882          3.0078        -2.38298
LJ           4.99354        -5.21791         -4.0035
LJ          -1.73349       -0.565408         4.63655
LJ          -5.27569        -4.41024         6.04702
LJ          0.445456        -1.19495         6.41117
LJ          -3.02045         3.10282        -2.89734
LJ          -5.45928       -0.523224         3.69466
LJ          -4.77635        -3.93723         2.63225
LJ           -3.5309        -1.42091         5.82431
LJ          -5.67999         2.45726        -5.46759
LJ         0.0130078       -0.277484        0.703135
LJ           3.65944        -5.43862         1.90783
LJ           5.91609       -0.879873         1.84795
LJ          -1.89514         1.86183          4.0573
LJ           5.08314        -4.11011        -2.88732
LJ          -2.32331         1.28641         3.22019
LJ          -6.13498       -0.956785        0.393701
LJ           4.44402        -3.92378         5.94428
LJ           -1.3419         1.47377        0.540113
LJ           1.23238        -6.32657        -3.34595
LJ          -1.68408         1.21678        -5.23542
LJ          -6.34951         4.75866        -4.38211
LJ          -0.52372         2.69906        0.548988
LJ           2.34302         2.28063       -0.326518
LJ           2.65904         1.38002         5.52208
LJ          -6.14889        -3.42737        -4.68408
LJ          -5.18218         -4.1874         4.96276
LJ           5.15625        -1.20567         4.84435
LJ          -5.73496         -3.0559         3.87204
LJ          -6.43826         2.04157        -2.12373
LJ           1.03002        -5.03523        0.763239
LJ          -3.25032         1.59992        -1.41486
LJ           3.08679        -3.82389        -3.73831
LJ          -1.57283       -0.802225       0.0216256
LJ         -0.794219       -0.709442         5.43727
LJ           3.81156        0.131786           6.323
LJ           5.67237       0.0255341        -5.39283
LJ             2.107        -1.86185       -0.531036
LJ          -6.26805        -5.58685         2.78811
LJ           4.99393         2.10407        -5.22864
LJ          0.760447         3.39357        -4.34848
LJ          -5.21282        -2.41576        -5.75217
LJ          -3.21523        -5.02566         4.17897
LJ            2.2704          1.2077        0.175953
LJ         -0.506889        0.577282        -3.65777
LJ           3.18228         4.55863        -4.84618
LJ           5.03542         3.08809         4.82604
LJ          -6.06461         3.73286        -1.75999
LJ          0.781478        0.234755        -1.04439
LJ           4.54456        -3.79545        -1.73593
LJ           2.23463        -5.29859         3.82111
LJ          -5.34563        -6.17305        -1.70172
LJ           4.37325         2.31865        -2.87661
LJ           4.98788         1.92386        -4.00572
LJ           -1.0868        0.497743         1.78275
LJ          0.615815         1.04129         3.99797
LJ          -4.66062        -1.94974        -3.51682
LJ          -1.99332         1.77886        -3.53841
LJ          -1.59003         1.14612         5.15252
LJ           5.84657        -5.41154        -4.63485
LJ          -3.11089        -2.00321         0.48517
LJ          -5.31594         4.84772         2.88198
LJ          -4.72934        -3.21192         3.40656
LJ          -3.11797        -3.56005         -5.2523
LJ          -5.61258        0.226987         1.08886
LJ          -0.12906        -4.82823        -1.45384
LJ           2.79383        0.392308         5.88068
LJ          -5.28802         -3.9475        -5.11195
LJ           3.38083         4.17757        -1.90182
LJ           3.39664        -5.45059       -0.206409
LJ         -0.486916         0.51695         2.70167
LJ          -4.75484         1.84005         4.31157
LJ          -2.13667         5.38813        -1.15409
LJ          -1.29401        -2.74994        -1.07444
LJ          -4.36434        0.945752        -1.11485
LJ          -4.73472        -3.01585         2.00891
LJ          0.216208         1.60641        -2.90022
LJ         -0.268962         5.18641         4.27325
LJ          -5.28165        -2.15935       -0.196701
LJ          -5.06686        -1.14874         1.26511
LJ           3.90369          5.7722        -2.95675
LJ          -2.93235          2.9604         2.52181
LJ          -2.91551         5.25928         4.84182
LJ          -4.26204         1.80407         3.25442
LJ           4.28288        -4.64047         2.53425
LJ          -2.12637       -0.658421          5.6963
LJ         -0.553716        -1.46681         6.45685
LJ          -5.38262         3.14938        -4.13978
LJ          -2.55345       -0.171929        0.895445
LJ           3.20301        -4.50698         1.82807
LJ          -5.68756        -1.44173         2.16979
LJ           2.19325       -0.327309         4.40928
LJ           5.66861       -0.955284         -4.3839
LJ          -1.09242        -3.24737        0.502895
LJ           4.16897        -1.06057        -5.91936
LJ           2.10744         5.09057         5.01976
LJ           2.92792         2.52023         5.90856
