108
#Comment!
LJ           6.05907        -5.52032         2.53473
LJ          -5.93731         5.76127        -4.73433
LJ          0.953679         5.80657         2.61468
LJ          -5.57153         1.23492        -5.93496
LJ           1.82609         2.50178         2.02754
LJ          -5.82126         4.09944        -1.74031
LJ           3.50545         4.29426       -0.967224
LJ           2.32418        -1.85507        -5.57418
LJ           4.62663         4.96792        -2.93983
LJ          -2.63815         3.00417      -0.0395063
LJ           4.63822          2.0096        -6.07814
LJ          -4.68989         0.47594        -4.26962
LJ            3.5237        -3.97665       -0.288481
LJ           3.90605         1.66007         6.15748
LJ          -2.16002        -5.89453        -5.18935
LJ          -5.69094         5.85033        -2.87497
LJ           1.29145        -3.14057        -3.13335
LJ         -0.269665        -1.58606        -3.81862
LJ          -1.70187        -1.19064         6.21703
LJ           -3.8412         -1.0839         6.38314
LJ          -4.48649         4.49315         5.07226
LJ           0.32197        -2.13015         3.62815
LJ           1.82328        -5.94526       -0.787158
LJ          -2.52627        -2.43427       -0.322682
LJ          -4.90672        -1.22136        -3.85732
LJ           2.47878        -0.91557       -0.716481
LJ           4.61763         -1.1837        -4.32753
LJ           4.82673        -4.22357         3.73424
LJ            2.6085        -3.95134         4.86464
LJ          0.656898        -2.74604         2.85674
LJ           -5.2964         4.80961        -2.27267
LJ           5.96637         4.51011        -5.37056
LJ          -4.35509        -2.77335        -1.90509
LJ           4.63598        -4.22554       -0.448676
LJ           2.67642        -5.42013         4.47393
LJ           -1.5425        -3.57405         -4.6382
LJ          -1.14933       -0.213514        -2.00293
LJ           5.87513        -3.43477         -5.2213
LJ          0.423296         3.53235         -3.0128
LJ           3.44076        -2.74645        -3.47239
LJ            4.4742        -6.20449       -0.950327
LJ         -0.932582        -2.57358         4.10859
LJ           3.20354        -1.24293        0.254616
LJ          -5.15447        -2.85347       -0.631512
LJ          -6.28518       -0.553351        -3.96192
LJ         -0.512167        -5.15093        -4.61849
LJ          0.707447       -0.200182        0.354325
LJ          -6.02654        -3.18493         3.00879
LJ           4.16131        -2.46521        -1.49253
LJ          -1.51049        -2.05689        -6.00506
LJ          -0.72942          3.3719         6.39917
LJ           1.44245        -3.16889          1.2489
LJ          0.084289         1.53312         5.78069
LJ          -4.84709        -1.77561         -6.3562
LJ          -3.61549        -2.59293         3.34548
LJ          -3.21996        -4.22569        -3.89184
LJ           2.75236        -5.47602        -5.05839
LJ           4.41763         3.52991         3.31165
LJ           4.60241        -4.13522         1.43386
LJ          -4.57564        -2.98759         2.37606
LJ           0.24904        -2.97736        -1.53204
LJ            1.5167         1.94563        -2.97179
LJ           5.24713        -6.03852        -3.10165
LJ         -0.401609         2.29993         6.30129
LJ          -2.60577         6.35982         5.50275
LJ          -4.40351         5.81777        -2.78994
LJ           3.12809        0.435005         4.14509
LJ           1.03692        0.658734         2.33719
LJ          -1.74269        -2.17047           1.152
LJ          0.625026        -2.51594        -3.70269
LJ          0.241457         2.09521          4.3106
LJ          0.696175      -0.0602636         1.44501
LJ          -1.99754        -1.69182         3.21811
LJ           4.78308         5.93356        -4.16029
LJ           1.76019         0.19939         3.19819
LJ           3.39892        -3.68905         1.57357
LJ           6.17072         5.47964        -1.31242
LJ           4.65016       -0.803765         1.83516
LJ           6.24032        -5.41329         1.57229
LJ         -0.119668         3.80013         5.21968
LJ          -6.34517         2.45159        -5.30175
LJ         -0.812306        -2.19433        0.478191
LJ           4.12735        -2.63836         3.62708
LJ          -5.35874         6.11355        -3.87343
LJ           5.72102        -1.73736       -0.392319
LJ          0.503201        -0.25754        -5.50762
LJ          -1.44532        -3.75632        -6.25269
LJ           2.57799         -5.7951        -2.50646
LJ          0.290894        -2.74732        -6.33987
LJ          -1.35551        -3.64662         4.00941
LJ          -4.47745        -4.31049        -1.37744
LJ            6.1838         5.81876         2.86655
LJ           2.23593         1.70353         5.27228
LJ          -5.67052        -3.12437        0.831207
LJ          -2.46787         -2.4025        -5.25342
LJ           5.81724        -4.90599         6.26842
LJ           -2.5419        -2.62155         4.12868
LJ           5.34193         2.03002        -3.52798
LJ         -0.475071         2.07338        -2.09812
LJ           6.30863        -3.70216        -6.16643
LJ          -2.28082        -4.45167        -5.05928
LJ          -5.00921         4.68315        -4.01377
LJ           4.83825        -2.48899          4.6285
LJ           4.13112        -4.44005         2.65016
LJ          0.531526         3.97878         1.96253
LJ          0.770516        -4.72215        -3.30718
LJ           4.40159        -5.96655         4.64694
LJ           2.25448         4.38876         5.17524
