108
#Comment!
LJ          -3.44349         6.30645        -6.39134
LJ            1.6937         4.98246         5.85165
LJ           4.72259         3.21778        0.650872
LJ          -3.68845        -3.28747          4.2259
LJ         -0.780924        -5.83002         5.25416
LJ           1.18182        -3.70639         5.81903
LJ          -5.32007         2.22266        -3.92655
LJ           3.16045         3.26326        -3.97274
LJ          -2.75173        -3.53334           4.935
LJ             3.774        -3.60785         1.35108
LJ          -4.68369        -2.78886          4.1879
LJ          -2.06013        -6.37431        -6.12604
LJ          -3.02098         1.43037         1.56069
LJ           2.03573         1.18907       -0.489304
LJ           4.66535         3.48161         4.30768
LJ          -3.86609        -4.97275        -3.14753
LJ          -3.49219        -3.61952         5.93854
LJ          -2.86363         4.13244        -4.78692
LJ          -2.56924        -5.23955         3.20504
LJ         -0.425736        -3.22241         1.78247
LJ           2.15881        -1.13448         4.11159
LJ           3.28187       -0.578107         -3.0957
LJ          -3.92063         1.79253        -3.32162
LJ          0.289518         3.44076        -3.26767
LJ          -5.59296         3.54402        -4.50246
LJ           3.48144       -0.952592        -4.84873
LJ          0.449552       -0.923887        -2.57034
LJ          -5.18518         5.53911       -0.586073
LJ           -2.2502        -6.14635         0.89042
LJ          0.851742       -0.820067         5.52915
LJ          -3.36725        -6.03692         4.57761
LJ          -5.23114        -4.74977         2.85363
LJ           6.31131         2.09166         1.34001
LJ          -5.37702         4.33316         6.22742
LJ           6.22562        -4.67544         -3.8005
LJ           4.59807        -1.89109        0.129374
LJ           2.48711          3.9518         1.49822
LJ          -3.28031       -0.616584      -0.0270676
LJ           1.95795         3.10176        -1.44286
LJ          -1.52852         2.93779        -2.95617
LJ          -3.45864         6.41403        -4.51107
LJ           4.90273        -3.95354        0.523923
LJ           2.83159         5.04058        -2.33658
LJ          -3.18508        -2.82577        -3.71124
LJ          -1.84378         0.67112           3.179
LJ           1.22198         3.02088        -5.18725
LJ           5.93236         5.48429        -3.06084
LJ           3.03507        -2.64057         1.64148
LJ          0.942271        -2.64259        -4.38674
LJ            5.5972         3.00113         4.68067
LJ           2.83733        0.618485         5.77426
LJ         -0.367436         4.44472         5.76979
LJ           5.53668         5.69444        -5.56927
LJ         -0.942764        -5.42743         6.27077
LJ          -5.97028        -2.14393          2.2437
LJ          -3.19613        -5.36371        0.195156
LJ          0.169286         1.46851        -2.52689
LJ         -0.935619        -4.17384        -4.66141
LJ          -4.61556        -2.51758        -1.31794
LJ          -4.94943        -5.86917        -5.25069
LJ           4.23552         4.10605        -6.31859
LJ           6.04172        -5.57146         1.49085
LJ           5.08548         1.06106         4.26342
LJ           2.37647         3.86061        -5.30718
LJ           3.67835        -0.53197         3.36695
LJ          -1.17906         6.32277         1.47916
LJ          -4.39575        -0.14914        -3.62657
LJ          0.991791        -2.21364         5.31253
LJ           3.84316         5.50571        -5.99331
LJ          -3.15145        -2.22579         2.63719
LJ          -6.08248        -5.64358         4.33717
LJ         -0.765011        -1.22967         4.13583
LJ          -6.10473        -6.41146         0.95758
LJ           1.46634        -4.19703         1.19549
LJ           4.20273        -5.54543         -1.4273
LJ           5.00889         5.27394         4.29283
LJ           5.76253        -5.14455       -0.241463
LJ          -5.91639        -2.62454         0.38285
LJ          -3.89325        -1.70182        -6.39369
LJ           4.36316        -5.28392         1.98036
LJ           3.24485         2.93376       -0.498366
LJ            6.1052         3.62837         4.12643
LJ          0.282993        -4.40181         5.81276
LJ          -2.60801         3.34503         5.21603
LJ          -2.88879         6.15864        -1.67504
LJ           2.77174         -0.7058        -5.69725
LJ         0.0409302         4.06937          1.0286
LJ          -5.30878        -3.18966        -5.76884
LJ          0.286854         2.52817         3.60688
LJ            4.1772        -4.42121        -5.09911
LJ          -4.68499         1.38217        -1.16184
LJ          -5.99882         5.64738        -6.05459
LJ          -4.40924         -4.1592         3.42773
LJ          -2.89039        -5.27019        -6.14731
LJ           3.46378         2.05255        -1.75785
LJ          -3.66109         5.60385        -3.69373
LJ           -5.8302         2.81096        0.542151
LJ          -1.72859        -2.70419         -5.1664
LJ           1.69174        -1.52491        -4.26164
LJ          -1.88607         4.74632         5.01077
LJ          -2.38755         5.61565        -4.89504
LJ          -1.34809         5.90101         3.06742
LJ          -4.72635        0.194406         3.95866
LJ           1.96049         0.81839        -3.73412
LJ           2.56671         4.89386         -1.0079
LJ           3.14677        -6.07118         3.12842
LJ          -3.66057        -5.76958         1.41586
LJ          0.721238        0.820321         4.97692
