108
#Comment!
LJ        -0.0312636         -2.8457         1.72515
LJ         -0.481897       0.0925304         6.13505
LJ           2.95229       -0.690518         2.64825
LJ           6.22592         1.32764        -4.53412
LJ           5.56023        -2.39558         4.56232
LJ          -6.18897          2.8452         -2.3695
LJ           3.24416         3.26021        -1.51726
LJ           5.82587          5.6631         4.93801
LJ         -0.295581         2.63858         2.26735
LJ           1.15205         1.73266        -1.71126
LJ          0.178349        -4.28475       -0.433352
LJ            -4.396        -5.97895         3.12573
LJ          0.535234         -3.2103        -2.44808
LJ           5.26749         2.87104        -5.41513
LJ          0.612668        -3.51016        -3.63539
LJ          -6.45121         0.42204         3.32826
LJ          0.342701          3.1138         6.45542
LJ           -0.6518        -1.91988        -3.59709
LJ           1.76121         4.56066        -4.00767
LJ           3.43713         5.41609        -1.32464
LJ          0.899741         4.78812        -4.77811
LJ            2.7531        -5.23287        -0.23145
LJ          -5.28845         4.19284         -3.8848
LJ          -3.45901        0.506214        0.365294
LJ           3.75437         1.38821         2.20798
LJ           -1.0173          4.7881        0.698652
LJ          -5.14791         0.83963        -5.16671
LJ          0.550382        -5.67488       0.0137334
LJ           -1.5164         -2.7483       -0.935517
LJ          -1.52832         5.59238        -5.40869
LJ           -5.9922         5.02849        -3.61319
LJ           2.27655         1.34461         1.93838
LJ          -4.38621        0.396835        -2.01815
LJ          -5.29617        -2.70755         -5.6486
LJ           2.37552         4.02984         3.19451
LJ            5.1801         1.34746        -2.99994
LJ          -4.71599        -2.05645        -5.01523
LJ           1.01505         5.85409        0.296838
LJ           4.50545        -1.26559         1.97184
LJ          -1.00945         6.13424        -3.79105
LJ          -2.89355         6.43208         1.40011
LJ           4.58414        -4.47247        -4.39789
LJ           -1.1391         -3.8701        0.336235
LJ          0.389268        -4.40143        -4.80798
LJ            3.9141        -4.41939        -1.09517
LJ           6.13593         4.80641       -0.715339
LJ          0.377649        -5.39441         5.19618
LJ         -0.327767          2.4147        -3.80264
LJ          -1.01798        -4.36984         -4.5198
LJ           2.80776         6.17508       0.0245764
LJ          0.937559        -1.00463       -0.604002
LJ          0.415729        -4.28578         5.33196
LJ           5.39562        -5.72799         1.35477
LJ          -2.27582         4.83115       0.0481693
LJ          -1.73525        -2.73052         6.34573
LJ          -4.46758        -1.88087        -3.38168
LJ          -3.84394        -3.31289         3.20086
LJ           1.27909        -2.15083         -2.5915
LJ           3.84516          4.2681         5.68771
LJ         -0.485413         -3.9562        -6.26165
LJ          0.245306        -3.25033         5.39101
LJ          -1.75537         4.17538        -1.96722
LJ           3.46036        -4.40058       -0.239073
LJ           1.00604        -1.02747         5.48224
LJ           1.32252         2.58455        -5.87097
LJ            5.7302        -4.89195        -6.31362
LJ           4.29381         4.06395         3.97891
LJ           1.24016        -6.17156          3.4748
LJ          -5.88383        -1.66684         5.86007
LJ           4.66947        0.196212         5.16936
LJ          -3.58153        0.719302       -0.740924
LJ           4.07825        -1.93026        -5.28775
LJ           2.23838          6.2497        -5.55211
LJ           3.43255        -6.39696         5.43415
LJ          -3.75048         -1.9217         4.54584
LJ           3.48243        0.659187         1.38017
LJ           4.72581          5.7606         5.38273
LJ          -4.71564         4.80091         -6.1221
LJ          -1.40409        -5.11699       -0.176217
LJ           5.35935        -5.57527        -5.57784
LJ            1.3296        -4.69875       -0.191973
LJ          -2.54058          5.5082        -3.34803
LJ          -3.35057         1.11156         5.69782
LJ          -4.30215        0.321421        -6.09961
LJ           5.68983         5.04171        -2.82469
LJ          -4.99065         2.71413         4.85612
LJ           1.20103         1.25974         5.59862
LJ          -6.33225        -5.63794        -4.67953
LJ           2.23281        -2.56424         -4.1373
LJ           2.47817        -3.72608        0.953937
LJ          -5.58177       -0.239353         4.56121
LJ           5.94852         2.07222        -2.67715
LJ          -4.09841        -1.04605        -1.20203
LJ         -0.219502        0.463209        -3.90867
LJ          0.244731         3.54321       -0.720781
LJ          -1.14537        -1.92846         5.76839
LJ           1.19208        0.873927         3.90601
LJ          -5.27365          5.0967         2.29282
LJ           2.01806         2.12593        -2.17345
LJ           2.14425         4.84628         2.24345
LJ           3.15752        -6.18986         4.35001
LJ           3.48371        -4.08793         5.30491
LJ          -5.11793        -5.39259         -1.4433
LJ           4.65841         6.08444        -3.44012
LJ          -3.17439         1.94081        -1.91259
LJ          -5.09695        -1.14118        -1.15481
LJ          0.318263        0.454276        -2.44884
LJ          -1.42646       -0.874079        -6.22573
