108
#Comment!
LJ          -4.85886        -1.98524         5.12928
LJ          -2.42926         5.53878         6.30364
LJ         -0.851172         3.19534        0.751658
LJ           5.86342         4.55202        -4.91959
LJ         -0.447441        -6.05131        -3.46013
LJ           3.99712        -3.94976         3.59029
LJ          0.155783        -2.63436        -3.45901
LJ            5.9872        -4.88561         3.81028
LJ           3.43857         1.24959         4.77097
LJ           5.71537         3.10688         4.18432
LJ          -4.13454         -1.9931       -0.208316
LJ          -6.40601          2.8633        -6.27943
LJ          -2.20502         5.82582       -0.604051
LJ         -0.862379       -0.675417        -2.13616
LJ          -1.56714        -2.65292        -3.52047
LJ         -0.229051         3.99306         2.73109
LJ          -1.90315         4.80562        -1.45813
LJ          -6.21839        -1.83176         4.05664
LJ           5.60089         1.63151        -4.94743
LJ          -2.87492         5.57173        0.232208
LJ          -1.86917        0.222217        -3.32946
LJ         -0.197174         5.78547        -3.89588
LJ           1.43678        -6.22548          5.4871
LJ           3.10914         4.92069        -1.87239
LJ          -0.20414        -2.10927           5.393
LJ           4.28929        -1.90825         1.39934
LJ           1.72542        -2.00386        -5.71233
LJ           -2.2447        0.697156        -2.29153
LJ         -0.241286        0.885965         2.48799
LJ           5.37014         1.93471        -3.47261
LJ         -0.774256        -1.62579         1.72635
LJ           1.66404         -2.8544         1.19548
LJ            5.4564         5.81583         4.16798
LJ           2.63543       -0.919494         5.51666
LJ         -0.432675         2.02483         2.70375
LJ          -4.97917         5.79395      -0.0858382
LJ          -3.41531        -0.99331        0.374514
LJ            1.5531         1.29877         3.24469
LJ           2.08254       -0.768622        -5.30356
LJ          -2.21822         5.21352         -2.4366
LJ           3.29736         1.31126        -5.60618
LJ           3.96054         3.21241         0.65969
LJ          -0.17707        -4.57641        -6.34717
LJ            2.9353         4.37045         2.80006
LJ           -5.8136         -5.9445       -0.980185
LJ           3.56816          4.3406         4.80356
LJ          -5.61061       -0.576002          6.2092
LJ          -6.31604         -0.5429        -2.69122
LJ           2.35054         -2.0721         5.97501
LJ            4.5233         3.38304         3.65138
LJ          -5.71343        -4.89327       -0.359303
LJ           3.12517        -4.07619         1.48046
LJ          -6.19939        0.211419         4.61147
LJ          -4.68462         6.38958         6.17621
LJ         -0.542674         1.80201          1.3122
LJ          -3.95729        -3.43936        -3.23835
LJ            5.0629        -3.40741         4.48776
LJ           -4.3944        -2.38048         2.67483
LJ         -0.383564       -0.196268         4.01921
LJ          0.629425           5.087         3.52777
LJ          -5.44264          5.2787         3.71939
LJ          -1.72791        -4.14988        -3.63274
LJ          -1.91872        -3.15172        -2.70023
LJ          -4.13108        -5.36954         3.70687
LJ           3.61523        0.919598         6.36304
LJ          0.964977         6.15756        -3.41549
LJ         -0.797422         4.94031         4.52245
LJ          0.951272         1.75442        -2.85822
LJ            1.5792       -0.080948        -3.22108
LJ          -4.33045        0.174881        -1.63245
LJ          -5.73871        -5.34591         1.16329
LJ           1.72288        -3.92218         6.24763
LJ           4.93077        -3.13052          1.5389
LJ           3.56669       0.0381456        0.393482
LJ           1.93936        -5.35078        -2.16659
LJ          -4.18385        -4.27739        -6.15681
LJ          0.288133        -5.06713         3.62289
LJ            4.8384        0.711881         5.04468
LJ          -1.83881         6.12926          4.0076
LJ           1.68172        -3.77574        -1.04045
LJ            -2.738         4.37078         3.22721
LJ           2.28607      -0.0485208        -6.05553
LJ          0.326776         3.15041        -1.87517
LJ          -2.57454        -3.32114         6.02555
LJ            2.5966         3.04353         2.99295
LJ           0.73946         4.42343         2.18779
LJ          -1.18318         2.64837         4.63367
LJ          -6.10689         -3.1075         2.60177
LJ          -3.65267          4.8628         2.74426
LJ           3.76901       -0.176335        -2.22716
LJ            2.9567         1.41408         1.75777
LJ          -2.27179        -3.51699         2.65268
LJ          -2.25695        -5.13188         3.52171
LJ          -2.88548       -0.401924         2.66523
LJ          0.181324        -1.25658         6.22093
LJ           1.04983          -4.808        -3.64136
LJ          -2.59943         5.58477         3.07891
LJ          0.670419       -0.252054         1.15932
LJ          -4.28907         2.85958        -5.05371
LJ          -4.90254          3.4797         5.03861
LJ          -5.92053         1.12232        -3.86777
LJ          0.231629         2.25177         5.21248
LJ          -3.48982       -0.612374          1.5353
LJ           2.26025       -0.441678        -2.00034
LJ           5.23237        -4.53233        -3.47171
LJ          0.226343         2.01414        0.751341
LJ          0.246483         1.43108         3.67502
LJ          -4.65813         3.79956        -2.79579
