108
#Comment!
LJ            3.5586         2.16972         -4.2389
LJ           4.11263        -4.93518         1.68876
LJ           2.45368         2.36426         -4.8211
LJ           4.39819          6.4575        -3.23949
LJ           -4.9876        -0.77026        0.482709
LJ           1.87395        -2.51721        -2.07513
LJ          -6.35099        -5.31661         -1.6688
LJ          -1.66826         1.03386         6.11286
LJ          -1.01956       -0.411507        -5.82315
LJ          -3.34389        -2.22629         -4.7371
LJ           1.95982          1.2196        -3.18717
LJ           1.12243         1.35936        -4.12147
LJ          -4.40485         2.08982        -4.92245
LJ         -0.356174         1.22369        -6.38019
LJ           2.74709         2.87893         5.88227
LJ          -2.43884         2.66723         5.99809
LJ          -3.84248        -4.43267         3.00506
LJ           2.18029        -6.37757         4.64609
LJ         -0.823453        0.163258        -3.52132
LJ           6.05356        0.869405        -4.31283
LJ          -4.40585        0.486187         -6.4263
LJ            6.1134         2.55585        -3.53856
LJ           2.08349         1.93875          3.6486
LJ            5.1937       -0.173024        -6.36669
LJ         -0.178912          5.7343          3.3939
LJ          -2.42248        -5.49237          2.3664
LJ          -4.57561        -4.32354        0.344643
LJ          -1.44706       -0.781757         1.80774
LJ           5.46285        -4.94966          4.8725
LJ          -4.14329         4.15399        -5.20721
LJ          -3.11588          3.1102        -3.99402
LJ           5.04496       -0.546502       0.0986092
LJ          -2.17044         2.15036         1.63854
LJ          -4.38037        -3.05615       -0.620144
LJ           1.14125        -6.36746        -2.37655
LJ          -5.90736        -4.20265        -4.44314
LJ           1.70382        0.124248          6.4219
LJ           2.19428         4.93622         3.27283
LJ           1.37338          6.2052         2.23428
LJ          -3.18199        -2.63287         4.03124
LJ           3.33794         2.42509         1.26571
LJ          -1.37051         4.37332         1.88015
LJ          0.959547         4.21128         5.23508
LJ          -3.32721         6.09207         -3.4055
LJ          -2.02252        -4.64901      -0.0214599
LJ         -0.854829        -6.08625         4.57289
LJ            2.8563         3.18337        -5.54236
LJ           2.40653         2.96058         1.51068
LJ          -5.36065         2.58364        -5.83025
LJ           3.62914         4.10545         2.28535
LJ            6.2876         -1.4119        -4.13432
LJ           1.71871         2.32117        -1.66985
LJ           -5.2618         3.75793        -2.96806
LJ           1.39276       -0.600584        0.716773
LJ          -5.91903        -1.86381        0.138498
LJ          -3.43582       -0.154903         1.52205
LJ           -4.5865         3.89033         2.27895
LJ         -0.129615         4.13134         3.60299
LJ           5.81483         4.05542         4.77533
LJ          -1.09471         4.74203        -3.81026
LJ          0.658481         1.25961         3.90449
LJ          -4.79147        -5.36312       -0.282212
LJ          -2.90375         4.40043        -3.63983
LJ          -5.49224        -3.04623         4.48551
LJ            -3.635       -0.602036         5.84835
LJ           5.13003        -5.75487        -2.60549
LJ          -4.01013        -5.10555        -1.63445
LJ            3.3333         -6.1281        -1.26824
LJ           2.20585        -6.13692        -2.66565
LJ          -4.37754        0.498941        -4.05462
LJ           2.32708         5.18693         6.23833
LJ         -0.874212        -2.03286         4.42908
LJ         -0.697267         5.34322        -5.53325
LJ          0.929605        -1.94013        -1.43771
LJ          0.296533         6.33311        -6.16627
LJ          -6.01149         5.59112         -3.3934
LJ            2.2597        -0.76333        0.406554
LJ           1.34709        -4.49167        0.123088
LJ           3.37486         4.10945        0.686122
LJ           1.13433         1.13337        0.329856
LJ         0.0123103         3.71245         1.58859
LJ          0.549603        -1.32653         4.33304
LJ           3.44214        -2.01283        -5.13735
LJ          -2.79751        -2.99483       -0.898812
LJ          0.440727        -2.70301       0.0928606
LJ          0.207758         4.98465        -6.34661
LJ          0.153787        -3.38645         5.53593
LJ          -4.31757        0.876226         4.75614
LJ          -4.37088        -1.79904        -2.62228
LJ          -2.83276         1.22242          6.1425
LJ          -4.57434        -1.73434         1.64704
LJ          -4.90756         2.59101         5.31679
LJ          0.293657         3.22821         -4.3265
LJ          -2.62209         -4.7743         1.65048
LJ          -5.09514        -3.29945         3.21141
LJ          -5.57442         -2.7642        0.795361
LJ           2.46319         4.17379       -0.241663
LJ          -5.79957         -1.8949        -2.31809
LJ         -0.806427         6.24035        -2.84181
LJ           3.33813         3.78689        -1.94106
LJ          -1.42405         2.00634         4.80048
LJ          -4.25711         3.76108      0.00177325
LJ          -6.31663         -5.3976        -3.17019
LJ           3.10932        -4.98935        -1.21692
LJ          -5.63808       -0.728215        -2.02239
LJ          -4.51434        -3.78052         2.38287
LJ           1.31751         5.28796         6.38077
LJ          -5.79535         4.81857         2.74558
