108
#Comment!
LJ          -4.54904        -2.42355        -2.96728
LJ          -2.98755        -5.88762         4.52954
LJ         -0.632197         1.67494        0.581997
LJ          -1.62424        -6.14014         1.76044
LJ           1.08144        -2.75677        -5.74277
LJ           2.45528        -2.17209          5.4466
LJ           4.60495        -5.50838         6.02388
LJ           4.71039         1.97948         4.81868
LJ           5.44433         4.52209         4.99737
LJ          -6.18906       -0.698582        -3.20809
LJ          -2.80155           1.572        -4.46168
LJ           4.50069         4.34686        -1.56698
LJ           3.76714        -6.23242         3.40052
LJ           4.73456         3.02687        -5.31351
LJ          -3.37551         4.39195        -5.04489
LJ          0.115858         3.38506         1.38123
LJ           4.27367         3.76859        -6.04748
LJ           5.45129        0.877573        -2.76744
LJ           1.61452        -6.10353        -1.37972
LJ          -2.15068          2.0256       -0.391166
LJ            1.7914       -0.292504        -1.19065
LJ           3.70998         2.11171         1.22606
LJ           2.99192        0.603488         1.20355
LJ          -5.26028         -6.4367         3.28173
LJ           3.39959        -4.18157        -1.93047
LJ          -4.45596         2.13404          3.6095
LJ          -2.36056         6.12332         4.15019
LJ          -4.05679        -1.22647         4.78912
LJ           1.98032         3.85011         6.35395
LJ         -0.101424         2.07143         4.10641
LJ         -0.838947         4.81647         4.53062
LJ          -6.15328        -5.75213      -0.0419156
LJ          -4.06796        -3.74963        -4.00528
LJ         -0.887752        -2.64062       -0.795223
LJ           2.81956        -6.13371         5.47022
LJ           5.23385         5.68873         1.26947
LJ           5.98059        -5.43508         2.82371
LJ           4.16579         2.82141        -1.32977
LJ           5.41143         1.42291        -1.55804
LJ          -3.52812        -6.13679         5.43717
LJ          -3.94497       -0.983039         3.17108
LJ          -3.65293       -0.339806         6.22262
LJ           1.19424        -1.73511         6.30302
LJ           1.58618         3.32305        -4.83867
LJ          -1.24842         4.42105        -6.21925
LJ           4.84445        -5.34599          4.9374
LJ           1.74097         2.33683        -2.47622
LJ          -0.95399         2.25241        -5.72013
LJ          -1.25701          5.1663          -3.842
LJ          -1.27025        0.317863        -4.59324
LJ          -6.34094        -3.94268         1.03253
LJ          -3.06803         1.17165         1.91553
LJ          -5.62766         5.14076         3.40043
LJ           5.42005         4.63402        -2.34447
LJ           3.59191         6.37187         1.23562
LJ          -3.23835         5.02529        -1.84082
LJ           2.86462        -4.01123        -2.84696
LJ          0.457577         1.34112       -0.987285
LJ            -3.525        -1.08321        -2.72912
LJ          -5.03516         2.92254          2.7074
LJ           -3.2694        0.398303         1.35028
LJ            3.0166         5.03452        -3.65185
LJ          -2.76829         3.45838        -4.77427
LJ           5.04431        -1.72927         1.56724
LJ          -1.13418        -2.14087        0.869023
LJ           5.38215         1.78965         4.07112
LJ          -2.63502        -3.31662        -1.83744
LJ          0.519268        -2.28224        0.153386
LJ           3.44243        -1.39254       -0.149421
LJ          0.483049         2.25408         3.30536
LJ           1.58379        0.782863        -3.69077
LJ             4.142         4.28749          2.1681
LJ          -3.51641         1.73119        -3.36972
LJ          -5.70168        -2.58952        -4.51828
LJ         -0.564866         5.85627        -4.07714
LJ          -6.25549         1.40248         4.01272
LJ          -3.32491        -2.00307         2.60458
LJ          -3.87436          -5.842        -4.72139
LJ          -1.90647        -3.09714       -0.765769
LJ          -4.54702        -4.69137         -2.0441
LJ         -0.868964        -1.67729        -6.26987
LJ           2.95346       -0.575022       0.0568611
LJ          -4.93129         1.62579         2.61028
LJ        -0.0152166        -1.30801         4.35429
LJ           4.24458       -0.843425         4.08699
LJ           3.11304        -6.16405       -0.609785
LJ          -5.11463         2.63743        -6.29888
LJ          -2.64562         5.92633         2.93751
LJ          -5.58077        0.186036        -1.29745
LJ           4.94563         6.44576         4.83538
LJ          0.260104         3.65663       -0.404528
LJ           4.01354       -0.414898        -6.31091
LJ           5.72169         1.46811         1.41905
LJ           -5.8253      -0.0809925        -3.97086
LJ          -5.77382         2.20956         3.33928
LJ         -0.662031       -0.726017        -6.36344
LJ          -5.07392      -0.0719479       -0.526195
LJ           3.61477        -4.97005       -0.643119
LJ           1.07514        -6.33742       -0.320219
LJ           3.99724         5.41063        -4.02605
LJ           2.08071       -0.234096        -6.05913
LJ         -0.246538        0.843329        -1.81839
LJ           -1.5862       -0.389063        -5.80107
LJ           -3.4029        0.318172        -3.24121
LJ           2.19314        0.391196         5.59919
LJ         -0.870852        -3.34239         -2.1479
LJ          -5.13309       -0.055952         4.12203
LJ           6.10071         1.55685         5.27661
