108
#Comment!
LJ          -5.81129         4.45529        0.158003
LJ           2.19433       -0.407058          5.1608
LJ           1.34445         6.23705          4.6657
LJ            3.3473        0.345945         4.53394
LJ           1.31537        -4.09066        0.740667
LJ           1.61382         2.00743        -5.26651
LJ          -2.59417         4.99102        -1.18595
LJ           3.38501        -2.27821          5.6135
LJ          -5.44718       -0.936238       -0.727072
LJ           5.45265       -0.995996        -6.08901
LJ          0.761367        -2.25106        -2.06989
LJ           5.87955         6.38229         1.11084
LJ         -0.869335         2.47342         4.88224
LJ            -5.035        -4.52093        -5.55366
LJ          0.212823         4.06976        -3.97251
LJ           4.70507         2.12537        -6.38966
LJ          -2.82349        -2.74468         5.00217
LJ           6.37084        -2.82546        -5.19824
LJ           5.51446         5.88103         2.07117
LJ            3.6568        -6.01941         6.09627
LJ           1.10029         3.10389          3.7999
LJ           -4.2969        -4.25219        -4.54773
LJ           5.58087         2.52278         2.27415
LJ         -0.808561        -1.53592         0.72113
LJ          -1.79071         5.44214         5.39005
LJ            -5.584         6.06587         3.10392
LJ           5.13683         4.04322        -6.04289
LJ          0.374334         1.65462         4.45703
LJ           3.79863        -5.93508        -5.71896
LJ          -5.32691         -5.5187         5.59609
LJ          -5.59813        -2.47406         1.52084
LJ          -6.01189        -4.93736        0.573958
LJ          0.554444        -3.30484         5.29351
LJ            3.1034         5.80782         2.83835
LJ          0.390852        -3.52174        -3.16563
LJ         -0.959553        -5.37209         -4.6852
LJ           1.23521       0.0344354        -4.42444
LJ           4.56398       -0.550543          3.8398
LJ          0.727122        -5.17088         2.60496
LJ            1.6003        -5.99991         2.25212
LJ          -2.89544        0.925195         1.79996
LJ           -5.2839       -0.834708         3.88826
LJ          -5.84445       -0.800798        -4.68339
LJ           5.26787        -2.81375         2.69876
LJ          -3.64273        -4.67641         6.11931
LJ           5.59374         5.03817         1.25926
LJ           2.16602       -0.720823        -3.83833
LJ         -0.546465        -3.13894         4.66272
LJ           2.38148          2.2543       -0.528232
LJ          0.771634         4.76863         4.58556
LJ         -0.291666        0.352144        0.968757
LJ         -0.284089       -0.565369         2.12899
LJ          -1.68958        -6.42199         5.42178
LJ           2.76556       -0.593267         3.42553
LJ         -0.677409        -3.28549        -3.34353
LJ          -4.86963        -4.00185         6.15308
LJ           4.97924         4.22768        -3.84785
LJ           -1.2616         3.90399        0.711781
LJ          -2.35881       -0.090954         5.89486
LJ           2.14883          3.3775         4.16168
LJ          0.153052        -4.16678         2.88157
LJ          -5.87151         6.25249        -2.22647
LJ           1.97704        -5.88587        -6.05436
LJ           4.67121         3.88706        -2.07098
LJ           1.86408        -4.47944         1.71655
LJ         0.0301652        -4.15616        -6.25106
LJ          -1.39056        -2.42117        -5.19016
LJ          -2.43767        -3.24632         3.11224
LJ          -4.12838       -0.770329         3.17062
LJ          -1.16343          5.7225         4.56211
LJ          -4.23293         -2.1913         5.27086
LJ          -2.34031        -3.88314          1.7381
LJ          -4.61167         3.80325        -5.41149
LJ           1.42218        -1.11636         5.00257
LJ          -5.62771        -1.69878        -5.78322
LJ           1.43658        -5.99399         1.18307
LJ           3.36093        -1.29263        -5.41702
LJ         -0.352143        -6.02083         4.47173
LJ           6.34587         -4.2858        -3.99896
LJ          -4.76768        -3.19353        -5.41768
LJ           4.09676         6.29052        0.180369
LJ           0.74325         5.69935         2.14812
LJ            3.6082         2.56063         2.50122
LJ          -5.15695         2.99803        -6.12695
LJ          -5.92522     0.000244254        -2.24125
LJ           6.18581        -6.13014         3.55995
LJ           4.19573         4.61934         3.55567
LJ          -2.92257         4.45492        -2.31093
LJ           5.61177        -3.15969        -2.42807
LJ           -5.6066         2.85732        -2.94807
LJ            2.3129        -5.73995        -2.61992
LJ           5.04492        0.977725        -0.34056
LJ           6.16038         3.61158        -2.50796
LJ            2.3788        -3.27482        -3.81576
LJ          0.900321        -3.29101        -5.06055
LJ           1.30115         4.32029        0.752775
LJ          -5.77796         5.03731         1.45603
LJ          -4.54248         -1.9157        -5.67606
LJ          -2.46705        -6.03261         -2.5639
LJ           1.40641        -1.40058         1.15038
LJ          -2.14037         4.62196         1.94442
LJ           3.56763        -2.75253         4.48247
LJ          -1.46441        -1.39492        -1.47106
LJ           2.61645        -5.53329         3.07158
LJ           3.64736        -3.77159         3.93199
LJ           5.23306        -4.56322         4.69618
LJ        -0.0171888         5.16834       -0.466754
LJ            2.7828        -6.43365        -5.20017
