108
#Comment!
LJ           2.30768        -3.91552         4.04584
LJ           3.38017         5.99223        -6.13835
LJ         -0.634674         3.77049        -2.88139
LJ          -1.54932         1.45307        -4.34978
LJ           6.25465         3.32953         2.57994
LJ          -3.51409         1.88909        -3.17597
LJ          -5.92347         3.64702        -4.94425
LJ           4.99233         2.05557         3.29992
LJ           5.16999          5.2675        -3.46311
LJ           4.04629         2.89454         5.26467
LJ           3.47308         1.04824         2.25498
LJ          -3.79274         5.05054         4.49661
LJ          -6.29201         1.14172        -1.35937
LJ          -2.09056         4.73851         3.01751
LJ           3.55864        -4.63301        0.186657
LJ          -4.69491         4.71397        -3.34162
LJ           5.39651        -1.74409         2.51905
LJ           2.10938        -3.66627        -1.71666
LJ           1.55949         6.41627        -3.52698
LJ            4.7081        0.431702         4.71252
LJ         -0.911757         2.96071        0.151456
LJ           2.77994         1.31936       -0.469445
LJ            -3.176        0.545494        -5.72344
LJ           2.43991        -6.26469         2.89416
LJ          -3.08759         0.99183        -1.44234
LJ           4.11364        -3.62192        -1.25281
LJ           6.29641         3.02677         5.76577
LJ          -1.50028        -2.44165        -5.11693
LJ           4.65695         5.38349         5.79661
LJ          0.087227         1.85123         4.07465
LJ          -2.63501        -1.31526        -2.89925
LJ           4.65748         4.66558         3.92676
LJ           3.98853        -5.13988         1.10334
LJ          -4.07544        -2.23423      -0.0327431
LJ           1.62547        -4.62678         -3.5736
LJ         -0.621273         1.45862         5.14826
LJ          -3.11059         5.89344       -0.736602
LJ          -6.00979        -6.11441        -6.43058
LJ            -5.466         5.49802         2.54638
LJ          -2.98477        -2.13867        -1.37322
LJ           6.05044        -3.14072        -4.85641
LJ           4.53077        -3.09559        -5.79372
LJ          -2.68619        -1.51918        -4.78098
LJ           -1.1519         1.08057       -0.974002
LJ           4.11323        -5.97699         4.78814
LJ          0.045559         4.29662         4.84402
LJ          -3.73608         1.86455         1.12078
LJ           6.00269        0.153357         2.58919
LJ          -4.50095       -0.657278        -0.24789
LJ          0.761802         1.00568        -3.33085
LJ           5.87485         1.96113        -1.73649
LJ          0.958049       -0.488743        -5.64437
LJ           1.84717         5.50144         3.20208
LJ          -1.70752       -0.717025         5.24965
LJ          -4.03209        -5.28236         2.36041
LJ           2.54391        -5.73642         4.30199
LJ        -0.0786832          2.1569        -5.83656
LJ          -5.30992       -0.615903         4.25526
LJ           2.74595         2.56638        -5.38889
LJ          0.318419        -5.23846         5.16114
LJ          -5.18145         4.91281         0.57662
LJ          -3.38767          4.1552        -1.53274
LJ          -5.59301        -1.49482        -3.96141
LJ           3.59696        -1.09255        0.169977
LJ        -0.0526752      -0.0760401        -6.15798
LJ            5.5343         -4.3021       -0.692422
LJ          -2.95192         1.06958         5.95124
LJ          -5.44131        -1.37646         -5.1147
LJ           6.38344        -0.26344         4.26299
LJ           6.12456         4.27561        -1.65271
LJ           4.87418        0.579193         3.58912
LJ          -5.38514         -5.8804         3.93349
LJ           2.24463        -5.25826        -4.85953
LJ         0.0651591         5.11853         4.02503
LJ         -0.893276         4.15863        -1.96061
LJ          0.485943         3.14683        -3.65943
LJ           -2.7907         3.07379         2.26074
LJ          -0.35643         4.32719         5.79783
LJ           1.56877         6.29101        -6.02571
LJ           1.32379        -3.89669       -0.782899
LJ          -4.72102         2.67446        -4.09197
LJ           3.92471         -2.3531        -2.28872
LJ            4.4431         2.53703       -0.240644
LJ          -3.75691        -1.21394        -4.97952
LJ          -3.42443       -0.205489         3.93768
LJ          -3.57894         3.43634        -5.63833
LJ           -5.2269        -1.18763         5.34661
LJ          -5.62548         4.05355        -2.78505
LJ           3.44294          3.1296         6.21363
LJ            4.4814        -6.37767        -6.07954
LJ          -0.94136        -3.48108        -2.25729
LJ           5.00881         4.17668         -1.5653
LJ           2.63522         0.27033       -0.317324
LJ          -5.15352        -5.60961         1.10993
LJ           5.28354         3.23186         6.29081
LJ            2.4425         5.24963        -0.44881
LJ          -3.60978        -3.22484        -1.60741
LJ           2.95664        -4.03381        -2.42317
LJ           1.82678        -3.10545         1.87121
LJ           6.02262         5.19379        -4.91985
LJ           3.91731         5.38184        -5.44845
LJ          -5.82618        -1.86325        -1.53089
LJ          -3.61252         3.66627         4.37486
LJ          0.374945        -5.53454        -5.85259
LJ           3.79908         4.60508        -4.88365
LJ          -0.10816         4.62051       -0.163925
LJ           3.45508       -0.702391         -2.1979
LJ           1.59031         5.19359         5.67917
