108
#Comment!
LJ           6.10273         4.37627        0.682374
LJ           4.21856         3.92952         3.82454
LJ         -0.405627        -3.12001         5.92536
LJ          -0.20326         5.46749         3.85959
LJ           1.71664        -3.55665        -1.53088
LJ          -2.75418        -4.54512         1.43559
LJ          -1.28001         -5.4329        -6.19196
LJ            5.7568        -4.66835         5.69563
LJ           1.29105         1.54678       0.0635712
LJ           5.07357         3.40476       -0.701592
LJ           2.57912        0.577248         1.12698
LJ          -4.72417         2.34866         1.28013
LJ         -0.259028         2.95479         4.78283
LJ          -4.53122        -5.01186         3.70461
LJ           4.44312         4.40791        -6.17595
LJ           2.17477         1.90161          2.9862
LJ         -0.612954        -5.57292         1.50559
LJ          -4.03522        -6.08132         -3.3096
LJ           -6.1883        -3.91893        -3.41324
LJ           5.00546         5.74777        -4.71297
LJ          -1.45352         5.60876         2.12984
LJ           6.42534        -5.55888         5.29309
LJ          -6.13962          1.8652       -0.153455
LJ          -1.87066        -6.11782         2.01603
LJ          -5.09001         6.02561         5.87283
LJ          -1.83621          6.2703         3.67417
LJ           3.31525         1.54371        -5.50053
LJ            3.6059          1.5553        0.583502
LJ           1.22689        -2.98015         5.83782
LJ           3.13904          4.6633        -4.23801
LJ         -0.781691        -2.19505      -0.0919145
LJ          -4.46547         3.64825        -1.26063
LJ         -0.527773       -0.780879         4.35412
LJ          0.599172         5.00478         1.30449
LJ           1.62746        -2.86564        -2.36336
LJ            -3.016         2.23457         6.38676
LJ            4.4942         4.00559       -0.122749
LJ          -3.13164        -1.25063         1.25781
LJ           1.11354         3.60249         5.32528
LJ           4.73262        -4.77179        -2.09816
LJ          -3.82363        -3.40897        0.228186
LJ            5.6801        -1.98881         2.78402
LJ          -4.61555         5.21663        -4.36417
LJ            4.4534         1.73144         1.59111
LJ          -4.91116        -4.52719         1.44045
LJ           -3.9549         3.78258         2.35661
LJ          -4.45288        -4.06517        -2.41922
LJ           5.75497         1.43479         6.16821
LJ           4.11269         3.06983         1.64113
LJ          -4.28382         5.02165        0.185407
LJ          -4.48347         2.73034         2.72202
LJ           1.14167         5.59719         2.83527
LJ          -4.02485        -3.36721         5.52294
LJ           4.34244         1.86495         4.68124
LJ          -4.81284         4.06403          3.1565
LJ            -5.376         3.59792         4.29642
LJ           2.45029        -2.88635        -4.95426
LJ           3.51945        -5.99601      -0.0108142
LJ         -0.550581        -1.88939         2.91662
LJ           2.12561         4.06673        -1.39164
LJ           2.31447        -5.21641         -2.5356
LJ          -2.42188        -6.08336        -6.45286
LJ           1.82441        -3.43914        -3.25973
LJ          -5.61555         4.14962       0.0829407
LJ           1.76441        -3.76604         4.44737
LJ          0.210498        -3.19372         5.02016
LJ          -3.46056       -0.832762        -3.07805
LJ          -2.88351        -3.54974         5.46195
LJ           6.43983        -1.08463        -3.18554
LJ      -0.000403241        -5.04015         2.38246
LJ          -4.00269        -4.60037         2.46493
LJ           4.36473         3.62558        -2.00571
LJ            5.6579         4.41579       -0.659704
LJ           1.29444         2.49136         4.09646
LJ           3.77037        -2.69141         3.28475
LJ           1.59092        -2.11348        -1.15021
LJ          -6.13788       -0.341512        -4.27954
LJ          -1.37597       -0.734723        -3.89869
LJ          -2.76462        -5.09422        -5.71727
LJ          -4.93158         -5.9264        -2.72797
LJ           4.54699        -4.76439      -0.0452821
LJ         -0.305466         1.90635        -1.35761
LJ           2.24467         4.82785         5.82403
LJ          -5.16789         2.56001         4.27479
LJ            5.5965        0.513496         2.39394
LJ          -1.80732        -3.49362         2.77081
LJ           5.70925         3.23002        0.289628
LJ         -0.232838         2.44748        0.174636
LJ           4.71003         4.49427         5.40949
LJ          0.308331        -3.02438          -4.476
LJ          0.203033         4.47165        -6.02624
LJ           5.18386         2.27523        -4.28095
LJ          -2.24878         1.80887        -4.15648
LJ           5.46925        0.223531        0.117893
LJ           1.22996         6.09132        -4.87395
LJ           1.29028        -5.72966        -3.25229
LJ           4.84348         2.45575        0.818346
LJ          -6.34341        -2.32056         6.21873
LJ         -0.025452        -3.35528        -1.06337
LJ            1.8659         1.70743        -2.25281
LJ           2.57898        0.669381          3.5401
LJ           2.41665        -3.30866       -0.743252
LJ           -2.8543        -5.96697         -2.5552
LJ           2.36963       -0.337268         2.94679
LJ           5.14886       -0.245692         1.77154
LJ           6.35268         4.55395         5.48372
LJ          -5.62403         2.82719       -0.171398
LJ            1.3683        -5.18179         -4.2952
