108
#Comment!
LJ          -2.77274         -2.4912        0.495943
LJ          0.984376          3.3877        -5.19294
LJ           5.35651        0.399414         1.59139
LJ            6.0734         6.28501          5.5114
LJ          -6.30552        0.497216          3.2012
LJ          -6.37252        -4.87388        -2.19925
LJ           4.31571         1.87514        0.160734
LJ           4.30542         -4.3083         6.44097
LJ         -0.727693        -1.15244        0.963222
LJ           2.88654        -1.80763        -3.14123
LJ          0.906956        -4.66206       -0.239372
LJ          -5.76708         5.10804         5.42947
LJ          0.701397        -0.42513        -3.62506
LJ           6.15107         1.44096         6.44517
LJ           1.76113        -4.50892        -3.84748
LJ          -1.97949         4.31383         1.45711
LJ          0.847034         4.20533        -3.50907
LJ           1.47153        -1.58055        -2.67661
LJ           3.21108         6.28107        -3.35403
LJ            2.2055        -3.64317        -5.48148
LJ           2.61262          5.1807        -3.48311
LJ           2.11241        -3.56649        -3.91622
LJ         -0.344508          3.8553        -3.37353
LJ          0.575519         1.84133         1.22814
LJ           3.01954         2.41058        0.991906
LJ           1.27065         1.65653         2.29861
LJ           6.04192         5.36448        -5.56071
LJ          -1.91264        -3.63449         1.58942
LJ         -0.842232       -0.774252        -5.48755
LJ          -4.01636        -6.10645        -4.15888
LJ          -5.32603        -4.17813        -2.50802
LJ          -2.51214        0.644331        -1.89111
LJ          -4.72217         3.00917        -3.63118
LJ           5.50728        -5.22622        -4.83318
LJ            3.6709         4.42948         3.25481
LJ           2.98237         2.72717         5.97246
LJ          -5.52482        0.285694        -6.15521
LJ          0.350033         5.93604         1.07953
LJ           4.22615        -2.11612         1.44077
LJ           3.80325        -5.92522        0.609774
LJ          -6.31503        -5.38761         4.42956
LJ            4.3743        -5.75063        -4.15955
LJ         -0.270908        -2.88868        -1.52192
LJ          -1.06453        -1.36112          6.3685
LJ          -6.30745        -4.77991        -3.36395
LJ           4.19384         6.06227        -1.15509
LJ          -3.22394        -5.05229         3.66632
LJ          -1.92573         2.26315        -4.97715
LJ          0.674098        -6.40247        -4.97548
LJ          0.517473        -5.82715       -0.267527
LJ           2.28654        -3.26033         -2.3607
LJ         -0.467952        -4.51167         5.22404
LJ           5.88912          4.8446       -0.971569
LJ          -3.20765         4.23283         1.53629
LJ        -0.0826808        -2.13679         4.53864
LJ          -3.76937         4.40018        -2.00768
LJ          -1.85845        -4.63201         2.05534
LJ           4.06979       -0.484612         5.24989
LJ           3.52107         4.34285         5.86691
LJ          -3.01427        -5.77772        -6.03377
LJ          0.169972        0.650632        -3.75695
LJ         -0.116369         4.97487        -1.46891
LJ           2.90701        -3.92414         6.39958
LJ           3.28108        0.320085         3.73791
LJ         -0.278034         1.00325           3.705
LJ           4.89946         -3.0261        -6.21711
LJ           5.70922         4.69637         4.92986
LJ           6.10892         6.37998         2.85852
LJ           -4.8835        -1.18308         5.10617
LJ           1.08176        -3.46737        -5.92546
LJ          -4.36671         1.67114        -3.14842
LJ           5.85631        -2.57833        -5.73838
LJ           3.35685         5.60664        -5.96697
LJ           5.96217        -5.59335         5.36203
LJ          -2.93242          5.6475         2.56946
LJ           3.54322         1.67274       -0.893197
LJ          -6.40182        -4.62862         2.80583
LJ           6.00691          3.7054        -2.34772
LJ          -3.09798        -5.49739         1.72323
LJ           3.69227           5.748        -4.66146
LJ           1.84166        -2.94802        0.600928
LJ         -0.388351         5.24777         2.38135
LJ          -2.12398       -0.933336        -5.65557
LJ          -4.29765        -2.13566         6.35166
LJ          0.506569        -5.61771        -2.36138
LJ          -4.10457         2.56726        -4.44179
LJ           4.17465        0.762916        -5.36715
LJ          -5.02327        -5.89417        -5.92606
LJ           3.60579        -2.42491        -3.71722
LJ           4.07345        -5.80076        -0.40005
LJ           5.38242         1.42061         2.07443
LJ         0.0806173         5.13681        -4.46202
LJ          -5.18465         2.03288        -2.57257
LJ           1.10031       -0.363443        -2.39041
LJ          -2.52575        -6.32599        0.162321
LJ         0.0372295        -3.48375         4.81427
LJ         -0.779843         2.42621       -0.600166
LJ          -5.22883         1.87086         4.51932
LJ           2.78597         3.14663        0.341408
LJ           3.50915         5.21756         2.49352
LJ           1.49105         4.39014        -6.16215
LJ           6.31893         -3.1677         1.86768
LJ          -2.08555         6.23533        -2.02879
LJ           -1.4371         5.02181         5.80987
LJ          -1.23738          3.7559        -2.15557
LJ            4.4333      -0.0330821       -0.985298
LJ           6.44268         1.98943        -5.03168
LJ           0.48911        -2.39092         6.00462
