108
#Comment!
LJ           3.97524        -3.80424        -3.48594
LJ          -3.07186        0.913993         5.36294
LJ          -4.37598         1.39106        -2.56259
LJ          0.851543       -0.573953         3.30034
LJ         -0.691814          6.4052      -0.0723932
LJ           3.46757         1.96592        -5.65096
LJ          -5.62731        -3.37785        0.043969
LJ           6.30092        0.172587         4.96438
LJ           4.95484        0.489841         4.48468
LJ           -4.4241         4.66555        -5.30106
LJ          -6.29009          3.8974         2.85686
LJ        -0.0480418         6.01383         4.25893
LJ          -2.15194         6.28206         5.92708
LJ           5.57543        -3.31772       -0.284837
LJ           5.85563         4.08197         1.98567
LJ            4.1706         4.60164         6.28641
LJ          -4.36776        -2.40598       -0.120092
LJ           2.43917        -6.23865        -4.40662
LJ           3.63214         0.39391        -1.07886
LJ          0.410593          4.7397        -3.13273
LJ          -5.95639        -3.08819         1.90883
LJ          -3.96133        -6.43734         3.08946
LJ           2.41592         4.59848         -1.4902
LJ          -6.28101        -6.24186         6.10454
LJ          -2.29256         6.28903        -1.27862
LJ          -2.53392        -3.64248        -5.35881
LJ          -3.97348        -1.89634        -5.51591
LJ           6.21092        -1.83751          0.8946
LJ          -4.52736         -1.2461        -2.05957
LJ           4.23373        -1.34962         2.27473
LJ           2.92554        -3.07233         1.59319
LJ          -2.25886         1.03121        -5.27078
LJ           -1.2673        -4.98279         -2.0187
LJ          -3.15862        -6.28815          4.6963
LJ           -5.3291         2.21199         1.08344
LJ          -4.90726         3.94853        -3.84669
LJ          -4.03663        -4.75722        -5.14797
LJ          -5.70524        -5.27961        0.497329
LJ          -6.36762        -6.11162        0.527379
LJ          -1.91414        -5.03564       -0.895132
LJ           -5.5806        -2.50167         1.04831
LJ         -0.561264        0.738248       -0.607797
LJ          -5.48195        -3.91543        -6.25057
LJ           -1.4163        0.480653         -6.0249
LJ           5.49965       -0.337784         3.66043
LJ          -3.80265        -5.07719        -3.90504
LJ          -6.20233        -1.24966         3.59277
LJ          -2.35529         3.53231         3.83645
LJ          -2.22206        -5.48189         5.09602
LJ          -5.73521       -0.242838         4.55448
LJ          -4.07941       -0.720229        -2.93884
LJ           4.45602           2.714          5.1884
LJ          -6.12901         3.77387         1.79529
LJ           6.16064         4.33012        -3.45222
LJ           2.52639           4.099        -6.45533
LJ           0.40283        -5.44861         2.81247
LJ          0.709293         5.25181         4.53572
LJ          -4.00126        -5.68699       0.0141229
LJ         -0.554174        -1.81317        -1.46053
LJ           5.26064        -5.95705         3.08294
LJ           5.25108         1.58645        -2.58269
LJ           4.70399         5.78646        -4.78652
LJ           4.98477        -2.34863         2.27289
LJ          -1.27168         3.84977       0.0123783
LJ           5.12231         3.42083       0.0221861
LJ           3.66422      -0.0242091       0.0484852
LJ           6.24591        -1.02567        -2.63036
LJ           1.91081        -5.75197         5.12606
LJ          -2.20237        -0.48143         -2.4736
LJ           5.22046         3.35845        -5.99563
LJ         -0.948238         1.47251         5.85194
LJ           2.55886        0.428691         5.52846
LJ         -0.987662         2.52634          3.8736
LJ          -2.39384        -4.86747         1.53245
LJ          -3.81973       -0.661192        -5.11486
LJ           3.89404         3.11751         4.45365
LJ          -1.49395         5.34039          3.9995
LJ           4.82291         -3.4717         5.28385
LJ          -2.23503         2.92632        -3.16958
LJ         -0.681814        -1.90548         1.65038
LJ           2.56267         2.98896         3.86643
LJ           -5.4728         2.96567        -3.25754
LJ          0.831618         5.84218       -0.463689
LJ           3.06226         1.28284        0.323848
LJ           1.53544        -2.06194        -6.44948
LJ           6.31037        -3.70487        -3.68114
LJ           6.19633          2.8116         1.37058
LJ          -1.42307        -1.37127        -4.22119
LJ          -4.64627        -5.47713        -0.89306
LJ           6.31167        -5.62279         2.14697
LJ          -4.11002        -4.41363         2.70266
LJ           3.16975        -1.42545        -2.29071
LJ          -4.19925          1.0155        -1.52466
LJ           4.68751        -5.39671         5.98725
LJ            2.7906        -6.41426         5.47871
LJ           1.33962         1.47593       -0.105625
LJ          -6.23278         3.62477        -2.20218
LJ          -6.21962        -4.76519         5.16705
LJ          -1.47823         4.61221        -2.16384
LJ          0.297075       -0.930813        -4.68723
LJ          -1.04234        -1.06963         5.84219
LJ          0.503297        -4.93323        -5.76616
LJ           4.49993        -3.96769        -1.58321
LJ          -1.82897         0.14755        -3.46106
LJ          0.884169        -4.39823        -4.27736
LJ            1.7588        -1.85892        -3.37831
LJ            4.6532        -5.03778        -4.15669
LJ          -1.60081        -4.08458          1.6813
