108
#Comment!
LJ          0.208518         4.07135         3.30866
LJ         -0.227595         2.94588         3.36666
LJ           1.89129        -3.52395         2.48389
LJ          -5.91659        -3.82945        -1.39222
LJ           1.67167          5.8378        0.915221
LJ          0.894347         5.95446         4.69552
LJ           6.35876         6.14771        -1.22449
LJ          -5.26294      -0.0593678        -2.10874
LJ           -5.4937         5.27998         1.77571
LJ          -0.72831        -1.09019         5.62649
LJ          0.839864         3.51686       -0.108739
LJ          -5.02349         -3.0915         5.07054
LJ           -5.7843         -1.6007        -3.45347
LJ          -3.28248        -1.31147         -5.5255
LJ          -3.44967         4.63097        0.356849
LJ          -1.46955        -3.24276         1.74989
LJ           -4.2893        -3.57678        -5.69406
LJ           4.16627        -5.44464         5.14833
LJ            3.1711       -0.259766        -3.07152
LJ          -3.64512          1.5988         6.21844
LJ          -2.71511        -6.30692        -2.68167
LJ          -2.93139       -0.575403         3.40094
LJ           6.03402        -1.61779         3.12275
LJ           2.80971         5.39362         6.45357
LJ          -3.53846        -1.64187         2.05955
LJ           -4.2821         4.38467       -0.257552
LJ           3.46452         5.49969        -3.86143
LJ           -2.7604         2.43239          5.8995
LJ           5.49214       -0.389251        0.773803
LJ           2.02069         2.02881        -2.12133
LJ           5.07018        -6.12232         3.30857
LJ          -4.60197         5.13817         3.72703
LJ            3.6627         2.72214       0.0389246
LJ           1.29289        -2.69767        -3.83149
LJ         -0.451746       -0.407159        -3.71586
LJ          0.359709        -6.31025          6.0147
LJ           2.43207         4.07747        -3.85136
LJ           4.26949        -3.11217        -6.42599
LJ           3.20972        -2.57741         4.50637
LJ          -5.32813        -5.02436       -0.816131
LJ          0.182918        -4.90192         3.69311
LJ             4.132        -1.28067        -1.58219
LJ           2.10371        -4.40219        -1.01549
LJ         -0.498765         4.38562        -1.37748
LJ          -3.96742         4.17581        -3.84747
LJ          -3.01618         2.97624        -2.57746
LJ          -0.46909        -2.84754        -4.04148
LJ           3.53352         2.24931         3.87308
LJ          0.856125         5.55694         6.26233
LJ          -2.70279        -5.91509         5.24201
LJ           4.74247         4.08355         2.38333
LJ           2.23443        0.648575         2.94887
LJ           4.91113         1.03317        -4.98931
LJ           4.89932        -1.64816         4.66871
LJ         -0.213808         5.18579         5.67512
LJ           2.20662         4.84292         5.16512
LJ          -4.20566         5.96935        -0.43804
LJ           3.51537         4.33079        0.563319
LJ           2.70672         6.25502        -1.94031
LJ          -2.20669         4.28879        -3.41483
LJ          0.680183         5.73548        -1.05004
LJ           1.13983        -1.95109        -4.46563
LJ          -5.83758        -2.16482         -5.1189
LJ          -5.47117        -4.59421         1.40431
LJ          -5.92766        -2.82685        0.865675
LJ          -6.23484        -3.40392        -2.38443
LJ           1.70583         5.40406        -5.55335
LJ           2.59903        -1.74513       -0.551791
LJ           4.63281         2.87563         6.08137
LJ          -1.97105         3.73032         3.74681
LJ          -6.04968        0.839483         -2.5395
LJ           2.48115        -5.05192        -4.33259
LJ         -0.146748        -5.28488         -1.3407
LJ          -3.07391         -5.2256        -1.94877
LJ          -2.65461         4.43849       -0.166462
LJ          -5.77895       -0.347195         4.59678
LJ           5.28229         4.50389        0.530356
LJ           3.68294         0.45203        -1.05045
LJ          0.932109         1.85538         1.97859
LJ          -3.28814         4.67354        -5.11753
LJ          -2.31024        -2.56992         1.49373
LJ           4.82499        -2.62523         5.62399
LJ           1.48923        -6.35416         3.09392
LJ          -2.92925         2.81489        0.688312
LJ          -4.46437        -6.28423         3.95652
LJ            4.5741        0.103303        -3.09428
LJ           2.49029         4.04466        -5.45288
LJ          0.491612        -5.87574         3.46127
LJ           1.05334          -1.918         1.33242
LJ           4.71963        -5.85732         -4.5266
LJ           5.89251         3.25041        -4.20824
LJ           4.90905        -4.66825        0.389092
LJ           5.71617        -3.27053         0.59988
LJ          -1.99597         0.71646        -1.67202
LJ           2.96264        -4.26462         4.78064
LJ          0.227574         4.14107         6.11045
LJ          0.987846        -2.74895        -5.89876
LJ           3.94492          6.2448         5.32912
LJ          -6.38127       -0.568634        -6.06231
LJ          -6.31123        0.945563         4.80608
LJ          0.487894         2.63675         5.47509
LJ          -1.52916        -2.09424        -3.82016
LJ          -1.53807         2.24114         4.85459
LJ           4.67466       -0.931865       0.0551116
LJ          -3.45011         6.03703         6.11011
LJ          0.915568        -4.98338        -2.56678
LJ          -5.11327        -5.77064        -6.35782
LJ           6.36423         4.36243          2.0614
