108
#Comment!
LJ           4.16392        -5.92997       -0.454205
LJ          -3.27659         3.63895         2.99687
LJ         -0.841907        -1.85956      -0.0448454
LJ         -0.607012         2.21225         6.18906
LJ          0.366755         5.82352         5.54594
LJ            5.6444          1.1764         4.63865
LJ          -5.15143        -4.80283        0.190997
LJ        -0.0855896        0.158979         5.32961
LJ          -0.12281         5.20697         2.62039
LJ          -1.25922        0.182119       -0.121955
LJ          -5.06634         3.11961       -0.137309
LJ          0.626916          1.5548         6.04535
LJ          -3.23293        0.114656         5.28241
LJ         0.0961863        -3.49223        -4.71604
LJ          0.197266         4.11217        -3.13714
LJ          -4.51538         5.56284        -2.60883
LJ           3.72969        -2.78037        -1.68194
LJ          -5.71485        -2.84312         3.78689
LJ          0.676256         1.26814        -1.22487
LJ           2.05093        -4.85734        -2.85266
LJ          -1.07078         4.27619        -5.07554
LJ          -3.03538         -2.3023    -0.000688493
LJ           2.70018         2.40382        -3.50472
LJ          -4.61252        -5.80595         -2.1212
LJ          -3.29618         2.28938        -5.02033
LJ          -2.45355        0.434599         3.68366
LJ          -2.97591         4.13944         4.45797
LJ         -0.640406        -4.61493         5.97955
LJ          -0.86607       -0.140558         3.21289
LJ         -0.321176         4.98467        -3.38822
LJ          -6.10409        -3.69405        0.394424
LJ            1.5138         5.98367         4.40946
LJ          -6.23411         4.25854        -5.31935
LJ           5.63706        -4.33571         3.40242
LJ           2.23417        -3.54043        -3.69008
LJ           2.17261         5.54213         6.14425
LJ           5.29527        -5.67876       -0.827298
LJ          -1.64437        -1.31066         1.92134
LJ          -5.89212        -2.66892        -2.01661
LJ           4.03351            5.05        -2.50668
LJ          0.197171        -3.00965        -6.17692
LJ          -2.43266        -6.12617         3.14961
LJ         -0.987453       -0.258153         2.05215
LJ          -1.71848         3.02444        0.381047
LJ           3.62456         5.66647        0.881957
LJ             4.807        -6.24499        -2.05323
LJ          -4.93472        -1.56187        0.901421
LJ          -2.58853        -1.69385         5.21619
LJ           2.15727        -3.20216         1.45101
LJ           2.00969         1.57037       -0.958205
LJ            2.5859         5.55518         4.76978
LJ            4.3442         5.56204        -5.17145
LJ           4.54322       0.0635717        0.825179
LJ           2.43676         2.79251          3.1294
LJ          -4.62697          2.3813         2.94109
LJ          0.196102       -0.472279         -2.6287
LJ          -2.86867         -4.8978         3.00798
LJ          -4.58079       -0.585135         5.12859
LJ           5.69974         3.50327         3.69803
LJ          -1.85135         3.87798        -0.73312
LJ            -5.081        -3.50982          3.8207
LJ          -1.94231        -1.57342        -5.79282
LJ         -0.428605        -4.02569          -4.009
LJ           4.87591        -0.50536        -1.45714
LJ         -0.625064          3.4707        -5.42102
LJ           0.64746        -1.72156         6.07417
LJ          -1.38576         1.05458       -0.709063
LJ           1.73103         5.64056        -5.75405
LJ           2.26214        -2.19983         3.70352
LJ          -4.09913        -3.36641          6.0769
LJ          -5.68168        -1.96731         5.12628
LJ           2.20481          3.6864       -0.683532
LJ          -2.42003         5.37874        -5.44548
LJ          -6.20795        -5.12473        -3.10507
LJ          -3.19211         1.55322         5.31355
LJ           1.05798        -6.43152        -4.80305
LJ          -2.23907         4.74902        -4.37493
LJ          -4.36173         2.38527         4.77648
LJ          -1.38384         6.11736       -0.544738
LJ          -1.40052         2.33273         1.25506
LJ           1.36816         2.85995          -1.642
LJ           3.93522      -0.0615108        -4.84845
LJ          -1.94191        -4.86079         2.32506
LJ         -0.971921        -1.15659         6.11434
LJ           5.47577        -2.87981         1.17256
LJ           3.58743        -1.20807        -4.96102
LJ          0.115805         3.41553          1.7215
LJ          -4.21125        0.614939         3.80847
LJ          0.101072         -5.4813         1.27882
LJ           1.92512         0.33634        -5.51965
LJ          -3.85707        -5.16932          4.2519
LJ         0.0550283       -0.126256        -5.91501
LJ           3.93185        -1.21266        -5.96669
LJ           4.99086         1.10682         1.03444
LJ           4.72004         5.73871       -0.891275
LJ          -3.34629         6.03246        -2.85313
LJ          -4.09248        -6.29205        -4.21935
LJ          -5.90823         5.29633        0.850349
LJ           2.06261        -4.92332        -4.33574
LJ          -5.39086         3.41188        -1.24209
LJ          -5.59041        0.745906         6.20057
LJ          -3.81931         6.04607        -2.03988
LJ         -0.148543        -3.88281         2.82849
LJ           3.22893          6.3675         -6.1714
LJ          -3.99813        -5.12978        -6.45622
LJ         -0.253587        0.273808         1.43963
LJ           3.18465         0.81096       -0.499516
LJ            2.6803        0.456156         -2.1783
