108
#Comment!
LJ           2.23272         6.37981        0.281226
LJ          -3.15833        0.975212         2.17841
LJ          -1.25789        -2.30409        -3.09822
LJ          -1.69808       0.0800669       -0.969781
LJ          -1.02582         5.13266        -1.85964
LJ           6.00441         5.15086        -1.65684
LJ           4.45211         2.31405        -4.00283
LJ          -6.33273         6.19039        -4.61138
LJ            3.2302       -0.699219         5.93273
LJ           1.40286        -6.05751        -4.96968
LJ          0.614734        -4.27118        -5.02083
LJ           -2.8289         5.23612         5.92448
LJ          -2.17687        -6.18109        0.261188
LJ          -2.67724         -5.0376      -0.0270472
LJ          -5.45235         5.26753          5.2993
LJ           1.40951        -3.70831        -3.93855
LJ           4.28838        -2.61112         2.23368
LJ            4.1821         -4.1924         2.65613
LJ            3.0615          5.8107        -5.50168
LJ           1.15115        -2.75158        -4.74603
LJ          -2.83309          -4.826         1.37789
LJ           6.23894        -3.76246         5.19068
LJ           5.95506        -6.01591         2.93518
LJ          0.877652         5.95822         3.52587
LJ          -4.17286        -2.16993        -6.12551
LJ          -1.34196        -3.91846        -3.89974
LJ          -5.68444         1.66954        -3.67681
LJ          -1.16214        -1.74727        -5.20104
LJ          -4.73158        -4.72585         1.45203
LJ         -0.266049         5.53742         1.92608
LJ           2.38353         3.64009         1.51117
LJ          -3.13179         3.84245         3.14843
LJ          -2.65681        -3.59104         2.29635
LJ           4.00692        -3.94214        0.447547
LJ          -4.29656         3.37821        -6.24837
LJ          -1.63117         3.27884        -5.73385
LJ           5.48434        -3.77032        -5.58424
LJ          0.218221         1.96364         1.88491
LJ           3.72754         3.29195         5.49219
LJ           4.88161         2.61432        -1.10493
LJ          -5.34385         5.48327        -2.02259
LJ          -1.40721       -0.604772         3.86426
LJ          -2.57592        -6.34727        -3.08018
LJ           0.35984         3.05106         3.43725
LJ          -5.90853        -4.77165        -2.36535
LJ        -0.0298334        -3.18636        -3.93355
LJ         -0.519623        0.866038        -4.86535
LJ          -1.12226        -2.19535         5.04659
LJ          -5.96536        -3.75387        0.193845
LJ           1.30026        0.141976         0.92639
LJ         -0.657479         1.83787           0.838
LJ          -1.80631        -2.86578         3.72275
LJ           4.91502         5.15514        -3.95416
LJ          -4.24858        0.222919         -1.7537
LJ           2.33262         1.14211        -6.16163
LJ          -0.31994         3.24631         5.03881
LJ           1.70961         4.35241        -6.40976
LJ          0.917405        -5.33188         -5.5869
LJ         -0.869166         4.98761        0.662377
LJ          0.885286         2.85836         -2.8181
LJ          -5.21933         1.24835         1.20842
LJ          -4.96212       0.0666698        -4.29298
LJ            1.4089         4.39728        -5.14277
LJ          0.996302       -0.238507         3.37137
LJ           3.89621        0.629796        -6.27394
LJ           3.40675         4.79278        -2.24769
LJ         -0.622657        -1.54923        -4.41665
LJ          0.574606         4.85293        -6.28938
LJ           2.23678        -2.40254         -1.6272
LJ           -6.1437        0.844168        -2.47555
LJ           3.53397         1.28201         5.54154
LJ           5.24768         4.54834        -5.41382
LJ           2.87135       -0.266084         3.01844
LJ          -1.04057         3.96884        -6.14171
LJ          -1.12429         3.99506         4.72658
LJ           3.59985         5.06852        -6.45112
LJ          -3.81743         2.83394        -5.13236
LJ           4.58503         5.29018        -6.15749
LJ           1.10926          -4.657         3.30335
LJ          -2.61802         1.60459        -6.43305
LJ          0.736697        0.695194          3.6175
LJ           5.30275        -1.16635        -4.29694
LJ           1.54042        -1.97346        0.396312
LJ         -0.054229         5.75416         4.45235
LJ         -0.110638        -2.25252        -6.03673
LJ           6.39155         3.55362        -5.53602
LJ          -3.51727        -5.68858         1.12322
LJ            5.7804         4.78508         5.38653
LJ          -5.52426        -5.19967         4.48629
LJ          -5.18412         1.60853       -0.931472
LJ           1.23654         5.80275        0.404003
LJ         -0.478584        -1.66238        -2.94824
LJ          0.246439         2.19455         6.37623
LJ          -3.87986        -3.14924         -4.4729
LJ        -0.0529034          6.1744        -3.86042
LJ         -0.434573         4.23326         1.43221
LJ           5.86424       -0.559145         5.27274
LJ           3.03765       -0.370452         4.14659
LJ          -2.98486         3.77782        -6.19931
LJ          0.158386        -2.66728       -0.448575
LJ           1.12526         4.74054        -0.11929
LJ          -4.02969        -5.18438         -5.8018
LJ           -5.8895        -1.06435        -3.19715
LJ          -3.62053         6.35783          1.4916
LJ           3.88198        -6.24099         0.47174
LJ          -5.03339        0.398143       0.0798249
LJ           -5.4754         1.26383        -6.24033
LJ          -1.02976         4.00679       -0.563368
