108
#Comment!
LJ          0.239022        -1.08488        -4.57998
LJ          -5.81146          3.6542         -5.2533
LJ          -6.00214        -6.24936        -6.03187
LJ          -1.55381         1.20778        -3.07243
LJ         -0.431687         5.71803         2.91542
LJ          -5.18964        -2.20864         3.01451
LJ          -2.40311        -2.81411          4.1157
LJ            4.8263       -0.686067        -2.73648
LJ           5.02399        -2.47322         2.34887
LJ           5.24782       -0.562891        0.488641
LJ           5.56089        -4.99237        -3.88085
LJ          -1.87904           -5.48        -5.37225
LJ           2.31707         2.71474        -1.57628
LJ          -5.03379         -3.4443         -1.2608
LJ           2.79709      -0.0988577         6.07172
LJ          -3.31367         3.85983        -3.66469
LJ         -0.917119          5.3084        0.612338
LJ           4.43845          5.5199        0.120256
LJ           -2.1484         4.23877         4.09377
LJ           2.13578         1.40817        -3.05098
LJ           1.67948        -3.17861         1.04519
LJ          -1.89612         -5.5758        -1.94375
LJ          -5.66824         4.05473         6.08603
LJ           5.11457        -1.07093          2.0783
LJ           -1.5491        -2.21696        -2.87015
LJ           6.27104        -5.09981        -1.38748
LJ          -4.63763         3.19209        -4.96229
LJ           2.86369           1.029          3.2434
LJ          -4.37537        -5.36311        -2.88908
LJ          0.867761        -2.03002        -4.89841
LJ           4.13556        -4.79614         -6.2338
LJ          0.769925        -5.68279         2.09946
LJ           1.16626      0.00767886       0.0992386
LJ          -3.36482         4.17399        -4.64685
LJ          0.950151        -6.07066         5.44699
LJ          -4.14389        -4.69136        -5.61529
LJ           4.86323        0.510577        0.729992
LJ          -5.36192        -2.65361        -2.40521
LJ           5.54595        -4.31348       -0.219003
LJ           5.86124          2.2173        -1.26258
LJ         -0.064173        0.508693         2.15367
LJ           1.45008         5.88079         5.89155
LJ           -6.0808        0.642056        -2.48258
LJ          -1.19719         -3.1417        -4.36828
LJ          0.609211        0.841421        -5.21745
LJ          -2.69201        -2.92535         -2.6649
LJ           6.02264        -4.83759         2.81106
LJ           4.80911        -4.86606         5.31093
LJ           5.10657        -4.59809         1.33688
LJ          -5.64043        -6.19546         5.14381
LJ          0.838675        -3.68031        0.708192
LJ          0.391198        -1.53481        0.593562
LJ           -2.4681         2.89531        0.126892
LJ           4.59641        -4.93693        -4.72304
LJ           4.65532        -4.09689       -0.837772
LJ          -4.72055         6.12673        -3.96736
LJ          -2.97084         5.19642         5.13351
LJ          -1.40969         1.42804          1.9095
LJ          -5.31919        0.546127         -1.3578
LJ          -3.12773          2.5044         4.74892
LJ           4.92322          6.4065        -1.24278
LJ           2.17849         4.94014         -4.9781
LJ          -1.42437        -4.03052         4.86684
LJ            -1.576        0.576418        -4.87831
LJ          -4.57677           3.889        -1.72053
LJ          -5.80693         2.82897        -4.05838
LJ           4.03665         5.55971        -3.00409
LJ            3.7032        -4.46123          5.4137
LJ           4.57761        -3.33992        -5.28782
LJ          -6.27393         6.21033       -0.835083
LJ          -4.15351         4.08821         4.41489
LJ          -2.70952        -3.34272         5.16148
LJ           2.31625        -3.53181        -5.33315
LJ            2.3649        -4.33317          4.3488
LJ          0.507345        -1.43568         6.12854
LJ          -3.71693        0.740064        -5.09565
LJ          -1.93812          -4.894         3.58859
LJ          -2.77343         5.95084        -2.94492
LJ           1.69041         -3.6061        -3.50034
LJ          -4.84603        -6.31953         4.25014
LJ          -6.10908         1.49993         1.94079
LJ           2.92552        0.109361        -5.76854
LJ           3.81309        -1.71025         5.58962
LJ         0.0148214        0.796149         3.70205
LJ           -5.3049        -3.76985         4.48649
LJ          -3.71947        -5.90657         2.69149
LJ           4.92205        -5.79813         2.75855
LJ         0.0951231        -2.86759        -5.38664
LJ           4.29042         3.32454         3.21157
LJ          -3.03101         1.31378         4.82786
LJ           5.47485       -0.624614        -5.43506
LJ            3.9294       -0.539376         5.76411
LJ          0.180162         4.97212         1.51413
LJ           4.76553         1.67658        -0.18198
LJ           3.86179         1.11952        -0.82655
LJ           5.63837        -1.56177       -0.625612
LJ         -0.341207         3.03617        -2.58813
LJ          -2.64114         4.65005        -5.79228
LJ           1.72159        -1.10921         5.62456
LJ          -6.21288         -1.6502       -0.809261
LJ          -4.80878         4.22295         -3.3001
LJ           2.95349        -4.16605        -3.35281
LJ          -2.40184         1.41128        -6.31075
LJ           2.95704         1.37365        -3.86118
LJ           1.15693        0.689924       -0.793387
LJ           4.79569         5.10394         -3.8873
LJ          -2.38708         5.01369        -2.33586
LJ          0.905681         4.43968        -5.56898
