108
#Comment!
LJ           5.09891       -0.950497         5.60818
LJ          -2.26343         -2.2691         1.29637
LJ           6.41894         4.72826         -1.2689
LJ          -6.20143       -0.416228         5.75486
LJ          0.860255        -2.38375         1.68653
LJ           4.87424         4.52293        0.765777
LJ          -1.06736       -0.241926        -1.68477
LJ           1.37209        -3.46888        0.101101
LJ          -3.03805         6.03749         6.30943
LJ           2.48282        -3.19155         5.36098
LJ           3.48183       -0.238847        -5.96411
LJ          -5.65805        0.759103        -3.14389
LJ          -2.30192         4.00754        -5.38243
LJ          -4.41917        -0.32458         2.49801
LJ           3.49697         2.13059        -3.81064
LJ           -4.8842        -6.38899       -0.127171
LJ           -2.8384        -6.13121        -5.66931
LJ           6.41632         2.53376        0.181961
LJ          0.273986         0.74417        -5.37105
LJ           1.53736        0.422496        -5.32924
LJ           1.67463         5.02119         2.48959
LJ           5.37083         1.72828         -5.6412
LJ           6.27606         1.29434         1.01463
LJ           3.68963        -4.72475         3.43411
LJ          -2.49208        -5.89959         2.48757
LJ          -4.67723         4.39026        0.526278
LJ          -2.82969        -0.82407      -0.0481604
LJ          -5.48705         3.61311        -4.03329
LJ          0.391282        -5.59355         2.72878
LJ         -0.407993        -3.27881         1.05772
LJ           5.78447         -1.3666        -1.14801
LJ          -4.29023        -6.03664         5.29108
LJ           3.20587        -3.65345        -2.38542
LJ            -5.443        -2.55921        -1.53741
LJ          -2.09861        -2.11317        -3.71586
LJ           6.20835         4.76969        -3.58213
LJ           5.69988        -4.31208         4.73289
LJ           4.16675        -1.78404         1.59807
LJ           -6.1112         6.00609        0.538461
LJ          -5.71104        -1.67773         1.27285
LJ          -5.70749        -3.30159        -2.38135
LJ           4.19622        -4.59809         1.87926
LJ          -5.79167         6.46225         6.33253
LJ          -1.51938        -5.17675        -1.51938
LJ          -5.66815           4.902       -0.171618
LJ          -3.17414        -5.22672        0.752249
LJ           5.93658        0.296018        -1.01921
LJ          -5.27949       -0.607947        -6.25511
LJ          -5.59295         6.18637         2.90119
LJ           5.26378         3.00792         1.87793
LJ           0.56709         1.09559        -4.37076
LJ           1.17139        0.403119         5.03505
LJ          -1.10674        -2.87452         2.73972
LJ          -1.87355         4.15271        -3.85448
LJ           2.72046         4.02963       -0.104532
LJ           2.69979         5.87127        -1.76093
LJ          0.394302          3.8795        -5.27904
LJ          -6.17687         6.22505         2.04927
LJ           6.32695        -2.32588         2.80338
LJ            6.0242        -2.10131         6.05384
LJ           -5.5723        -1.15141         2.29342
LJ           0.51966        -4.41175        -3.52432
LJ          -5.03857         1.69452        -2.93468
LJ          -5.00005        -5.33891      -0.0501717
LJ          -4.84736         -2.6367      -0.0761001
LJ           1.68224         5.11548        -5.95703
LJ           3.50825        -3.55042        -5.03228
LJ          -0.27447       -0.799272        -2.66351
LJ            1.5217        -2.24039        -3.67192
LJ           3.15103        -4.34647        -1.05184
LJ          -1.29514        -5.81919        -3.35983
LJ           2.78563         2.67539        -4.44828
LJ          -4.73131         -1.0955         6.00895
LJ          -6.15192        -2.64052        -3.00375
LJ          -5.92087       -0.706702         -5.0238
LJ          -4.93875         1.78879        -4.05379
LJ           5.73929        0.594664         6.36528
LJ         0.0266681        -5.56668        -2.92886
LJ          0.395234        0.354811         4.16532
LJ           -3.2242         5.31361        -3.89558
LJ          -6.07188        0.851934        -1.32447
LJ         -0.234579         -5.3907         4.58648
LJ         -0.589316         4.28205        -5.25054
LJ          -1.07307        -3.96624         1.77309
LJ           1.17818         4.57262        -3.73766
LJ          0.578478        -3.42709         3.21248
LJ            5.8679         3.25822       -0.292943
LJ           2.84475        -6.16116         6.24623
LJ          -4.12613         6.31253        -3.47779
LJ         -0.351391         6.01339         4.14335
LJ           5.70283         3.10405        -1.50225
LJ            2.2501         4.14383         1.19019
LJ          -3.57555          4.2378       -0.149129
LJ          -3.46183         4.17213        -2.92764
LJ          0.917615         4.21512         1.55161
LJ          -3.37387        -3.66627         5.36723
LJ          -2.52749        -4.94848        -3.24588
LJ           5.72578        -1.92289         4.83689
LJ          -2.94297        0.904186         1.38125
LJ         -0.022286         -5.5684         0.81219
LJ          -1.14043         5.37474         5.01553
LJ          0.560139         1.04754        -2.88352
LJ          -3.15664         3.95858        -4.50735
LJ          -1.57962         4.43009        0.605876
LJ          -3.73558        -5.77966        -5.36302
LJ           1.36512        -5.41841        -4.60914
LJ           5.34976         5.65695        -1.39395
LJ          -5.29954       -0.368989         4.08505
