108
#Comment!
LJ           2.95748         4.67924         2.35025
LJ           -6.1042         4.19669         1.51171
LJ           1.31352         2.80773        -1.93654
LJ          -3.30734        -4.65163         -0.2337
LJ           1.40827        -6.23754         -5.2751
LJ           -2.9742        -1.34352         5.03872
LJ          -2.48545        -5.88643         2.21896
LJ          -2.54381        -4.74646        -5.16462
LJ           2.17981         5.29529         4.60544
LJ           1.16499        -2.72821         5.92927
LJ           5.86824       -0.710663         3.90076
LJ          -6.33753         2.15992         4.98673
LJ           4.94258        0.435994         3.47508
LJ          -4.72191        -3.80011        0.910412
LJ          -4.06533          1.8398        -2.05095
LJ           2.09142        -5.79328         2.52845
LJ          -6.28167         1.89585      -0.0628428
LJ          -4.42308       -0.191338          1.3541
LJ          -3.16324        -4.73488          5.2698
LJ          -1.06672        -2.51934        -6.40204
LJ          -1.90886        -1.96249         6.03328
LJ           2.64586        -5.67835       -0.300341
LJ          0.916241        -3.82848        -1.11371
LJ          -3.02056        0.598548        -5.63953
LJ          -5.00431        -3.39516       -0.506691
LJ           4.34349        -4.29365         1.58095
LJ           -2.3634         3.49121        -6.44672
LJ           1.29723         1.82358        -1.05267
LJ          -4.94535         5.28879        -2.45985
LJ           3.79058        -4.97344        -3.44461
LJ           6.27865        -1.59836         3.29433
LJ           3.74234        -6.41772          1.0461
LJ           -5.9847        -4.43355        -4.54645
LJ          -2.08419         6.18847        -4.56982
LJ          -2.83381         5.63964        -2.99333
LJ          -5.54381        -4.93233        -2.24501
LJ           5.54376        -3.50536         -1.2068
LJ          0.115484        0.394411        0.508652
LJ          -2.91185         2.94555         1.09175
LJ          -3.89502        -1.21426        0.453861
LJ          -4.97525         4.31448        0.121855
LJ          -2.68136       -0.110654         1.91326
LJ          -2.07177        -6.31439         5.24128
LJ           0.47155         1.36987         -1.8113
LJ          -4.73307          5.2221        0.323779
LJ          -2.33275       -0.820198         -1.7755
LJ           -1.9419        -2.99237         3.17266
LJ          -1.65897          4.6155     -0.00449379
LJ          -1.16327         -6.4049         3.70673
LJ           4.15023       -0.315879        -5.08881
LJ          0.676436         4.24994        -1.76668
LJ          -2.72374         4.09432        0.946329
LJ          -6.04243         6.42393          5.7819
LJ           1.33104        -4.60706         3.17982
LJ          -4.54981        0.291743        -4.18052
LJ           5.13186         2.33426        -2.15735
LJ           0.17533       -0.476155         1.61465
LJ           5.46948        -3.36701         3.75152
LJ           2.98711        -1.75922        -2.51248
LJ          -3.50647         0.30574         0.98276
LJ           2.20439        -6.12282         3.68393
LJ           3.80253        -2.18266        -5.92358
LJ           3.14527        -5.50225        -4.29502
LJ           0.66232         6.12733         -4.7804
LJ         -0.511014         4.75408         5.87022
LJ           2.36729        -4.20257          4.5131
LJ           4.30625         1.36696         4.69907
LJ          -2.82975         5.00239        -5.11097
LJ          -6.37799        0.759518        -3.28846
LJ           5.44033         1.50426         2.29588
LJ          -4.77492         6.05162       -0.430942
LJ           3.52109         -4.4512         3.12896
LJ           1.48692         4.95365        -0.11754
LJ           5.81428        -1.70536        -4.83597
LJ          0.991687         -4.3238         5.51078
LJ          -5.79682        -0.68511         5.23641
LJ           1.68913        -2.84948         3.86763
LJ          -2.66232        -3.10233        -3.89597
LJ          -1.23116        -2.00499         3.77201
LJ          -1.97939       -0.559516         4.59985
LJ           3.78277        -2.30482         5.76684
LJ          -1.09906       -0.159568         4.35974
LJ           6.11101         3.66804         2.04828
LJ          -3.27672        -3.65318        -5.38374
LJ           6.43069         2.14727         1.18743
LJ         -0.438437        -5.19452        -1.00405
LJ          -4.55375        -4.68597         1.25628
LJ          -4.82268        0.137667         2.50748
LJ          -1.38219        -3.63097         5.10677
LJ           4.52607         4.14036         -4.6332
LJ         -0.330617        -5.76154         1.04793
LJ           4.72595        -1.98593        -6.28594
LJ           -1.6441         3.85505        -3.75938
LJ          0.467732        -5.30586         5.84595
LJ           4.78153        -2.62911         3.38098
LJ           5.95121        -6.21462         1.44753
LJ          -2.16262       -0.577647         3.55543
LJ          -1.66582         3.01515          3.7631
LJ           2.86589       -0.534676         4.26004
LJ          0.491788         4.45436        -4.61448
LJ          -1.62109        0.218512        -3.96042
LJ          -5.66062        -3.26569        -4.79253
LJ          -1.01253          5.3871        -1.72153
LJ           2.07522        -5.77257        -1.18207
LJ          -5.20719         2.38158        -3.82791
LJ           2.54844         4.33402        0.826515
LJ          0.103203       -0.858477        -5.30703
LJ            -6.116         1.21942         4.75266
