108
#Comment!
LJ           4.11554         4.44008        -4.47533
LJ           4.76685        -1.21244        0.478558
LJ          -5.42962        0.180668          3.5481
LJ          -2.46172         1.10468        -3.78465
LJ           5.59037         -4.4089         4.46091
LJ          -2.14969          4.0794        0.746334
LJ           1.79939         4.15324        -1.19695
LJ           2.23944         2.50302         -1.2761
LJ          -2.26944        -4.92551        -2.88679
LJ            4.4073         4.40784         1.38538
LJ             6.114        0.467993        -3.87521
LJ            5.6071         4.64788        -2.05068
LJ          -5.24894        0.815216        -1.87648
LJ           1.97681         3.53504         5.37121
LJ           1.62471         2.95702         4.44587
LJ           4.12855         1.50597         -4.5517
LJ           5.07346         2.40933         1.49676
LJ           4.93205         5.42574         3.84521
LJ          -3.84226          3.5276        -4.40914
LJ          -2.85212        -3.05042        -3.48739
LJ         -0.980792        -2.57982         4.01441
LJ          -4.31569        -4.69982         6.14311
LJ          -1.92995       -0.643653          3.8998
LJ          -6.03892         1.36897        0.535302
LJ          -3.73572        -6.10915        0.333301
LJ           -2.5947        -4.94014         1.47782
LJ           0.61486         4.87412         3.67162
LJ          -3.30906         -3.8871        0.674461
LJ          -4.57073         5.32883         -4.8586
LJ           -1.3867        -1.37811         4.75898
LJ           4.24799        -2.04815        -4.04362
LJ          -4.48009         2.23424         3.47439
LJ          -1.06103         5.81674        -2.59747
LJ           1.14754         5.67415         5.37863
LJ         -0.648873        -3.51867        -2.31803
LJ          -3.02662        -3.71635         3.54577
LJ           2.26842          3.8671        0.428013
LJ           1.89302        0.710592         5.20846
LJ           3.23676       -0.048771         5.94981
LJ          0.272889         1.32667        -4.14125
LJ          -3.79696        -4.17193       -0.776761
LJ          -4.44429       -0.760414        -4.67742
LJ           4.96852         5.91744         6.23556
LJ         0.0257346        -5.01668        -4.32097
LJ          -5.83451         5.99598        0.818179
LJ         -0.643734       -0.054811          5.8252
LJ           3.63901         1.85937         3.69078
LJ           1.88206        -3.04672         1.85346
LJ           1.90431        0.922505         1.49922
LJ           4.34291        -5.17364       -0.895351
LJ          -1.96756        -6.37887           4.476
LJ           5.53909         3.56855         -4.4813
LJ           1.09694        -0.75629        -2.14097
LJ          -6.28738         5.01215        -2.52411
LJ         -0.821451         -3.4022         5.16854
LJ           1.10102        -6.43344        0.749883
LJ          0.202936         5.31019        -1.17318
LJ          -3.78137         2.41674        -3.55388
LJ           6.44247          3.9607        -3.39868
LJ           2.94041       -0.118141        0.156933
LJ         -0.468819         -5.3828       -0.675256
LJ           3.41691         3.46879        -0.43154
LJ          0.807283        -5.80829        -5.58873
LJ          -3.75108         3.97957        -5.34503
LJ         -0.444715        -6.01438          5.1328
LJ           1.09176        -4.78194         6.40732
LJ          -2.15278       -0.957987         5.66903
LJ          -6.19954         6.21927         5.21497
LJ           3.04646        -3.48579        -2.81941
LJ           1.95431        -6.04691          4.1465
LJ          -3.31865        -3.71912        -2.91723
LJ          -5.10967        -3.68543         4.79301
LJ           2.79548        -5.34588         3.69295
LJ           4.04293         5.44515        -3.74013
LJ           4.73959         6.32134        -1.97611
LJ           6.25263         3.29373         3.95185
LJ           2.90042        -3.39261         6.44552
LJ          -2.59322         4.19954         5.20368
LJ          -6.00722        -1.41301        -1.26333
LJ           4.10356        -2.67802        -5.41997
LJ           2.31042        -1.54307         3.72598
LJ           5.91542        -3.02758         5.03783
LJ          -1.80154        0.640962        -5.54437
LJ           2.24836        -3.28486        -5.21305
LJ        -0.0424289         2.35669        -3.13164
LJ          -3.26434        -4.97969         6.12442
LJ          -1.34587        0.884469         2.98459
LJ           5.30996        -6.43412        0.905827
LJ           2.51781       -0.100771         2.32188
LJ           5.46009      -0.0722656       -0.605111
LJ           3.59006         -2.5438         2.96372
LJ         -0.308665         4.84752         4.20908
LJ          -6.32754       -0.539907        -3.36868
LJ            2.8286         5.59505         3.45582
LJ          -5.20466        -4.74039        -1.59951
LJ            1.0975       -0.497326         4.75058
LJ           1.88819         5.88196         3.85275
LJ          -1.35023        -2.29415         5.61842
LJ          -3.03033         2.21366         5.95373
LJ          -5.30512        -2.90907        -3.71032
LJ          -4.08055         5.03659        -2.59742
LJ          -3.43049        -1.41021         5.45606
LJ          -4.15409         2.56952          2.3928
LJ          -3.13374         2.55727        -4.64234
LJ           1.10173         2.66085        -4.78793
LJ         -0.223296        -5.46229        -1.97943
LJ           2.09158        -3.19999       -0.977009
LJ             2.506        -5.71707       -0.830163
