108
#Comment!
LJ          -4.76551         4.25762         3.17708
LJ          0.359711         3.74809         2.67597
LJ           -1.3784         3.43305        0.532038
LJ           1.86367          1.5394         3.33834
LJ           -5.2907        0.716816        -5.35524
LJ          -4.28411         5.54361        -3.89685
LJ          -2.64837         4.71818        -4.10396
LJ         -0.674048        -5.01313        -1.44085
LJ          -2.04502        -1.57114         1.52107
LJ           5.84874         2.61627        -1.01009
LJ          -2.94178         2.92162        -5.08606
LJ           6.38513        0.478334        -1.61447
LJ         -0.884637         5.24992          3.1919
LJ          -4.14203         2.48133         3.84782
LJ           4.77946         2.36173         1.89371
LJ          -5.91134        -3.61997        -1.93602
LJ          -4.95563        0.408066        -3.54398
LJ            3.7072        -2.40024        -3.91354
LJ           5.23407         2.87629        -6.26895
LJ          -2.70438         2.15293         4.75825
LJ          -4.00071        -6.38063          2.8087
LJ          0.483726         2.19567       -0.330456
LJ          -3.24378       -0.944145         4.37919
LJ           4.86839        0.893887         2.32453
LJ          -2.59434        0.862881         5.21666
LJ          -5.97253        -4.40229       -0.305213
LJ          -1.63978        -2.19481         6.20779
LJ          -4.29651         5.18311        -5.07258
LJ           1.29639        -3.32623        -5.05125
LJ           3.12668         4.90658        -2.52637
LJ          -2.38932         4.52655       -0.819713
LJ           -2.2026        0.254742        -2.55424
LJ          -3.96641        0.817296        -3.52051
LJ          -0.97017         1.46263         4.95988
LJ         -0.354544        -1.65854         3.41691
LJ          -1.38147         0.47775         3.39213
LJ          0.121199        -3.64077        -4.40633
LJ          -4.03387         3.39541         1.13839
LJ           3.07505        -0.33379        -3.63442
LJ          -5.88773        -5.51594        -1.72066
LJ           3.79303        -4.98714        -1.65189
LJ          -1.48805        -6.30155        0.100278
LJ           5.60966         5.21712         -6.2452
LJ          -1.80173         5.05347        -5.79244
LJ           1.32705        0.165855         3.39018
LJ          0.595568        -1.79443        -4.56852
LJ          -4.47223         -2.2634         3.27254
LJ          -6.09844         4.01587         3.12167
LJ          0.923914          5.2579         3.58586
LJ          -2.68664        -5.83091         0.15968
LJ           2.36861        -5.61546        -2.65081
LJ          -1.45149         2.53349         6.38345
LJ          -3.29709         1.92664        -4.21935
LJ          -4.28333         1.74329         -1.8292
LJ          0.854367        0.280706        -5.81918
LJ          -1.17205         3.11709         4.50087
LJ           3.33901        -5.40804         3.77388
LJ          -2.48687         5.97133         -1.9966
LJ           2.52951         3.79674        -2.53219
LJ           1.95073         -1.7729       -0.300424
LJ          -3.81873        -4.03763         3.74837
LJ           4.17019        -1.41756         0.24978
LJ            -3.413         5.24846        -1.49515
LJ          -1.37845         1.02974         -2.1244
LJ           1.08763        -1.14476         6.24585
LJ            6.3031         -2.4613        0.749421
LJ          -1.51742       0.0462666         1.95988
LJ          -2.71297         6.01941       -0.403764
LJ           6.37806           1.041        -4.25098
LJ           1.38886         6.38723         3.55359
LJ          0.271542         1.57131        -3.00805
LJ          -4.80445        0.440437         2.49633
LJ          -2.39674         1.67688        -5.86426
LJ          -5.85976        -5.82829        -4.88077
LJ            5.2829          6.0813         2.23296
LJ          -5.21299         2.38595       -0.576731
LJ           3.23909        -2.60081         4.56338
LJ         -0.883996        -2.43518        0.252677
LJ          0.999653        -1.20467        -3.34469
LJ          -2.02404         6.46121          2.9933
LJ           3.01542        0.215983         1.42535
LJ          -5.33524         5.51075        -6.04798
LJ          -4.38118         4.98299        0.574416
LJ            3.0727         0.10519        -5.12844
LJ            4.3628         -4.7994        0.163154
LJ           2.30465        -5.68834         2.24789
LJ           5.57081         2.97375        -4.09729
LJ          -2.39617         3.50376         1.26957
LJ          -1.06151        -4.43928        -5.90446
LJ           1.64152        -2.94688         2.13806
LJ           4.16805       -0.957526         1.54717
LJ           2.97743         1.96171        0.588537
LJ          -5.47321        -1.46265         3.53505
LJ           2.55842        -1.44612        0.648267
LJ          -4.44407         3.62719         4.21522
LJ           5.77593        -2.90157        -0.58701
LJ          -4.91125         1.30856         1.81224
LJ          -5.72989         2.70537           -5.91
LJ           1.32473        -4.34423         1.11202
LJ           -5.6796         5.14939        -1.33009
LJ          -5.13905       -0.950399         1.69163
LJ          -5.13952         5.74776      -0.0264838
LJ           5.54567         4.52058        -3.76483
LJ          -3.54994        -1.70178        -1.93221
LJ          0.862548         1.76496        0.628827
LJ          -4.44513         1.07766         -1.1028
LJ           -5.5677       -0.471749        -1.62668
LJ          0.621563           5.445         5.74778
