108
#Comment!
LJ           6.34112          3.3991        -5.77266
LJ            2.6517        -1.39153        -1.64459
LJ         -0.226443         2.07971        -4.09786
LJ           -1.5371         3.52645        -5.12285
LJ           5.26405        -6.37647       -0.136719
LJ           1.48895         0.77046         1.12208
LJ          -5.89692        -5.45489        -3.71362
LJ          0.787306        -3.05705        -5.97234
LJ           6.05346         3.08754        -4.38192
LJ           0.55727        -1.94353        -3.61054
LJ         -0.182125         6.04605        -2.92702
LJ          0.439639         5.82442         1.85247
LJ          -3.89482         6.13853          2.9013
LJ          -5.28428       -0.977028         4.24693
LJ           5.05138        -2.42598        -2.04889
LJ          -3.05023         1.13982        -1.56845
LJ          0.744248          1.5284         4.65022
LJ          -2.48196        -1.62483         5.50962
LJ           4.22793        -2.54347         4.15412
LJ          -5.43218         3.44254         6.13571
LJ           3.96645          6.1433         5.08613
LJ          -4.84812        -4.69379        -1.17589
LJ           2.64949         2.51488          1.5495
LJ           4.88434          -1.836        0.608981
LJ          -4.54983        -3.68135         1.28427
LJ           2.27242        0.767706        -1.12507
LJ          -1.43953         5.59548        -3.61862
LJ          0.922235        -4.07688         0.88997
LJ          -3.95836        -4.98631         5.38381
LJ           3.75025        -2.16585        -1.44953
LJ          -3.41532         2.46538         1.27595
LJ           4.51492         1.13351        -4.59921
LJ           6.03862         1.67143         5.04608
LJ          -1.76891        -3.18191         3.11591
LJ          -3.06774         2.34509         3.86049
LJ           -1.6329        -6.13535        0.531426
LJ           1.36194         4.82044         2.76039
LJ           3.75118        -2.81516         0.58115
LJ          -3.07949        -3.49047          4.9128
LJ           3.44677        -5.81184        -2.03165
LJ           1.84169         3.77487        -3.38258
LJ         -0.126293        -3.32814        -1.26607
LJ           -1.8729        -1.09945         3.61971
LJ           6.41981         -5.7452        -1.20054
LJ           1.47774        -1.84235         2.92091
LJ          -3.42709         5.27112        0.710806
LJ          -4.50817       -0.473938        -1.44093
LJ          0.510277        -4.21203        -1.56598
LJ           3.81187        -6.20138        -5.81803
LJ          -1.84173         3.29155        -1.44732
LJ          -4.39299        -2.44629         1.56157
LJ           4.47315        -6.44976         1.15769
LJ        -0.0355752       -0.439344         2.83995
LJ           5.90493        -6.40583         2.72033
LJ          -1.75589        -2.27089        -3.28405
LJ          -1.85411         5.37548        -6.33416
LJ           2.64797        -6.28168        -1.99779
LJ          -2.32175        -4.19477         2.25839
LJ          0.496159         1.05395        -3.22231
LJ          -4.80956        -1.03118        -3.01023
LJ          -2.74774         1.16824         1.15774
LJ           5.43566        -2.14646         1.91787
LJ           4.88526         3.75818         1.18112
LJ          -3.89413        0.178244        -6.16219
LJ           -3.7894        -3.63985       0.0494549
LJ           3.36354         2.94794        -0.23301
LJ           -5.9434       0.0441217        -2.63287
LJ           1.81705        -4.17419         3.57506
LJ            5.2166         -0.1853         -1.6202
LJ            -6.457        -3.50157        -2.70169
LJ          -5.41628        -2.02592          3.8753
LJ            1.2162        -5.86162        -4.72438
LJ           2.65647        -5.78326        -5.96178
LJ          -3.39702         3.96923        0.996955
LJ           1.59854         1.85453        -2.57273
LJ           1.17679        -3.54852        -5.18233
LJ        -0.0121703        0.569169        -2.06913
LJ          -4.00871         1.98911         4.47205
LJ          -4.55758         3.24862         2.86017
LJ           6.14999        -1.16767         1.81522
LJ           5.78041         5.45773       -0.158557
LJ          -2.29689       -0.422221         2.61481
LJ        -0.0839983       -0.432854        -4.69716
LJ          -1.29414        -3.72142        -6.30514
LJ          -1.90491      -0.0464807        -1.51407
LJ          -2.80931        -5.55577         2.59374
LJ          -3.47993          1.0521       -0.492448
LJ           5.03515         3.51651        -3.46391
LJ          0.805339        -4.56657        -5.51282
LJ           2.57195         1.42535         5.69749
LJ           4.34287        -5.07889        -6.35173
LJ          0.206558        -2.20971         4.47311
LJ          -4.04938         3.34113         3.81364
LJ           -2.2233         5.14996         1.27571
LJ            0.8085          2.5823        -1.47996
LJ           3.51388         5.81346        -3.76825
LJ           3.38445        -4.29006        -3.47329
LJ           4.67639       -0.400292        -3.85519
LJ         -0.877203         3.69001        -1.48896
LJ          -4.52714         5.20733        0.464555
LJ           1.29249         2.29725        0.989209
LJ             2.499          2.8921         3.47095
LJ           5.16852        -5.46032        -3.16785
LJ           6.17621         3.61924        -1.59025
LJ           2.80738         3.27061        -3.48016
LJ         -0.709971         5.13964         1.69197
LJ           3.63747        -1.69177         1.62286
LJ           1.57914         4.95876         4.55427
