108
#Comment!
LJ          -4.30509        -5.49448        -4.87831
LJ          -4.24328        -5.29536         2.88757
LJ          -3.99217        -3.78535        -4.29613
LJ          -4.47233         1.82506        -4.57147
LJ          -2.94361        -4.32418         5.96945
LJ          -2.27964        -3.99002        -6.13891
LJ          -5.27544        -3.20449        -4.21447
LJ           4.63656         -6.3369        -4.32407
LJ           -2.0999        -5.84257        -6.21874
LJ           4.29156        -4.31039        -1.78759
LJ           4.03723        -4.50602        -4.26573
LJ           5.66636         6.42899        -1.09458
LJ           -6.2186        -5.21201         5.08261
LJ          -4.30935         -1.8363        -6.43992
LJ          -4.32172         0.94658        -1.95575
LJ           5.35842        -2.18812        -5.92055
LJ          -2.43816        -1.11999        -4.80797
LJ         -0.702203        0.234408        -2.83533
LJ           -2.0126        0.116286       -0.700668
LJ           -1.3371         1.03183        -4.27886
LJ          0.187591        -1.48194         5.96163
LJ          0.731763       -0.977194        -6.28553
LJ          -6.11288       0.0154933        -4.28056
LJ           4.34154        -2.14257         -6.1526
LJ           -4.1799         2.35101         4.97642
LJ          -3.18921         4.78085        -3.36307
LJ          -4.24948         3.36876        -2.37342
LJ            -4.646         5.49604        -4.86666
LJ          -2.22591           3.599         3.25772
LJ         -0.943726        0.825787         6.31019
LJ          -2.85392          5.3039         5.41527
LJ         0.0529587         5.38734        -2.73552
LJ           3.61328         2.27825         6.30035
LJ          -5.32016         4.30082        -4.91988
LJ           3.10356         3.88973       -0.944374
LJ           2.85894         2.20103         -2.3945
LJ           6.40858        -1.78484        -2.17389
LJ          -2.80336         5.48911        -2.18114
LJ           3.24661        -3.61658          1.0911
LJ           -4.2603        -6.18403         4.57602
LJ          -1.94665        -5.13662        -5.15032
LJ          -2.23045        -4.28402        -2.58453
LJ          -1.50694        -4.57394        -1.79037
LJ         -0.463582         6.25438         3.03816
LJ           2.32622         3.32819        -2.38216
LJ           4.77727         4.20659        -2.28732
LJ           3.40366        -4.14426       -0.966008
LJ           2.12404        -4.96075      -0.0156264
LJ           4.45508        -1.16205       0.0795446
LJ          -4.27195        -3.61903        -3.20452
LJ           4.24108       0.0516759        0.251841
LJ          -5.44665         1.03217     0.000467067
LJ           1.09051        -2.66655        -3.56092
LJ         -0.418219        -2.53381        -1.69689
LJ          -3.39632        -1.56059         1.28499
LJ        -0.0476696        -2.38969        -4.42959
LJ           4.12417        -2.20373         1.15746
LJ          0.640147        0.235802        -1.62948
LJ          0.970579       -0.140955       -0.490455
LJ         -0.287982        -2.13987      -0.0823418
LJ          -5.11266       -0.938254         -2.3789
LJ          -1.11649         2.78402        -2.17547
LJ          -5.30971         2.53605        0.124568
LJ          -4.62975        -2.47326      0.00153545
LJ          -2.09565         2.09727         6.12248
LJ          0.850537         -4.3408        -2.67097
LJ          -2.24553         1.19323      -0.0663208
LJ        0.00460776         5.37578        -1.55595
LJ           1.91838         0.90428       -0.929409
LJ           2.21896         2.14836       -0.938533
LJ           2.67027         2.94299       -0.345355
LJ          -3.74861          2.1708      -0.0184742
LJ           1.77879         6.43079         2.11032
LJ          -4.35048        -5.38869        -1.55669
LJ          -6.41946         3.96054         4.31367
LJ          -4.25033         -3.2691         5.79297
LJ          -4.36394         6.16737       0.0128385
LJ           2.09019         -3.8345         1.38329
LJ          -4.09844        -5.19937         5.26114
LJ           3.15436        -4.57458         4.33114
LJ          0.281496        -3.10208         2.56918
LJ           2.74682        -1.18018         2.38329
LJ         -0.395322         6.39287         5.84308
LJ           2.81283         3.33496         4.31701
LJ           5.00496        0.968075         2.37741
LJ          -4.31224         -3.7012         1.15855
LJ           6.26335        -1.44419         1.05843
LJ           5.20549         -2.3423         5.86574
LJ          -2.09988         -4.4488         2.77905
LJ          -1.50819         -3.2188          2.1014
LJ           -2.0667       -0.803405        -6.13494
LJ           3.26429        -2.82659         4.33605
LJ            2.1136        -2.29233        -6.19921
LJ           4.42553        -3.22902         3.43917
LJ          -2.49546       0.0437107         4.32793
LJ           4.30573         6.13939         4.21191
LJ          -1.78558          1.9819         2.26244
LJ          -4.23587         5.64392         5.01657
LJ          -6.37409         4.12473       -0.540846
LJ          -4.22495         3.62618        -5.75914
LJ          -5.31947        0.987844         2.12027
LJ         -0.440685         2.12202       0.0711698
LJ          -4.30086         2.06962         3.82669
LJ        -0.0608531          1.8539        -6.41722
LJ           5.34671         2.12453         3.67002
LJ           2.19344         2.30999         1.23525
LJ           2.13733         4.26999        -3.94611
LJ           4.23252        0.673815        -5.45524
