108
#Comment!
LJ           4.12722        -1.18627        -2.75133
LJ            4.0134        -4.66222          -2.814
LJ           2.74741         -2.4238        -2.88034
LJ           3.73305        -2.94237         5.52194
LJ          -3.56828        -3.59146        -5.89041
LJ          -4.90914        -5.83541        -5.49029
LJ           4.26852        -3.91692         4.94336
LJ          -6.10475        -6.03125        -5.59572
LJ           -4.9836        -3.06343         1.19249
LJ           5.42748         4.21916         3.09883
LJ           2.45185        -5.28863        -1.96637
LJ          -5.42865         5.28457        -6.12626
LJ        -0.0641017         5.36603        0.448138
LJ          -5.33119         5.25802         2.14295
LJ          -5.59354      -0.0177125         6.21353
LJ            1.2567         5.13776          5.2273
LJ           3.84488        -0.83472       -0.998948
LJ           4.06744         5.53359        -4.54502
LJ          -4.97013        -6.27896         5.15464
LJ           -3.6344         3.36132        -2.19265
LJ           4.50375        -4.51897        -6.32102
LJ          -2.91735         5.77282        0.137146
LJ           5.49062      -0.0738499         1.49381
LJ          -3.91815        -2.08175         4.20934
LJ          0.674587        -2.67082        -1.61153
LJ           6.03187         4.46663        -1.33511
LJ           3.91253        0.327144         4.33108
LJ           4.76786        -5.68752         3.12762
LJ           3.52454         3.23672        -3.24658
LJ          -5.23106         3.54407        -2.42356
LJ          -1.48845         -3.0689        -3.58311
LJ           5.68597        -1.69404       -0.671615
LJ          -5.74534       -0.258987       -0.258786
LJ          -6.44022         -4.2087        -1.03868
LJ           4.64588         4.70015         1.53981
LJ          -4.43645         6.41532        -4.56894
LJ           3.24465        -2.84122         3.20144
LJ           6.25606        -3.31602        -3.33287
LJ           5.26595        -6.01061        -6.25326
LJ         -0.103055        0.594341       -0.453509
LJ           5.61011         5.61805         -6.1676
LJ          -3.48534       -0.963197         4.70482
LJ           1.18279        0.334254         3.67926
LJ          -3.62716         4.03608        0.518947
LJ          -3.59771       -0.293216        -4.90073
LJ           5.81853         -5.8257         1.82457
LJ          -6.19699         4.00657          5.7691
LJ           4.36865        -1.48534        -6.15657
LJ           2.70323        -4.66136        -4.50489
LJ           4.61421        -5.03336         3.87283
LJ          -3.27132         3.66256          3.9987
LJ          -1.74864        0.278466         1.17061
LJ          -2.85577        0.101309         -2.1007
LJ          -6.15391        -4.28312        -2.25364
LJ          -3.20523         3.02772        0.508849
LJ          0.268599        -3.46081         5.32134
LJ          -0.66479         2.24026        0.361183
LJ           1.76356         3.59844        -5.52961
LJ           2.22512         6.27798         5.27517
LJ           2.80752         6.15898         1.32824
LJ           -2.0255           4.421        -5.05064
LJ          -3.68206         5.21787        -1.82274
LJ          -3.88171          4.9836        -3.59463
LJ           3.37747       -0.917262         2.51028
LJ           4.64076        -1.67811        -4.42347
LJ          -2.84888         4.11497           1.412
LJ            -2.438        -3.25685        -3.00643
LJ           1.79671        0.329533         1.14588
LJ           4.59576         2.16804         6.00385
LJ            5.1981        0.761283        -1.95707
LJ          -3.72848        -2.71763        -3.56731
LJ          -1.31743       -0.208448        -5.32314
LJ         -0.923096         3.74834         3.60922
LJ           -4.0078        -2.96129         2.49901
LJ          -3.45904        -5.48427         5.42938
LJ          -6.05477         2.42879        -2.68536
LJ           4.54332         3.31267        -3.77096
LJ           5.20154         2.27845        -4.51498
LJ           3.55356        -2.28169        0.219763
LJ         -0.131623         1.43048         5.15466
LJ           6.37735        0.112078        0.319171
LJ          -5.37529       0.0874308         2.55661
LJ           6.45521        -5.25837         4.11663
LJ           6.36494         4.29884          4.5946
LJ          -5.95607         2.57978        -4.04226
LJ           2.53679        -3.26795         2.04268
LJ          -5.62941        0.729433         3.48472
LJ           5.54374         5.14151         -5.3004
LJ         -0.161499         1.10079        -5.93864
LJ         -0.807335         2.12577        -3.66991
LJ           6.21288          5.5011         1.28912
LJ             4.303          2.4533         3.79891
LJ           -4.5128        -1.62011        -2.94377
LJ          0.858804        -5.04525        -1.95788
LJ          -1.27394         3.56274          2.5362
LJ          -1.48872         6.33978       -0.703139
LJ          -2.03837         5.20122        -3.66889
LJ          -1.09121        -5.51905        -5.08113
LJ           1.51247        0.354961     -0.00270172
LJ          -4.22855         5.60894         1.96618
LJ            5.8555       -0.652574        -5.68353
LJ         -0.272361        -2.77682        -5.81972
LJ           3.82182        0.671534           1.953
LJ           -4.5078        -5.67676         0.67652
LJ           2.65951        0.269434         1.88169
LJ          -1.77566          4.2522         3.24698
LJ           2.07686        -3.39331         4.29905
LJ          -4.05707         3.03848        -3.19624
