108
#Comment!
LJ            4.9251        -3.83267         2.21219
LJ         -0.631699        -4.64109        0.764113
LJ           6.14248         3.02387         1.36474
LJ          -4.12297         1.99231        -4.43325
LJ          -3.44721        -3.10571        -1.73336
LJ            5.0463        -6.40808        0.263938
LJ            2.5498         6.17577        -1.16974
LJ           1.45285         4.02707        -6.24546
LJ          0.203841         4.22009         3.50807
LJ           4.14399       -0.860463          6.0599
LJ          0.480597        -4.66748         5.22607
LJ           3.91687        -1.99255        -1.96569
LJ           4.31078       -0.803134        -4.03627
LJ          -1.81418        -6.18333         6.31658
LJ          -4.80864         1.96874         3.60425
LJ          -6.05909        -4.97625        -1.50017
LJ          -2.88963         1.96678        -1.09316
LJ           5.31561         2.00688        -3.14517
LJ          -2.65218        -5.49166         2.75859
LJ          0.975888        0.827696         3.55093
LJ          -2.50081         2.67485         3.21841
LJ          -6.10819       -0.668508        -2.93981
LJ           3.49972        -3.27341         3.03998
LJ         -0.878728         3.90241         6.27953
LJ          -1.62475         4.65237        -1.80216
LJ          -2.18806        -6.10702         0.13027
LJ          -6.43655         1.01045         1.36739
LJ          -1.09847        -1.55561         2.93471
LJ          -4.20285         2.07671        -3.37039
LJ           1.03271        -1.80557        -2.65984
LJ          -1.92851          3.8887         2.70607
LJ           3.38723        -3.56528         5.49462
LJ           1.30781        -3.81609        -1.48133
LJ          -1.16463        -1.48103        -1.49105
LJ          -4.23557       -0.237358       -0.905528
LJ          -4.24581         1.10953        -5.36511
LJ           4.15757        -5.44854        0.642265
LJ          0.262301         3.34653         6.39598
LJ           4.27588        -2.05996         1.91466
LJ           3.41735        -2.09132        -1.09661
LJ           1.89688        -4.80323        -1.87812
LJ           3.81849         4.78882       -0.728535
LJ          -5.64675        -6.13023         2.91613
LJ          -2.83005         4.89232        0.611463
LJ           1.98373        -5.91692         3.47634
LJ           1.48791        -1.95286        -4.71605
LJ          -0.90715       -0.627237         1.99416
LJ          0.336537        0.657573         6.05196
LJ           6.41021         -4.1603         1.27113
LJ           5.65892         3.16562       -0.733295
LJ           2.61525        -3.80455       -0.269409
LJ           -5.6966        -4.77628         4.02336
LJ           2.30874        -3.37067         4.04125
LJ           2.08919       -0.244263        -4.27699
LJ         -0.481984        -3.47712       -0.591831
LJ           5.97595         4.00224         5.65384
LJ           3.07128         1.10205         3.01754
LJ          -3.57879        -6.25544         3.78508
LJ          -4.40043        -2.70724        -3.74644
LJ          0.256805         2.16884        -5.25371
LJ           5.97244        -5.34338         1.35292
LJ           6.29282        -4.36022        -2.98235
LJ           3.24978       -0.576717          1.8992
LJ          -6.35054        -6.18864          1.5063
LJ           5.82159         4.01591         2.72736
LJ           3.62794        -2.91601       -0.325924
LJ          -3.98658          3.2325         2.64061
LJ           5.64101       -0.374131        0.304351
LJ           1.88665         6.28504         -4.5854
LJ          -6.30252         3.79601         2.06063
LJ           -3.7476        -3.23776         2.72086
LJ          -5.31431        -4.42879        -5.34499
LJ          -3.72654        -3.21886        -4.31599
LJ          -3.36435         1.30744          5.3618
LJ          0.939162        -4.73756        0.646095
LJ            2.4685       -0.654165         5.99034
LJ          -6.07824        -6.04649         4.40486
LJ           2.18726         4.95491         2.80354
LJ           2.48977         5.99479         2.51213
LJ          -2.19679        -6.39492        -4.69801
LJ           3.69411       -0.122337         3.98747
LJ            2.9127         4.14715          4.8946
LJ           5.28128         4.06026        0.674111
LJ          -5.85109        0.102011        -5.35831
LJ          -2.67394         -1.6195         -1.7075
LJ          -6.04184         1.08402         3.33332
LJ          -1.46773        -2.66737        0.442533
LJ           2.51029        -2.25714          3.8419
LJ          -4.14717        -4.12373         1.85015
LJ           3.13298        -4.19911         0.83557
LJ          -6.39217         6.02797        -1.86685
LJ          -5.21219        -6.04255        0.191515
LJ          -2.14158         3.82004        -1.65236
LJ           5.99861        -2.75949        -3.44187
LJ          0.757616        -4.23111        -4.38257
LJ             2.657        -2.91276        -5.78965
LJ           1.91581        -5.19894         2.35549
LJ           3.10867        -4.32901        -2.03525
LJ           6.17694        -1.63652        -3.25902
LJ           3.39061       -0.595862         3.03576
LJ           4.60891         0.60846        -3.61768
LJ          -2.48832        0.359626        -5.90305
LJ            5.0718          5.1285          2.8258
LJ           6.27241         4.69387         3.40419
LJ          -2.76774           -2.47         4.47817
LJ          -4.88818         1.44524        -0.22425
LJ          -1.01015         3.61974        -1.25799
LJ          -2.29535         -3.1442         3.08931
