108
#Comment!
LJ           5.84536       0.0743828         1.25714
LJ           2.11008         1.41082        -3.01415
LJ           6.36708         -5.5591        -1.55074
LJ          0.329265         5.74031          4.2072
LJ          -5.75414        -6.38788        -5.04355
LJ           1.85466         4.34569         -1.9752
LJ           1.90586        -4.54897        -6.10434
LJ          -1.06527         4.37133       -0.996918
LJ          -4.01152         3.99027         1.90788
LJ          -3.45188        -5.55891        -5.33679
LJ           -2.3061         3.77491        -5.65818
LJ          0.387988        -5.89761         2.01789
LJ           1.77764        -3.08076         -3.0476
LJ          -4.69423        -2.46884         1.11854
LJ          -6.35713         2.89052         5.71295
LJ           1.34102        -2.68508        -4.07062
LJ         -0.270483        -2.26024         3.79601
LJ          -4.30914        -4.86547         5.68359
LJ           -4.4226       -0.232342        -2.19851
LJ           5.66507        -2.37951        -2.85294
LJ          -2.88736         4.54195        -4.73512
LJ           2.15124        0.933197         4.39479
LJ          -3.37785        -4.03879        -3.05472
LJ          -5.80395        -5.72692        -2.20608
LJ          -2.94805         6.27104       0.0656877
LJ            1.8545        -1.98902         3.26722
LJ           1.68674         4.58244         3.26648
LJ           4.86562        -5.17849        -1.51616
LJ           4.89221          1.9467         -4.7751
LJ          -0.17606        -4.18231          1.6263
LJ          -3.43977        -5.21122        -1.28944
LJ          -2.74753        -3.62737        -6.27302
LJ           6.02102       -0.684812         5.72782
LJ         -0.178731         3.27368         1.04863
LJ           1.42455         5.36965         6.38211
LJ         -0.261927         5.70622        -2.18114
LJ          -6.44084        -1.51512       -0.627963
LJ          -5.09705         5.95805        -2.33975
LJ          -4.40206         4.72592        -2.31717
LJ          -3.26335         3.77481       -0.116221
LJ          -4.55977         6.29154         3.39485
LJ          -3.80448          5.5586        -1.36916
LJ           1.68464       -0.736311        0.159796
LJ          0.634593        -3.65643         2.02595
LJ           6.40531         4.74346        -6.38303
LJ        -0.0695403        -6.02175          2.8615
LJ         -0.271183         2.14869        -0.81302
LJ          0.601495        -5.47957        0.470452
LJ           2.35842          4.9539        -5.77555
LJ          -2.90957        0.607907         1.23706
LJ           4.40409        -3.96152         2.54599
LJ          -4.94009         4.68448         -3.3277
LJ         -0.704849         2.95937        -0.43609
LJ           -4.9083           2.071         1.98633
LJ          0.769261         1.26507         2.07065
LJ          -3.85014       -0.431502         6.14982
LJ          -1.92128         4.42138         -1.8436
LJ           5.31633         1.01583        -1.02652
LJ          -2.76712        -2.45561        0.459045
LJ          -3.85504        -1.12438         4.42175
LJ          -6.43556        0.979782         3.47126
LJ          -3.22645       0.0440077        -2.70633
LJ           6.33982         3.19026       -0.774694
LJ           5.72335        -4.76905         2.10912
LJ           4.46574         5.35391       -0.409822
LJ           2.37983        0.483117        -4.06284
LJ          -1.67439          6.4304       -0.475929
LJ          -3.15885        -2.29055       -0.504645
LJ           3.19825        0.785983        -2.58851
LJ          -6.22945         4.66487        -1.38864
LJ           3.35294         4.35371        -3.11781
LJ            6.3941       -0.420528        -5.81648
LJ          -5.90006         4.01036        -3.08483
LJ          -6.16844        -5.42862        -6.35619
LJ           3.28594        0.667873        -4.42623
LJ          -1.50938        -1.58942         3.71645
LJ          -4.77318         0.94029        -2.14509
LJ          -1.71187         3.73706        -4.16341
LJ          -4.05303         2.69749         -2.1126
LJ           2.26657        -5.51497       -0.595143
LJ         -0.732624        -5.14212        0.793684
LJ          -1.34136        -3.52795        -3.25352
LJ           2.17018        -4.34408         2.51253
LJ           3.38109         2.17537        -1.71893
LJ          -1.97177        -1.37483        -5.79542
LJ          -4.32306         3.25234         -3.3428
LJ           5.89848          6.1781         -6.0299
LJ           -4.3148          4.0163         3.54904
LJ           1.64977        -4.10486        0.217069
LJ           1.47125         2.94094        -3.69108
LJ         -0.254698        -4.18417        -2.07844
LJ            4.8697        -2.11013        -3.78155
LJ           4.31597        -4.23496         0.86775
LJ          -3.95923        -3.07672         -2.1393
LJ           5.21454        0.238081        -6.22852
LJ           6.21355        -4.73222         5.22075
LJ           3.82046         6.44828        -2.37071
LJ           5.67116         2.79374        -2.38806
LJ          -1.93036         2.40074       -0.216155
LJ          0.433351         4.75654          1.9911
LJ          -1.27736      -0.0695486        -4.83851
LJ           2.23104        -5.27612        -3.44817
LJ          -3.85404        -6.27948        -1.10421
LJ           1.51172       -0.509993        -6.22059
LJ           5.03924        0.844072        -2.60781
LJ           3.95192         -5.6403         -1.2165
LJ          -3.12966         5.12153        -2.38811
LJ           -5.5589          3.6654         3.58468
