108
#Comment!
LJ           2.17214       -0.751177         3.55282
LJ           4.39876         1.44743          2.7626
LJ           5.94119        -4.03011        -1.44967
LJ          -2.97384        -3.16585        -6.44916
LJ            4.9562         -5.4594         5.82886
LJ           4.60957        -4.51223         3.73267
LJ           2.89455        -2.26601       -0.463306
LJ           4.88245         5.45469         1.26261
LJ          -3.23395         3.31098         3.84735
LJ         0.0464952        -1.15565        -4.42325
LJ          -4.35244         5.29407         4.64301
LJ          -5.96426         1.28617        -2.04866
LJ          -6.02426       -0.522485         1.12927
LJ           4.20684         4.40311         6.44253
LJ           1.67868        -1.67047       -0.875396
LJ          -5.57423        -6.13226         4.00861
LJ           6.23946        -4.89058         1.81038
LJ           4.34187          5.7834        -1.69961
LJ          -2.26326         4.31615        -0.96122
LJ           4.86713           1.911        -1.91873
LJ             3.967       -0.587807         2.30394
LJ         -0.857549        -5.61476        -2.18422
LJ          -6.17424       0.0889004         2.21608
LJ          -3.09382       0.0173143         1.88345
LJ          -2.85495         4.54589        0.632592
LJ           5.30171         -4.4656        -6.41131
LJ          -2.87448         3.71592       -0.236973
LJ          -3.30705          2.1366         1.07783
LJ          0.766787         2.65149         5.38171
LJ          -2.32605         -1.7919         4.72758
LJ           4.77305        -1.12716         5.32623
LJ           -6.3493         5.87506         1.91245
LJ           1.82321        -2.35073          6.4142
LJ         -0.521761       -0.536829         3.92696
LJ          -2.26818         4.63443         5.43076
LJ           5.51895        -6.01519         3.67443
LJ          -5.11991         1.44203          2.0219
LJ          -2.22661         1.58523         1.59036
LJ           2.06425         0.35725         4.53405
LJ           2.27354       -0.446343         2.20798
LJ           4.11459         4.35869        -1.07091
LJ          0.514438         -3.9173        -2.12637
LJ           2.13427        -2.24012         4.96924
LJ         -0.381236        0.218479       -0.959745
LJ          -4.86539        -1.75811         1.08323
LJ          -4.56911        -4.51776         1.93939
LJ          -3.98185         4.43725        -3.29749
LJ          -6.39244        -2.24722         2.59406
LJ         -0.621732       -0.467047        0.986279
LJ          0.379389        -4.94571        -3.02627
LJ           3.58397         2.59552        -3.43982
LJ          -1.48858        0.731022       0.0978277
LJ           5.79357       -0.970957         2.82919
LJ           5.22704        0.481059        -1.11108
LJ          -6.33901         2.21182       -0.629068
LJ           5.87665         4.76902        -6.04158
LJ          -3.30208        -3.14389        -2.70939
LJ           5.63576         3.66997         4.65443
LJ             4.258        -1.31351        -6.40973
LJ           -4.3698        -5.18203        0.423406
LJ          -4.21322         2.86874        -2.45998
LJ          -3.41713         2.23444         2.61261
LJ          -4.13888        0.104293         2.24788
LJ          -2.91085        -5.64758         4.26564
LJ          -2.35233        -4.79946        -5.85569
LJ          -2.67865        -2.86622         4.65161
LJ          -3.73513          5.1771         2.85982
LJ          0.935135        0.580736        -1.93729
LJ         0.0295203         2.79183         4.00349
LJ          0.294614         1.17668        -4.50403
LJ           5.11642        0.193222         3.04721
LJ           5.97477        -2.51955         1.51404
LJ           6.04442        -1.48806         -5.9934
LJ           3.53685         5.93288         3.89693
LJ            2.1758         2.61851        -2.61153
LJ           2.40257         2.51314         4.38979
LJ         -0.296655         2.58003         -2.7315
LJ           6.37914        -1.65215         1.91176
LJ         -0.258331         5.63615        -2.53621
LJ          -3.56868        0.630371         3.84439
LJ          -3.59387        -2.74694        -1.10595
LJ          0.032307        -3.50306           2.481
LJ          -6.34259        -2.25503        -1.04392
LJ          -4.19903         2.02872         1.87785
LJ          -4.58372        0.478513         3.63138
LJ         -0.295458        0.528795          4.1696
LJ         -0.872616        0.640189         2.94693
LJ         -0.288475        -2.31098         2.02523
LJ          -2.67956        -1.80622        -1.44212
LJ           4.05294        -2.42799         2.35709
LJ           1.08232        0.635086         3.43535
LJ         -0.737486        -0.41049        -2.33266
LJ            3.4674         1.82666        -5.61563
LJ          -4.41686         6.06953        -5.21587
LJ          -6.05646        -4.77988        -6.22489
LJ          0.709274       -0.509265         1.14928
LJ           2.87624       -0.221677        -2.50268
LJ           1.33159         6.31431         4.31066
LJ          -5.43128       -0.279366         3.92682
LJ          -5.00116        -2.58968        -2.22582
LJ           1.56259        0.391875         -1.2364
LJ          -5.90847         5.28864        -4.68136
LJ            1.7905         2.95307         2.53946
LJ          -1.38068         5.35253         -3.8327
LJ         -0.696769        0.853591        -4.77045
LJ          0.394585           4.294        -1.62091
LJ          0.874937        -1.51955        -2.95528
LJ             4.325       -0.378425        0.882655
