108
#Comment!
LJ           4.10284        -3.90598        -4.21863
LJ          -2.61333         2.83653         3.61051
LJ          -6.17807          1.4083        -2.93327
LJ          0.147831        0.624405         4.83293
LJ         -0.544944         5.04234        0.905592
LJ           3.96334         3.01996        -4.61917
LJ          -5.06615        -4.41682        0.638275
LJ           5.98656        -1.56378         4.78735
LJ           5.51048        0.443159         5.89444
LJ          -4.38161         2.13409        -5.01384
LJ            5.5765         3.55116         1.77371
LJ          0.427036        -6.13377         4.65303
LJ          -2.17983         -5.0881         5.70987
LJ           5.12575        -1.45892        0.794126
LJ           6.03358         3.68084       -0.177594
LJ           2.91492         3.38291        -5.27944
LJ          -4.28906         -2.0436        0.181405
LJ           0.86154         6.24861         -5.3799
LJ           4.86893         1.09878       -0.514832
LJ         -0.251312         4.50563        -2.13017
LJ           5.56552        -3.96276         3.35865
LJ          -4.40462        -6.07497         4.93926
LJ           2.84563         2.46812        -1.03189
LJ          -6.24296        -5.76135         5.44003
LJ          -2.32803         5.53567        -2.47906
LJ          -3.13036          -6.203        -5.71136
LJ          -2.81658       -0.754677        -5.52735
LJ           6.23678        -2.81713        0.802637
LJ          -3.48508       -0.823648        -1.82343
LJ           4.60383       -0.555925         1.73132
LJ           3.86646        -3.37535         1.62883
LJ          -2.06268        0.493301        -4.12344
LJ           -1.1117        -5.21556        -1.45855
LJ          -3.25895         4.95985         4.06297
LJ          -3.09658         2.68397       -0.308415
LJ          -5.76755         4.47469        -3.43092
LJ          -4.85927        -5.53153        -5.51459
LJ          -6.02769        -4.57219          1.0669
LJ           5.85421         6.18195        0.361704
LJ          -1.79797        -4.93177       -0.390929
LJ          -5.36028        -1.92966        0.487589
LJ          -1.25296        0.475134       -0.642267
LJ          -6.29184        -3.96677         5.59473
LJ          -1.62604        0.261484        -5.38395
LJ            3.4492       0.0389314         4.53124
LJ           -3.2131        -3.81337        -2.84335
LJ          -4.97607         -1.4913         4.09745
LJ          -2.00349         3.41311         3.20398
LJ          -1.92238        -6.21219         4.42084
LJ           -5.8407        -2.08327         4.93747
LJ          -4.43812         1.42886        -2.10655
LJ           5.32305         1.66237         3.82465
LJ           -4.9318         3.02437        0.925213
LJ           5.53575         3.23725         -4.4817
LJ           2.20301         4.11777        -6.39503
LJ          0.487986        -6.30495         3.60224
LJ           1.27629         5.67032         3.25088
LJ          -5.78786        -6.12299         1.86118
LJ          -1.44999        -2.14681        -1.13778
LJ           5.58311         6.29578         3.13547
LJ           4.75857         1.92231        -1.82919
LJ            4.3018          5.4198        -5.43984
LJ           5.48688        -1.50301         2.26386
LJ          -1.81704         3.72453         1.74688
LJ           4.80092         2.90165      -0.0992421
LJ           4.93136         1.22524         1.11374
LJ           4.87647        -1.45986        -2.76947
LJ           1.57608        -4.36272          -6.163
LJ          -3.34097        0.575747        -1.96187
LJ           4.89473         3.16852        -5.56514
LJ          -2.30629        0.961951         6.02446
LJ           2.13076        0.396723         4.05993
LJ          -1.41728         2.69374         2.53222
LJ         -0.963188        -4.71131        0.992941
LJ          -2.99695       -0.187365        -4.65827
LJ           3.65057         3.43044         3.49397
LJ          -1.11282         4.70109         3.34896
LJ           5.38567        -3.01705         4.42284
LJ          -2.40755         1.48843        -2.79681
LJ         -0.096646        -3.02089        0.898557
LJ           2.43249         3.39535          4.7814
LJ          -4.60914         3.56493        -2.75373
LJ          0.480223         5.18139        0.029074
LJ           3.10891         2.36972         1.41105
LJ           2.17148        -2.10308        -6.29874
LJ           6.10162        -4.33063        -4.93599
LJ          -6.15006         3.21462         1.19765
LJ          -2.75705         -1.7414        -4.41425
LJ          -4.31033        -5.33006       -0.818935
LJ          -5.93503        -4.60878         2.45013
LJ           -2.2047         5.52005         2.87867
LJ           3.99449        -1.24312        -3.05505
LJ          -5.67911        0.511631        -2.15026
LJ           3.36112        -5.91985        -6.30175
LJ         -0.195008         6.16447         -6.0847
LJ         -0.267644         1.11463        0.106422
LJ          -5.15251         3.74177       -0.932518
LJ          -5.64248         6.40859         4.44498
LJ          -3.01407         4.83849        -1.69178
LJ           1.93642        -1.36123        -2.98813
LJ           -2.7372        -2.21633        -5.69193
LJ          0.722795        -3.92815        -5.39751
LJ           4.83908        -4.24654        -3.32204
LJ          -3.36506       -0.778342        -3.73829
LJ           2.26643        -3.75387        -5.19031
LJ           2.96717        -1.30823        -2.59842
LJ           5.41837         -4.1617        -4.11376
LJ         -0.640278        -3.87889         1.61195
