108
#Comment!
LJ         -0.262247       -0.989961        -4.85566
LJ          -5.37007         3.90035        -5.50209
LJ          -6.11069        -5.37966        -5.85421
LJ          -1.34561        0.910265        -2.55581
LJ         -0.343438        -6.32478         3.44558
LJ          -4.97021        -2.28873         2.57868
LJ          -2.14522        -2.07282         3.89141
LJ           4.92273        -1.08809        -2.84242
LJ           4.90653        -2.02337         3.40214
LJ           5.55929       -0.427846         0.39778
LJ           5.35508        -5.37789        -3.76401
LJ          -1.28144        -5.18131        -5.64915
LJ            1.5684         2.77009        -1.44733
LJ          -4.21771        -3.90226       -0.812898
LJ           2.64978       -0.391832         5.96679
LJ           -3.2593         3.39911        -3.51438
LJ          -1.45643          5.2526         1.21163
LJ            4.0414         5.44717       -0.585845
LJ          -2.06885         3.71886         4.01572
LJ           1.73635         1.09885        -3.47862
LJ           2.02149        -2.98457         1.06561
LJ          -1.76075        -5.57774         -1.3417
LJ          -5.98711         4.29973         6.26295
LJ           4.57187       -0.645548         2.18536
LJ          -1.42708        -2.48524        -2.68127
LJ           5.76393        -5.25587        -1.21767
LJ          -4.37044         3.38209         -5.2399
LJ           2.73748        0.756342         3.47126
LJ          -4.40884        -5.54148        -2.50824
LJ           0.80599        -1.54359         -4.4541
LJ           4.26906        -4.26162        -6.21805
LJ           1.18994        -5.79895         2.30603
LJ          0.929727       -0.439717        0.132015
LJ          -3.45804          4.2298        -4.71523
LJ           0.18741        -5.25056         5.50019
LJ          -4.22604        -4.86373        -5.42118
LJ           4.50747        0.612089        0.872639
LJ          -5.97909        -3.80921         -2.7096
LJ           5.81438        -4.06704         0.07081
LJ           5.79439         2.70632        -1.29831
LJ         -0.473754        0.304295         2.09627
LJ           1.62706          5.8058         5.94959
LJ          -6.19641         0.38698        -2.64974
LJ         -0.548334        -2.38853        -4.61188
LJ          0.690564         1.12267        -4.76104
LJ          -2.43092        -3.12113        -2.06287
LJ           5.61308        -3.88336         2.10516
LJ           4.93203        -4.93047         5.88027
LJ           4.62137        -4.33568          1.5244
LJ          -6.25158         6.31826         5.21817
LJ           1.15055        -3.97582       -0.225757
LJ           1.27549        -1.97246        0.319271
LJ          -1.92698         3.45049       -0.385314
LJ           4.43077        -4.86723        -4.81894
LJ           4.82411        -4.94736       -0.668261
LJ           -5.4146         5.99127        -3.83172
LJ          -3.09528         4.08577         5.15318
LJ           -1.3067        0.817651          2.0447
LJ          -5.42231         1.08791        -1.70412
LJ          -3.87658          1.9984         4.53274
LJ           5.36102         5.61758        -1.93942
LJ           3.04268         4.61833        -4.70972
LJ         -0.848911        -4.22023         4.54886
LJ          -1.74962        0.235782        -5.07833
LJ           -4.8784         3.79345        -1.53727
LJ          -5.50758         3.05252        -3.51111
LJ           4.55831         6.12227        -2.51337
LJ           3.93436        -5.13161         5.01457
LJ           4.01143        -3.28637        -5.22708
LJ          -5.62367         6.08616        -1.13509
LJ          -5.07537         3.57218         4.09902
LJ          -1.98273        -3.80267         5.59107
LJ          0.812382        -3.86415        -4.18256
LJ           3.17312        -4.82943         4.28677
LJ          0.741693        -2.04455         5.47731
LJ          -4.19853        0.418264        -5.17217
LJ           -1.8279        -4.78938         3.54393
LJ          -2.83853         5.31609        -3.40439
LJ           1.47009        -3.79598        -3.35082
LJ          -4.93656         6.30837          3.9502
LJ           6.31677        0.606876         1.23029
LJ           3.28553       0.0722743        -5.37841
LJ           3.87368        -1.93267         5.64974
LJ         -0.301744         1.03697         4.33678
LJ           6.44732        -3.09881         4.86328
LJ          -3.61197        -6.34186         2.43518
LJ           4.61732        -5.44045         3.30424
LJ          0.535974        -2.55527        -5.06478
LJ           4.25275         3.68829         3.68565
LJ          -3.77528         1.16719         5.36636
LJ           5.03845       -0.488555        -4.84596
LJ            3.6026       -0.580718         5.58607
LJ         -0.509537         4.05527         1.25078
LJ           4.59558         2.48304       -0.562449
LJ           4.42996         1.08166       -0.307999
LJ            5.2618        -1.15869       -0.465813
LJ          0.171649         3.11027        -2.67189
LJ          -1.49912         4.71468        -5.57593
LJ            1.7872        -1.77107         5.23735
LJ           -6.0078        -2.57397        0.514304
LJ          -4.73223         4.25928        -3.55873
LJ           2.44488        -3.99677        -3.05843
LJ          -2.30948         1.59809        -6.03518
LJ           2.94729         1.43614        -4.37588
LJ           1.27715        0.764444        -1.02883
LJ           4.63527          5.0441        -4.26158
LJ          -2.10375         5.04001         -2.5259
LJ           1.23018         4.67295         -5.6707
