108
#Comment!
LJ           2.92696         4.79478        -3.84924
LJ          -5.02084        -4.09159          3.5826
LJ           4.56914        -6.04827        -1.97566
LJ          -3.52956        -4.65485         2.34192
LJ           5.26161       -0.339328        -2.62383
LJ          -5.46416        -4.88344         4.74677
LJ           3.99219        -2.33009        -2.17446
LJ           4.61348        -4.80609         6.34199
LJ           2.36551        -6.39124        -1.48462
LJ          -4.49245        -3.47604        -2.12917
LJ           5.72926           2.473       -0.332144
LJ          -5.92339        -6.33582         1.50617
LJ            -1.392        0.262698        0.350059
LJ           3.77352        -4.39106         1.06519
LJ           0.48736       -0.814403        -1.59456
LJ          -5.29244        -5.31124         5.66592
LJ           -3.6431        -3.38116         5.49411
LJ          0.663789         3.45866         5.72381
LJ          -2.31216         4.47151         5.90474
LJ           6.10677        -2.37437         3.66768
LJ           5.38472          3.7144        -1.08893
LJ           3.75699        -5.14391         5.89117
LJ          -5.58421         1.53059        -6.25613
LJ           3.06528         3.41385        0.631128
LJ           6.34471         6.28829         -4.5135
LJ          -3.04736        -2.70701         2.44745
LJ           -3.1475         4.80464        -5.29954
LJ          -5.57443       -0.471926         2.80915
LJ          -1.17824         1.21562         1.25141
LJ          -3.70104        -6.19705        -3.23532
LJ          -6.01371        -5.60311        -3.78518
LJ           6.16684        0.165444        -5.86707
LJ          -5.07676         4.82846         1.98473
LJ           4.01637        -3.98718        -5.22733
LJ          -4.27185        -5.50742        -4.12006
LJ          -2.44285         1.81982         6.40365
LJ           2.54591        0.314455        0.262058
LJ         -0.496838        -1.35107        -4.22153
LJ           6.35569         2.42576        -2.28463
LJ          -3.87226          5.7017         5.49342
LJ           4.90831        -2.33346         5.38013
LJ           5.80336         4.53161        0.976928
LJ           -5.7025        0.523716        -2.90391
LJ           4.49678        -3.36923        -1.19876
LJ          -2.37092         1.86951        -1.01243
LJ          -3.58204         5.57348        -5.82533
LJ           -2.0452         4.27864        -4.31845
LJ           1.41223         1.55961        -2.60538
LJ          -5.86004        -3.91568         4.29118
LJ           5.75401          2.8912        -1.73041
LJ           2.01709        -2.85804        -2.46985
LJ           1.38892         1.02209         1.17327
LJ          0.477524         2.73679        -4.78546
LJ            2.6984         5.00882         5.93496
LJ         0.0497937        0.481382        0.362172
LJ          -1.87441        0.809444         5.82859
LJ          -1.65944         5.70947        -5.89654
LJ           6.32252        -3.73481       -0.711154
LJ            5.3783        -4.87659          1.8231
LJ          0.966221        -2.16526         6.04097
LJ          -1.71885        0.377176         2.95347
LJ           3.53442        -2.35086         4.49466
LJ          -1.89978        -5.43938         2.18664
LJ           2.23767        -5.44092        -3.77408
LJ           2.10732        -5.21939         2.90455
LJ          -3.02555        -1.76565        -3.14187
LJ           3.93679        -1.04943        -1.21231
LJ           2.10048        -5.07707         5.73531
LJ         -0.874996        -4.31953        -3.13746
LJ          0.327538        -5.71254         1.20861
LJ           3.15802        -3.23006         4.96919
LJ           3.62988        -3.36606       -0.305949
LJ           2.34537         4.94898        -5.60936
LJ          -4.45638        -2.04148        -1.97062
LJ          0.297025         4.30937        0.058555
LJ           2.96132        -4.46339        -4.53919
LJ          -1.31201        -2.97024         -3.5237
LJ         -0.697334         1.14228        -0.55887
LJ          -5.66756        -4.34976         1.79875
LJ           -3.5269         -5.1958       -0.173356
LJ          -2.02372         5.28721        0.455226
LJ           2.03909       -0.473632         3.28785
LJ          -1.92004        -6.42767          1.3714
LJ          -2.79365         3.85082         3.86544
LJ         -0.615545         2.33799        -5.46584
LJ           4.99885         -2.4661        -5.63834
LJ          -2.18896        -3.19514         -6.0795
LJ           4.95273         1.62054         4.24954
LJ           3.87264        0.884295        -4.78961
LJ         -0.305637         1.84449        -3.78125
LJ            4.6812          5.6288        -2.47154
LJ          -1.91523        -3.90454         1.24821
LJ           5.33569         3.87658         5.98596
LJ            1.2152         6.37211         3.02458
LJ          -2.59683         1.38958         2.07614
LJ          -2.44866        0.836235        0.181053
LJ           2.06286         5.68894         6.30855
LJ           4.37582       -0.433157       -0.463759
LJ           3.69788        -5.69538        -1.57978
LJ           5.17678        -5.06678        -2.32063
LJ          -1.99549         4.02732         4.65122
LJ           6.10589         -1.3559         1.96741
LJ          -4.20255        -3.82732         2.35706
LJ           3.79202        -5.65986        -3.58674
LJ          -3.29172         3.42489         5.16271
LJ          -5.05123         5.25977         3.21374
LJ           4.87659        -5.73004        0.945888
LJ           -5.7385          3.6579         3.45939
