108
#Comment!
LJ          -5.90574         4.65145         0.16414
LJ           2.15389       -0.625033         4.93982
LJ           1.38572          5.5629          4.0715
LJ           3.24478       -0.211634         5.00149
LJ          0.990963        -4.01556        0.718514
LJ           2.21177         2.94104        -6.22566
LJ          -2.81423         4.36224       -0.237765
LJ           3.23873        -2.11943         5.10618
LJ           6.15648       -0.818126       -0.672222
LJ           5.05843        -1.53185         5.91987
LJ          0.348379        -3.08972         -2.3293
LJ           5.81428         6.12959         1.84927
LJ         -0.833682         2.40465         4.81985
LJ          -4.66485        -3.91603        -5.44731
LJ          0.204469         4.05168        -5.03256
LJ           4.76411         2.37143         -5.8589
LJ          -2.83809        -2.58195         5.53286
LJ            6.0658        -2.84051        -4.47257
LJ           5.60409         5.06717          2.5615
LJ           3.25206        -5.56664         5.97481
LJ           1.83838         1.86687         3.08335
LJ            -4.955        -3.84472        -4.30168
LJ           5.39007         2.70437         2.60152
LJ          -0.60106       -0.654441        0.602181
LJ          -1.86972         4.91496         5.76669
LJ           -6.1597         5.45595         3.21003
LJ           5.38718         4.38583        -6.13165
LJ         -0.108509         1.72235         5.13947
LJ           4.30496        -6.27306        -6.04648
LJ           -4.6119        -5.36983         5.38328
LJ          -6.43141        -2.08351         1.24994
LJ          -6.45759        -4.38488        0.905499
LJ          0.573825        -3.67052         5.47195
LJ           3.41904         6.00804         3.07036
LJ            1.3375        -3.83164        -2.92647
LJ         -0.997102         -5.1059        -4.29076
LJ          0.985054       -0.399401        -5.17762
LJ           4.35749        -0.83199         3.94423
LJ           1.02305        -4.79449         1.97305
LJ           1.31744        -5.76246         2.48782
LJ           -2.8251        0.955465         2.31048
LJ          -4.88273       -0.624621         3.83913
LJ          -6.10766        -1.34228        -4.06357
LJ           5.32525        -3.55804         2.88803
LJ          -3.38065        -5.33975         6.04529
LJ           5.12332         4.95378        0.984118
LJ           3.41094       -0.206396        -4.07208
LJ           0.72928        -3.81402         4.05626
LJ           1.80873         1.40656      -0.0148992
LJ           1.51122         4.81858          3.2427
LJ          0.320983       -0.172233         0.81912
LJ         -0.921189        -1.07092          2.2708
LJ         -0.951147         6.40991         5.23759
LJ           2.55777        -1.38263         3.32178
LJ          -1.47303        -4.05279        -2.81448
LJ          -4.71816        -3.66696         5.89172
LJ           5.65051         4.07369        -4.65767
LJ          -1.77981           3.462        0.865506
LJ          -2.61064        0.115131         6.33529
LJ           2.45861         3.62572         3.16686
LJ         -0.328772        -3.65134         3.45573
LJ          -6.28994         6.18312        -1.67347
LJ           2.17386        -6.29322        -6.30664
LJ           4.01042         2.60425        -3.15574
LJ           2.12096        -5.31001         2.21266
LJ         0.0989905        -4.36115        -5.85847
LJ         -0.865145         -2.5605        -5.28657
LJ          -2.21832         -3.2633         3.11847
LJ          -3.85212       -0.917612         4.29635
LJ         -0.994077         5.52819         4.53294
LJ          -3.46277        -1.47764         4.89726
LJ          -3.26047        -3.05934         2.48076
LJ          -4.35117          3.6804         6.45692
LJ           1.60809        -1.88141         5.17139
LJ          -4.96528        -1.07406        -5.57774
LJ           1.21214        -6.42953         1.27177
LJ           2.54493        -1.17927         -5.7419
LJ          0.130685        -6.10172         4.00229
LJ           5.36132         -3.8169        -3.50179
LJ          -5.11274        -2.35001        -4.31226
LJ           4.17526         6.06524        0.259548
LJ          0.254797         5.73287         2.50242
LJ           3.67225         2.23022          1.9456
LJ           -5.2714         2.71963        -5.74298
LJ          -5.67958       -0.257913        -2.84488
LJ           5.48841        -5.93659         4.12422
LJ           3.95264         4.75732         3.99909
LJ          -3.18588         4.77607        -2.58099
LJ           5.78991        -2.48288         -1.6673
LJ           6.24537         1.84512        -2.64618
LJ           2.49111        -5.48902        -1.89206
LJ           5.00933        0.810013         0.46116
LJ           5.57119         3.86254        -2.37179
LJ           1.85811        -3.75352        -4.40247
LJ           1.50256        -2.36122        -5.00884
LJ           1.95724         3.71841         2.19747
LJ           -5.5333         5.65986         1.49991
LJ          -4.10295        -2.02846         -5.2485
LJ          -2.79874        -6.39908         -2.5944
LJ           1.65832         -2.2129         1.24176
LJ          -2.63072         5.27193         1.63907
LJ           2.55155        -2.56197         3.89437
LJ         -0.996101        -1.14918        -1.54967
LJ           2.86925        -6.09967         3.32658
LJ           3.49131        -4.12024         4.43425
LJ           5.02241        -3.96708         4.49559
LJ         -0.413384         5.96036        0.129296
LJ           2.99014        -6.06783        -5.29141
