108
#Comment!
LJ          -5.26655         3.87797         1.51147
LJ           4.70805         4.93762       -0.661645
LJ           -1.3325         5.55467         3.30739
LJ            6.1263        -6.41797        -1.79572
LJ          -3.33306       -0.340611        0.813664
LJ          0.545987         5.54718        -6.00265
LJ           5.55096         4.64676        -1.59228
LJ           5.08803         4.27226         1.54668
LJ          -1.49973         3.37984         5.22953
LJ          -5.54897         -4.7081        -5.05562
LJ         -0.710668         4.18829        -2.80141
LJ           3.00755        -3.26725         3.53639
LJ         -0.793192         -1.0359        -2.96428
LJ          -6.43538         2.57726         4.51674
LJ          -1.69006         6.35452         1.19295
LJ          0.962391        -6.30229         5.63627
LJ          -6.23044        -4.86634        -6.08321
LJ           3.18712         -5.3822         3.85969
LJ           2.85277        -2.89705         -5.3918
LJ           5.83194         2.56009        -5.05645
LJ          -1.19983         5.12802      0.00782794
LJ          -6.40043        -3.45974         3.09625
LJ           3.45296         -0.8248          1.9412
LJ           2.42849          5.0318         5.23396
LJ           2.02058        -3.97754         1.32917
LJ          -2.70482         2.42991        -1.12431
LJ         0.0282882         3.43638        -5.47655
LJ           2.02633        -1.22201         2.44717
LJ          0.318552        -2.43502       -0.279607
LJ         -0.140092        0.993584        0.507628
LJ           4.36856        -1.72628         4.72501
LJ           5.40477         6.29505         5.77121
LJ         -0.969105         2.99616         4.34294
LJ          -1.88164         6.19897        -4.12154
LJ          -3.83831        -1.35746         5.52441
LJ          -2.45414        -4.95946         -6.3012
LJ          0.505597         6.08129        -2.32828
LJ            4.9391        -3.60769         -4.0884
LJ          -2.01609         -3.2191         2.03863
LJ          0.198276         -4.4158      -0.0217193
LJ         -0.870449        -4.07521         3.80566
LJ          0.108402        -3.44944         4.20253
LJ          -4.22832         6.29939        -2.71165
LJ            1.0532         1.81959         5.05274
LJ          -5.56684         2.65057        -5.98931
LJ           2.99637         4.17153         4.07262
LJ        -0.0599324        -3.38684      -0.0497238
LJ           5.10253        -2.41767         3.65957
LJ           4.07473        -2.39219         -6.0954
LJ          -2.87335         3.10235         4.71717
LJ           2.31075         2.82059         2.55046
LJ           3.54251         3.76866        -3.96327
LJ           4.34861        -2.51423        -2.82635
LJ          0.947352       -0.129994       -0.361001
LJ          -1.23653         5.35104        -5.41667
LJ           2.51665         1.63624          5.9671
LJ         -0.350006        -3.09165        -1.31013
LJ           2.34081       -0.596237         1.57265
LJ           4.59013        -3.52286       -0.318121
LJ          -1.32916        -5.44467        -5.38379
LJ           2.91952        0.218749        -2.85782
LJ          -1.94514        0.615561         5.99914
LJ          -5.71942        -2.42268         4.58755
LJ         -0.508111        -1.65535        -3.97971
LJ           6.30465        -4.80151         -2.9607
LJ          -6.19618         -5.1766        -4.55933
LJ         -0.580176        -5.45688         6.19229
LJ          -0.24596        -1.47007        0.593387
LJ           2.05788         0.12773         -6.2286
LJ          0.520677          3.1676         2.88419
LJ         -0.114905       -0.578239        -4.88444
LJ           5.32991         6.39926         4.58941
LJ           1.20589        -5.67914         3.13575
LJ           2.46872        -3.08056       -0.661339
LJ           5.14689        -3.27868        -1.54345
LJ          -3.79702         -5.9476        -5.78305
LJ           3.04095         5.32563        -3.19928
LJ          -5.82555         5.13514         2.23292
LJ         -0.169396         1.02279         2.42985
LJ            1.5583         5.80629        -5.20531
LJ          0.900169        -4.47339         1.30972
LJ          -5.71638         4.05499        -5.23544
LJ           6.36076        -5.52544          2.9797
LJ          -2.00612        -4.38831        -5.61712
LJ          -5.12552        -4.15773         5.66558
LJ          -2.07364        -2.03109        -5.07368
LJ           3.72683         5.72476        -1.46889
LJ           1.92813        -3.34836         5.99133
LJ           4.74022        0.482754         5.20111
LJ          -6.33261         4.85453        -1.50296
LJ          -1.17529         3.51519        -4.38549
LJ          -4.75696        -1.47329        -1.92712
LJ         -0.865732        -3.72473        -3.88597
LJ            1.7459         -2.6412        0.560532
LJ           1.44002         0.82678         3.89836
LJ           2.82413        -4.72583        -2.30802
LJ          0.393805        -4.80724         5.97097
LJ           2.79068         5.84053          3.4515
LJ           4.10108        -6.05497         -4.3846
LJ          0.423802         2.20552        -5.13373
LJ          0.822039         4.29692        -3.66546
LJ           -3.8905       -0.256274        -2.66291
LJ           -1.0905         1.02072          5.2412
LJ          0.531724        -1.51494        -1.22336
LJ          -3.55541        -6.11016        -4.29097
LJ           4.78617        -2.57656         1.30263
LJ          -4.84525        -2.64777         1.58151
LJ           3.43981         4.13536          2.2185
