108
#Comment!
LJ           6.43386        -1.10407         5.97801
LJ           2.61516         2.93377        -3.42803
LJ         -0.881272         3.86835        -5.84063
LJ           -5.1617          3.7221        -3.92166
LJ          0.888257       -0.268525         2.68677
LJ           6.41709         5.04548          2.8159
LJ          0.857138         5.47878        -6.18744
LJ         -0.316301        0.448078        -4.03011
LJ           2.87007         0.19468       -0.837197
LJ        -0.0951131        -2.19719        -5.87841
LJ          -5.53528       0.0235965        -3.32502
LJ           2.34999       -0.827308       -0.610792
LJ         -0.625676         5.27509         6.23285
LJ           2.25497        -4.70593       0.0813846
LJ           4.44779       -0.229228         5.97894
LJ           5.97343        -5.52265        -1.67278
LJ          -5.44687        -4.35796        -1.12333
LJ           -1.0909        -4.98235        -6.35193
LJ           5.56631        -1.55602          2.6591
LJ          0.142617          3.1701         -5.4162
LJ          -5.58836         5.78094         -2.2949
LJ          -1.59657         2.29774        -2.60586
LJ           3.84696       -0.339591        -2.44712
LJ           3.36405         2.85399        -5.50806
LJ           1.59429       -0.185246        -5.47813
LJ           2.29352        -5.61347         2.17832
LJ           1.29232        -0.74685       -0.552153
LJ             3.663         1.68819         1.52312
LJ           5.53716          5.3674        -3.33647
LJ          -3.62178         5.09329        -5.05948
LJ          -2.86607         4.38907       -0.306953
LJ           5.24676        -4.16804       -0.568606
LJ           5.15095        -5.51567        -3.87928
LJ          -1.57931        0.808379       -0.865871
LJ           4.20077        -2.96534        -1.80343
LJ          -4.00094         5.85567         1.42563
LJ          0.589015        -0.52768         1.02775
LJ          -4.21281        0.756041         5.64381
LJ          -3.14385         5.67153       -0.591412
LJ           1.40134        -3.53478        -1.53708
LJ          -5.71854        0.574101          2.1087
LJ          -5.67508        -3.36272        -2.95697
LJ           4.28364         2.12033        -4.15506
LJ         -0.616555         6.43297        -4.22132
LJ          -4.21267         4.37011         2.33533
LJ          0.946616         5.81836         2.38087
LJ         -0.371274        -4.25076        -2.27705
LJ         -0.497897          2.0909         1.97169
LJ          -1.00404        -2.94495       -0.277487
LJ          -5.95035         3.99893         3.06646
LJ          -5.45843          2.5716        -4.79049
LJ          0.369678         5.56498         5.06921
LJ           -6.3845        -6.37127         1.49424
LJ          0.139842         4.27029         5.75817
LJ           -4.1995        -1.75541        -1.01654
LJ           4.96815        -5.66124          2.7312
LJ          -1.46107        0.640964         6.35127
LJ          -6.06538         4.12626         4.19855
LJ           5.73023         3.33757         2.16786
LJ           3.33559         6.07855        -3.80733
LJ            5.2221        0.261528       -0.318095
LJ           5.55799        -5.93615        -2.66096
LJ          -4.94207        -3.34243       -0.925709
LJ          -5.92502            6.09        -3.92406
LJ          0.446766         1.45207        -3.52418
LJ           1.55434        -2.53932         -5.2167
LJ          0.523722        -3.68467         2.88512
LJ          -6.23967         3.23462         1.27754
LJ           2.91816        -2.94531          2.0487
LJ           1.33671        0.941701        -3.95527
LJ          -4.99631        0.803943        -3.30495
LJ           3.84969        -4.64626         1.32592
LJ          -1.02525       -0.977675        -4.97056
LJ          -1.51123         1.28551         2.81513
LJ            4.6455         2.12368         1.06809
LJ           2.61711         1.95479         2.94384
LJ          -1.96079         -1.9165         4.54983
LJ          -3.57274         6.16912        -2.52988
LJ          -6.12186        0.775161        -5.73917
LJ           5.46469         5.12796         5.49785
LJ          -3.38628        -1.20319        -6.20714
LJ           3.02994        -5.18784        -6.20352
LJ           4.95988          4.8767         2.47573
LJ           5.88684        -2.33424        0.795988
LJ          -3.34405         -6.1461         6.09895
LJ             1.346         1.74433       -0.767821
LJ          -6.12895         1.52471         3.46671
LJ            4.6704         1.62812         2.27663
LJ           4.21044          2.3391         4.45827
LJ          -3.18231        -4.58324       0.0801488
LJ          0.758719         2.53542         3.40253
LJ           1.15586         5.91134        -4.29877
LJ        -0.0645565        -2.55978         0.10372
LJ          -5.33982       -0.764504          4.1368
LJ           1.87727         4.04819        -2.03712
LJ          -1.82674         2.41575          -5.879
LJ           -5.7931        -1.25546         2.62118
LJ           3.81864        -6.28905       0.0534625
LJ            2.3982        -3.07493       -0.525802
LJ           1.35781        -4.66382       -0.381459
LJ          0.654664        -1.47287        -2.30005
LJ         -0.216295         2.11671         3.41563
LJ           1.52401        -4.51672         2.22272
LJ          -6.15836        -4.57557        -3.59693
LJ           5.36839         5.56908        -2.28136
LJ           5.71657       -0.184721        -2.64796
LJ          -1.66475         4.19773        -3.60453
LJ          -1.93614        -4.57098        -2.83046
