108
#Comment!
LJ          -5.15082         5.10149        -6.24699
LJ           3.35937         1.95242        -2.05843
LJ          -1.46161         3.75146        0.766245
LJ           1.70183         2.10982         6.24889
LJ           2.87939        -6.14616       -0.235673
LJ           3.93885        -1.28277         5.27949
LJ          -1.27556        -3.22724         1.96603
LJ          -2.84049         5.48795        0.186143
LJ            5.0608        0.130033         -1.2481
LJ          -4.88538        -5.66994         4.44381
LJ           6.13637        -1.19912        -5.33489
LJ          -5.04348        -6.36001          5.6006
LJ           3.99793         2.42605         1.47889
LJ          -3.69235        -3.64246        -5.11793
LJ          -2.04969         1.12669         4.04426
LJ         -0.323197         1.76205         -3.8581
LJ           6.45542        -2.08905        -1.91503
LJ           1.50169         4.12239         -3.0714
LJ           4.24813        -2.24542         5.50123
LJ          -2.03491        -5.73565         5.17969
LJ             1.576        -1.55825         3.30863
LJ           5.53672          2.1819         2.12916
LJ           3.50722         4.86989        -5.74534
LJ          -4.38304         4.10263         5.74775
LJ           3.55691        -3.91748       -0.389264
LJ          -4.14385        -6.38891        -5.92025
LJ           1.73026       -0.690953        -5.28403
LJ          -3.55067         2.93827         1.31521
LJ          -2.37238         2.96496        -4.29588
LJ           1.23176       -0.935042         4.46308
LJ           1.04203          2.8575         5.23428
LJ           5.50012        -5.97712       -0.976156
LJ            1.4756         1.36291        -1.32709
LJ           4.04612        -2.27285          3.5484
LJ           5.88452         0.85857       -0.613698
LJ          -4.46441        -5.63672         1.59621
LJ          -3.16314        -1.89302         1.21541
LJ          -4.01617       -0.955512         6.23809
LJ          0.124111      -0.0476932        -3.93306
LJ          -2.78182        -2.87456        -2.14435
LJ          -6.32595          1.3674        -1.77211
LJ         -0.192373         5.41589         1.80459
LJ          0.703232        -2.13403         3.85265
LJ          -5.41694          1.9964         1.39944
LJ           -1.5053        -4.00946         3.47277
LJ           0.17318         5.63318        -5.15601
LJ          -2.31606        -5.79922         4.07552
LJ           4.59435        -3.16974         2.56664
LJ         -0.589443        -4.92227         3.04026
LJ            2.7528          5.0284        -4.44215
LJ          0.949872        -5.29024          0.5931
LJ           4.67982        -4.60963       -0.359965
LJ         -0.562911         1.90214         4.03125
LJ           4.07156        -6.13893        -5.72203
LJ          -6.35523        -1.28189         3.96556
LJ          -3.93456          -4.954        -5.28313
LJ          -5.05712        0.733169        -4.33079
LJ          -5.55677      -0.0969523         1.78857
LJ           6.03644        0.122915         5.42191
LJ          -5.18289          6.2566          4.0378
LJ         -0.171641        -4.19856         1.64777
LJ          -5.20006         -3.4625        -4.81302
LJ         -0.400699         0.24491        -5.32895
LJ         -0.315743        -3.98654         2.85372
LJ           2.21399         5.03242        -5.16565
LJ           2.54372        -5.19048        -3.41102
LJ           1.49943         1.74608        -4.67709
LJ           -5.3972         4.21221        -3.21153
LJ          -1.11049        -5.84297        -5.00888
LJ          -1.17272         3.71947         2.13102
LJ          -1.68459        0.916385         1.87404
LJ         0.0895353        -1.86976         5.72514
LJ          -1.29986        -1.17733         1.73636
LJ          -3.90367         5.87978        -1.13626
LJ          -2.30098         4.56097        0.225669
LJ           6.02551         4.58922          4.3151
LJ          0.025003       -0.772872          2.6277
LJ           2.25703        -4.01063         -3.7334
LJ           6.14478        0.818954         3.27453
LJ          -2.30804        -5.93074        -3.47091
LJ           -3.2463         3.63644         5.75443
LJ          -1.52141        -3.05229         3.15024
LJ        -0.0259665        -1.48589          3.3566
LJ         0.0912002        -2.51915          2.4752
LJ           4.22963        -3.38001         4.09505
LJ           3.41556         3.39761        -4.43009
LJ           2.76274          4.3982         4.93342
LJ          -3.43354         4.19786        0.497657
LJ          -6.05002         3.01055         -2.1928
LJ           6.16687          3.3272         -3.1046
LJ          0.956456         2.78472         2.27786
LJ          -2.30691        -5.85315        -5.60145
LJ             6.442          1.1522         4.25362
LJ          0.855634         1.44724         5.89317
LJ           5.55653        -1.35271        -2.29334
LJ          -1.96608        -6.02176         2.02411
LJ           2.40061          2.0649        -5.22445
LJ           1.88898      -0.0958343         2.18232
LJ          0.190704        -4.89153        -5.48233
LJ          -4.30758         4.88422        -4.93454
LJ           3.65926        -3.58823         1.96346
LJ          -2.81632        -3.10361         2.96587
LJ           5.41738         1.82397          4.0961
LJ           1.28273        -3.75588        0.811865
LJ          -1.21411         2.69708       0.0479061
LJ          -4.29413       -0.306092        -1.76418
LJ          0.856277         2.43889         4.17021
LJ          -1.20025       0.0440878       -0.612914
