108
#Comment!
LJ          -3.20431        -1.94478          5.3789
LJ           5.18629        -3.53129         -3.4249
LJ            5.6835        -6.03809         -2.0457
LJ           1.66264       -0.949071        -4.88964
LJ          -4.51318        -5.61164         0.13721
LJ          -5.31722        -4.89707         2.18323
LJ          -4.56863        -5.62512        -5.67518
LJ          -1.34448        0.539701        0.376878
LJ           5.01798        -1.22097         5.01092
LJ           -5.5334        -2.84545         3.36388
LJ          -1.97907        -5.22118         4.98758
LJ            4.7853        -1.39805         3.49142
LJ           2.20877        -4.35445       -0.266434
LJ          -2.85265         1.27601         4.74668
LJ           1.48024        -5.98368         4.12505
LJ         -0.337852        -1.18321         6.24818
LJ           2.40004         1.57666         3.63354
LJ          -2.98876        -2.87934         5.12236
LJ          -4.86424         3.13273         4.37874
LJ          -5.73561         5.13671        -2.09776
LJ          -6.19704         6.38347         -3.9614
LJ          -4.43758         1.46488        -1.40765
LJ           2.81502       -0.540261         2.17471
LJ           4.11395        -2.29877        -1.09257
LJ           4.76686       -0.243911       -0.129567
LJ         -0.301927         4.16422         1.93284
LJ           3.13769         2.54308          5.7088
LJ          0.840709        -6.02437         5.45139
LJ          -5.73037        -4.64133         4.68147
LJ            -4.495        0.702598         3.10233
LJ          -3.38687         1.05801          3.8041
LJ          -1.72516          4.3749         -1.6523
LJ           2.80988         5.95547       -0.322619
LJ           3.85708        -5.24851         3.36072
LJ          -3.88326         3.26297        -2.63199
LJ            4.4979         3.72159         2.94528
LJ           4.09079        -3.23229         -3.7346
LJ           3.21924       -0.779968         5.05396
LJ           4.13453         6.36816        -6.32512
LJ          -6.44303        -5.88953        -2.79567
LJ          -0.37795        -3.44561        -3.51037
LJ          -4.22163         -5.7492         1.54385
LJ          -3.71646        0.968056           0.187
LJ          -4.20063        -4.99096        -4.77143
LJ          0.389609         2.91834        -6.16054
LJ          -6.17636        -4.20879         0.59027
LJ          -5.81916        -2.09176         5.67042
LJ           6.36854        -5.14441        -1.64498
LJ         0.0252374         -6.0013        -1.70745
LJ           4.22716         5.44914       -0.250926
LJ            4.0465        -4.94887        0.463258
LJ           5.85801        -1.35304        -5.36925
LJ          0.700232        -6.14551        -6.19178
LJ           4.65416         1.40034        0.341304
LJ           4.75024       -0.300441        -2.74071
LJ          -5.75269         3.35048        -3.40598
LJ           -3.8006        0.905048        -5.19717
LJ          -1.37149        -1.68501         6.00495
LJ          -1.76372        -3.80988        -1.80092
LJ           4.26211         2.81494        -1.75862
LJ          -4.24821         4.36992          4.2616
LJ           6.20597         5.07688        -3.89167
LJ           2.11026        -5.36395        -4.38803
LJ           2.83735       -0.115331        -5.40008
LJ         -0.926664         2.28271        -4.27923
LJ            1.1083        -5.26514        -2.62887
LJ           2.95501        0.722167        -3.33699
LJ           3.02868        -3.22604         3.06924
LJ          -5.85533        -1.98006        -3.06682
LJ          0.832795         1.46934         3.60347
LJ          -2.49852        0.818706        -1.57704
LJ           1.81684         5.70027        0.633484
LJ           -4.1846        -4.87289        -6.27669
LJ           -4.9907         5.25622         3.81233
LJ           6.25179         1.72363        -2.77678
LJ          -2.21537        -6.18045        -3.12782
LJ          -4.33129         5.88885         2.22374
LJ          -3.26945        0.618424        -3.03183
LJ         -0.566465        0.852676        -1.78465
LJ           6.35175        -2.56687         3.31722
LJ          -5.63968        -5.28964        0.804312
LJ          -3.63432         -2.9108         3.69305
LJ           1.62347         1.08678         4.65176
LJ          -3.20419      -0.0032693          5.6361
LJ          -5.02681        0.240504       0.0865996
LJ          -2.23999        -5.10558       -0.883445
LJ          -4.08847       -0.762608        -5.84584
LJ          -5.67855         5.15955        -3.87516
LJ           5.76023        -4.83973        -3.19559
LJ           2.35964         2.53883         -5.5075
LJ           -1.9813        -3.46491        -3.42063
LJ          -3.54072       -0.521784         3.82557
LJ           1.47147       -0.332787         3.09213
LJ          -2.57776        -5.56958         3.19105
LJ          0.883215        -2.01115        -5.88804
LJ           2.15905        -5.16551        -2.12771
LJ            3.7585        -6.42396         2.66338
LJ           1.08699        -2.65282         5.97832
LJ           3.84492           3.579        -2.41765
LJ          -3.70545         2.07038         3.59164
LJ           6.42992         1.25808         3.92731
LJ            -3.808        -4.66221          4.9444
LJ        -0.0461609         5.06606        -4.91449
LJ           3.79283        0.926655        0.765039
LJ           3.21655         1.88761        -2.47533
LJ          -1.52841          2.5288         1.34403
LJ           3.87477        -4.06574         3.03238
LJ           1.28909        -6.06026        -1.44082
