108
#Comment!
LJ          -3.66079       -0.280495        0.341265
LJ          -3.71798        -2.05935         3.54788
LJ          0.596108         2.88962        -3.07727
LJ         -0.135904        -5.21273         1.98947
LJ          -2.88144         -4.4747         4.74001
LJ           1.76581        -2.67088       -0.191848
LJ         -0.474582        -0.97756        -5.87389
LJ          -1.08112         3.73646        -2.07644
LJ           6.05636         3.00227         4.15857
LJ          -6.06397        -4.45418         -3.9153
LJ           6.39449        -4.55429         5.13692
LJ             4.374         3.72961         2.91317
LJ           1.97136        -6.42059         -5.2197
LJ          -0.69506        -3.77801         1.69466
LJ           3.75281        0.208818        -4.44567
LJ           4.10083        -1.98677        0.718031
LJ          -6.25986        -4.06255         2.81708
LJ         -0.184542         3.98024         5.99302
LJ          -2.88084        0.439818        -1.47907
LJ           5.70788         2.22855       -0.911218
LJ           5.34964        -4.76432         1.57164
LJ          -3.45748         4.07565        0.615914
LJ          -4.52145         5.19694         6.19707
LJ          0.941236       -0.277275         1.27073
LJ          -3.75126       -0.545255        -4.71269
LJ          -4.48937         4.87776         3.24821
LJ           5.01187        -5.47422         5.70455
LJ           5.30292        -1.26933         5.53596
LJ           2.37981      -0.0274892       -0.508369
LJ           4.49263        -2.92191         1.10452
LJ          -2.78738       -0.853008         2.61612
LJ           -3.2023        -3.27491         1.52706
LJ           -4.0332         3.90322        -5.25237
LJ          -1.40573        0.387191         4.99065
LJ           1.21824        0.630745         3.16202
LJ          -1.69171         3.25077         -2.9235
LJ        -0.0627608         1.09344        -5.89318
LJ           3.67141        -6.21911        -5.15781
LJ           2.97748        -5.75764        -3.14979
LJ          -2.84427        -5.13292        -3.41517
LJ          -5.45831          2.3023         4.93841
LJ           5.69991         -2.9274        -4.26427
LJ           5.33381         5.08231          4.4963
LJ          -5.25462        -5.75602         1.38187
LJ          -1.39941         3.34411        0.992339
LJ           -2.4703        -2.09399        -5.21543
LJ          0.548113        -5.15244        0.856084
LJ          -5.58193        -5.91922        -3.51919
LJ           -4.8241        -4.56912        -1.34188
LJ         -0.506241       -0.292738        -4.82885
LJ           2.41366         2.82562        -2.12266
LJ          -5.84366         3.32235         3.72258
LJ          -2.77793         2.02061        -3.57681
LJ          -6.40146         1.91169         4.25664
LJ          -5.64587         4.93786        -6.15655
LJ          -5.95983        -1.42843        -6.13735
LJ         -0.409237         5.13947       -0.144124
LJ         -0.425103         4.05467         3.39108
LJ           6.11158        -2.31299         2.69769
LJ          -3.31273        0.247728        -6.01201
LJ          -4.35579         1.07939         -1.3449
LJ          -2.08765         2.34522        -5.00822
LJ          -5.51673          5.7748         3.66735
LJ          -5.85714        -0.89806         1.13335
LJ           1.92046         1.56626         1.22839
LJ           3.16237         1.69922        -1.19429
LJ         0.0314938        -5.33698         5.67451
LJ          -1.93832        -3.43204          1.7665
LJ          -1.37898        -4.33123         4.54651
LJ          -5.93276        -1.75655         3.11497
LJ          -2.09705       -0.612777         5.99014
LJ          -5.30047         0.35445         1.38938
LJ          -5.60823        -1.40547        -2.31769
LJ          -6.44996        -4.49624        -2.17651
LJ           4.61119        -3.83839         1.65076
LJ        -0.0336315        -3.99437         2.40446
LJ          -6.28118        -1.82443       -0.105988
LJ           6.29086         1.96545         2.20646
LJ          -4.85216       -0.108737       -0.473607
LJ           3.45661        -2.87727       -0.221154
LJ          -2.58022        0.522301        -5.33179
LJ          -4.11166         1.79172        -3.19497
LJ          -1.12325        -4.65563         1.27138
LJ           3.20307        -3.95185         1.26454
LJ          -3.40497        -5.85989        -5.96333
LJ           3.71963        -5.35948         4.80408
LJ          -6.31784        -3.57507       -0.505066
LJ           6.37355       -0.964255        -5.07489
LJ          -5.17606         3.61928         -4.3815
LJ           4.14351        -4.97517         1.05232
LJ          -2.31196         6.17233         4.10294
LJ          -5.19509          6.0554        -6.22397
LJ          -2.30954         2.63784        -2.19916
LJ          -2.00399        -5.74501        -4.38109
LJ           5.71938        -4.27054        0.728444
LJ           6.26834         1.05681         1.38763
LJ         -0.464354         1.79202        -3.84717
LJ          -3.32474        -1.73908         1.68643
LJ           3.34354         5.30224        -1.91159
LJ          -6.13239          -1.436        -3.38616
LJ           2.33666        -4.37319        -6.30541
LJ          -1.07332         2.06868        -5.76458
LJ           2.89825        0.630146        -3.44325
LJ          -1.11662       -0.829116          4.7433
LJ           3.08145         -3.6976        -1.70191
LJ           2.95612         4.71282        -4.70226
LJ          -4.71708        -5.56314        -3.81311
LJ          -5.52814        -2.56354       -0.594924
