108
#Comment!
LJ           4.09929         1.99434         2.61374
LJ          -5.82076         2.37384       -0.702496
LJ            6.4478        -3.06679         5.06724
LJ           3.22205         5.85485       -0.771902
LJ           4.66411        -3.05602        -1.98201
LJ          -5.46594         1.55154        -1.30862
LJ           4.48378        -2.36429       -0.575591
LJ          -5.98924         2.97744         -4.5318
LJ           1.24112        0.524432        0.715863
LJ           3.56782       -0.895325         3.38522
LJ          -4.90268         5.19941         3.51193
LJ           2.35804        -4.69221        -3.62169
LJ          -2.35984        -3.25947          1.9628
LJ          -2.80647        -3.40631         4.47228
LJ           3.11908         3.10007       -0.374724
LJ          -2.48777         1.53595        -3.16028
LJ           4.30372         3.38405        -4.26153
LJ         -0.344758        0.723348       -0.583031
LJ          -0.60665         3.64505        0.617706
LJ          -2.32518         -6.4354        -5.44272
LJ          -4.41697         4.30818         2.82853
LJ           5.85303        -5.14551       -0.704097
LJ          -1.61367        -4.60637        -1.14967
LJ          -1.22794        -3.13312         5.61427
LJ          -5.00636         3.63862        -4.64652
LJ          -3.11493         1.64933        0.410612
LJ           6.28202           4.382        -2.93871
LJ           1.39991         5.85428         3.48583
LJ           2.42532        -5.01887        0.371785
LJ          0.478217       -0.381435       -0.802438
LJ           6.05616         -1.3355        -1.37059
LJ          -4.06594        -4.70664        -3.97572
LJ          -2.22788         2.22453         2.04677
LJ           2.16554        -2.79717        -3.80128
LJ          -3.14332        -5.01794         3.99621
LJ           3.44275        0.668385         3.39474
LJ          -2.53834        -5.83324         4.33709
LJ          -2.79729        -4.30479        -5.60441
LJ           2.94027        -2.55715        -6.42402
LJ          -2.03691         2.25516        -1.85639
LJ           2.67004        -6.26291         2.20326
LJ          -5.39156        -4.21762         1.11036
LJ           6.38498          2.9205          2.0153
LJ             3.533         1.95987         4.98806
LJ           3.85378        -3.56624        -3.45789
LJ          -4.09619          6.2583       -0.263358
LJ             2.147        -3.14222         0.60605
LJ          0.974663        -3.06857        -5.90644
LJ           1.81558        -2.14358         6.20029
LJ          0.900165        -2.51025        0.433014
LJ          -4.01899        -3.45918          2.3348
LJ          -1.52321        -2.17301         4.14503
LJ           2.58303        -5.85498        -2.19795
LJ         -0.324959        -1.84203        -3.32887
LJ          0.139094         5.51774         3.98294
LJ          -1.24315        -1.06508        -5.90665
LJ           4.79831        -2.72603         5.93441
LJ           3.70105      -0.0430829        -5.05168
LJ          -1.01539        0.599749        -3.15279
LJ           -6.2894         1.77789        -5.11065
LJ          -4.67125         -1.0108        0.146143
LJ           1.47588        -1.15251         1.86727
LJ          -5.66605        -3.50857         2.44623
LJ           3.46055        -3.88047         2.05644
LJ          -4.13657         2.65772         1.95949
LJ          -1.27821         2.52248         2.51697
LJ           5.00356       -0.927726        0.427573
LJ          -5.06111         2.44504        -5.51179
LJ            4.4554        -5.10029       -0.974154
LJ          -5.71281        0.463387         5.02213
LJ          -4.44512        -1.68889        -1.47195
LJ           1.04479         0.26298        -0.26391
LJ           1.10198         1.54997       -0.632519
LJ          -6.18634         5.90711         5.28294
LJ          -3.37734         3.71184         4.71551
LJ           5.99696         -1.1327       -0.139541
LJ           -4.8674        -5.98342        0.537531
LJ           5.92778       -0.495541         3.45924
LJ          -6.15994        -3.36436         1.17862
LJ          -3.36085        -4.24004        0.499924
LJ           5.26566         1.85917          5.5789
LJ           5.01811         5.16982         3.45744
LJ           6.16896        -6.02987        -6.17013
LJ          -2.53965        -3.95937        -3.59585
LJ           4.85261        -6.30065         -3.2755
LJ          0.749311         6.43357         5.52974
LJ          -4.47133         1.38513         2.34152
LJ           -4.3908        0.232691         1.73942
LJ           4.53178        -1.73813           6.132
LJ           3.46285        -5.35425         2.48567
LJ           5.13052         3.71601         4.90726
LJ           2.95353        -2.18301        0.956568
LJ           3.24128         1.99784       -0.959506
LJ          -4.69382         2.40862       -0.503422
LJ          -2.66634        0.555297          2.7323
LJ           3.13204         3.27211         1.55816
LJ          -4.42583        -4.59634         5.34516
LJ          -3.19411          3.3271       -0.259658
LJ          -3.22979        -3.13459        -4.53032
LJ           -2.5144         4.28705         1.66194
LJ           2.65634         2.10208        -4.04518
LJ           4.42346        -5.53946         3.19228
LJ          -2.81463        -4.37295       -0.488693
LJ          -5.98174         4.63568         5.06862
LJ         -0.635533        -4.66444         4.54695
LJ          -2.55311         5.20398           2.662
LJ           1.97339        -3.21614        -2.74353
LJ          -2.15469          3.2715         3.98352
