108
#Comment!
LJ           -5.3811         3.94887         3.21097
LJ           -1.9714         4.94698          3.4491
LJ          -4.14894        -2.24416         4.23962
LJ           3.25232         1.54288         -3.9407
LJ          -1.61412         3.79468        -4.12209
LJ          0.526304         5.98779         6.32587
LJ           4.24849        -5.69455        -2.37434
LJ           2.77962         4.36502        -2.77368
LJ           3.83197        -3.66737         5.18941
LJ          -1.32561        0.257899        -4.90545
LJ          -5.19415        -1.40218         6.22127
LJ          -4.27669         4.36229        -5.11189
LJ          -1.15679        -4.93826        -3.19804
LJ          -3.00151        -1.37996         3.02023
LJ           -1.2496         3.96143         5.04244
LJ           4.59631        -0.49974        -5.02661
LJ          -2.80929        -5.94698        -1.66067
LJ          -1.49843          5.5953        -5.00737
LJ            4.6561         3.37831         5.85736
LJ           4.00948        -1.50136        -5.13428
LJ           3.49499         1.70168         5.03932
LJ           4.36476         3.36733        -4.20225
LJ          -5.13499        -5.29491         5.21465
LJ           5.84045         3.25474         3.54401
LJ           1.63836        -3.83099        -2.83325
LJ          -6.45429         1.83232          4.1568
LJ          -3.45611         -5.9017        -3.05797
LJ           -6.3243        -2.36972        -5.46146
LJ           2.18271       -0.234022         2.70144
LJ           4.69348         2.74216        -1.14905
LJ            4.7773         5.11539      -0.0559485
LJ         -0.315162       -0.387769         5.95447
LJ           2.75884        -2.65787       -0.529821
LJ           5.25447        -5.58054         3.76314
LJ           6.40158        -2.88451        -2.36595
LJ          -4.77682         4.83218        0.160098
LJ          -3.26351        -3.10697        -3.82408
LJ         -0.114038        -1.89258        -2.32126
LJ          0.926878        -1.81416        -1.47383
LJ           -1.4506       0.0236558          3.4455
LJ            -4.924        0.997382         4.00725
LJ           2.70339         4.06671          4.8038
LJ           2.66749         6.12251        -5.42723
LJ          -2.15285         5.36745         4.56787
LJ          -5.03792        -3.71215         2.96656
LJ           2.45617         4.12785        0.273556
LJ         -0.171697         1.32954         5.84782
LJ          -2.72807        -1.95957         5.21751
LJ           4.53957         4.47749         1.09875
LJ           2.15084        -1.12669         4.67873
LJ          -4.07588         5.71516        -5.86091
LJ            1.1221        -5.08618        -2.96469
LJ           2.44331         5.38578         3.50507
LJ           5.88034         3.99257         4.90514
LJ           4.93461        0.083774         1.71697
LJ          -2.31678          5.0627        0.741098
LJ          -3.14617      -0.0848547          5.1993
LJ          -1.61289        -5.96102        -1.98012
LJ          -4.39558        -5.11755        -5.75029
LJ          -1.43902       -0.371893       -0.836183
LJ           5.93582        -3.95495        -5.54044
LJ          -3.03495         4.86366         6.08799
LJ           4.78386         5.12483        -6.07787
LJ            4.0108        -2.05184         1.24362
LJ          -6.27118         3.23082         4.28853
LJ          -2.12936        -5.44816        -2.98108
LJ          -3.23224         2.63969       -0.637512
LJ          0.236113       -0.662475        -2.55872
LJ          0.699081         4.36833         -5.4568
LJ           1.86333         1.59195         2.85033
LJ           5.21647         4.16951        -6.03794
LJ          -5.13911        0.672109       -0.859965
LJ          -3.24521         -5.2818         3.40397
LJ          -1.73409         2.84632        -4.00474
LJ          -2.56069         5.73602        -1.63462
LJ          -1.50734        0.972054         4.91728
LJ          -2.86586       -0.746409        -1.09196
LJ           3.72562        -3.71483        -6.00625
LJ          -1.70456        -6.18417         5.57674
LJ          -5.17662         3.23963       -0.300343
LJ          0.331368         3.39872        -4.90754
LJ         0.0442163        -5.09767        -3.57963
LJ           1.66885        0.668403        -6.46302
LJ          -5.46292        0.687327        -2.33257
LJ           4.47451        -1.23082        -3.08444
LJ          -1.85261        -1.18624       -0.369444
LJ           4.97762         5.26378         4.57909
LJ           6.10039        -5.65786         1.38151
LJ          -5.14886       -0.676771         1.79623
LJ           -2.4188         2.92384          5.8841
LJ            5.4118         2.40215         4.29764
LJ           1.36072         3.30197        -6.10156
LJ        -0.0721383        -1.67566        -4.72168
LJ           5.46215        -1.20264         6.20958
LJ           3.67152        -1.61281        -1.78607
LJ          -5.55698         2.73338         -4.0076
LJ          -5.68184         1.30687        -5.00844
LJ         -0.620841        -5.03513        -2.25773
LJ           1.63471         1.46323          4.3281
LJ           1.13837        0.264994        -2.34624
LJ           5.24567        -2.10655         5.29245
LJ          -3.09559         3.44019        -5.47357
LJ             1.532         3.91483         -2.1274
LJ          -3.70385        -5.69727        -4.45898
LJ           3.23876        -3.79832         1.85942
LJ         -0.828446         3.02565         3.02108
LJ          -3.84313       -0.900941         2.39835
LJ          -6.15502        0.160785         5.71599
