108
#Comment!
LJ          -2.58864         3.31439         4.05774
LJ           3.09865        -4.18524       -0.400746
LJ           1.89365         3.71116        -4.21615
LJ          -4.03753        -1.68868        -3.47068
LJ           5.60505        0.895366        -3.41208
LJ           4.21888        -5.87672         4.75832
LJ         -0.263624          5.2874         4.89305
LJ          -3.44443        0.861283         4.01923
LJ          0.693051         5.25716       -0.539576
LJ           3.32139        -2.11894         0.33187
LJ          0.493978        -4.14757            2.94
LJ           4.23597         2.20844       -0.787085
LJ           5.32533         3.21075        -5.10792
LJ           2.40549         4.03526         2.12661
LJ           4.89407         6.26447         5.15662
LJ            2.3993        -3.55613        -2.16421
LJ           2.23599        -4.66172        -1.53783
LJ            3.9457        0.681123         1.81271
LJ          -2.76165        -4.38657         2.45131
LJ          -0.75219        -3.46243         4.80514
LJ          -5.65426        -4.01518        -2.12242
LJ          -5.14463       -0.356397         5.01173
LJ           1.13062        -5.39673        -2.83103
LJ           4.10539         4.74452          2.5687
LJ          -4.90165         4.84023         5.18063
LJ          0.196128        -1.49831        -1.67585
LJ           1.06025        -3.07165         1.37861
LJ           -2.7102      0.00871681          3.8871
LJ           4.13069        -2.35056        -3.07473
LJ           3.54117         3.47113        -4.68927
LJ          -2.31416        -4.15566        0.939956
LJ          -2.11499        -3.76337        -1.87043
LJ            4.9455         3.62601        0.661541
LJ       0.000348973        0.117055         2.64725
LJ          -4.21858        0.730492        -1.22031
LJ           4.69717         5.44212        -1.53741
LJ           5.47024         5.15925        0.199936
LJ           1.32688       -0.911707         1.09955
LJ           5.36536        -1.18269        -4.34776
LJ          0.941299        -3.45987        -5.87065
LJ           1.95232        -1.55828         5.48883
LJ           5.97631        0.176927         4.50254
LJ          -1.86238        -6.43024       -0.579673
LJ          -6.27258         4.02797      -0.0373406
LJ          -2.19442       -0.183382        -2.86862
LJ          -2.68995         5.19512         1.25485
LJ          0.355868        -3.27275        -4.74607
LJ           1.53379        -2.50349        -1.37576
LJ         -0.998238         -2.7308         6.18567
LJ           4.44909         6.17948       -0.953176
LJ           6.43976        -4.78962        -0.66109
LJ           3.47806        -5.30352         4.63289
LJ          -6.07999         1.01366         6.11254
LJ           1.64288          -4.842        -5.38645
LJ           2.55368        -5.14509         2.47534
LJ           4.96993         1.27861        -6.29948
LJ          -6.13019         3.75418         2.37682
LJ         -0.126109        -2.83791        0.406215
LJ           4.28422          2.7917          4.1968
LJ          -2.75848         2.98631          5.4941
LJ           -4.7914         -2.3154        0.899932
LJ           4.98595        -5.97045        -1.31564
LJ           -5.7081        -5.62144       -0.325835
LJ           4.48338         1.00273         5.20798
LJ           4.55679         1.63918        -4.05589
LJ          -4.52178        -4.11984         1.54294
LJ          -3.09474         6.03082         6.01045
LJ          -3.58177        -3.45237         3.59426
LJ           3.59495        0.362276        -5.89993
LJ          -3.57005         4.10049         1.38292
LJ           2.57323        -3.68893         3.77459
LJ           4.47973        -6.41452         3.31532
LJ          -2.27745       -0.910374         5.09288
LJ          -5.73051         2.53654         4.74607
LJ           5.88003        -3.61392        -3.08577
LJ          -5.31632        0.170004        -2.35473
LJ             1.963        -4.59021         3.39127
LJ           5.61782       -0.447228        -3.04281
LJ          -3.42692        -2.80488       -0.179161
LJ           3.86876        -6.25884        -0.12265
LJ          -1.35916         4.88881         1.29823
LJ           2.14524        0.010335        -2.05692
LJ           3.88541        -3.90486        -3.09173
LJ           3.70969         6.21262        -1.84501
LJ          -2.65544       -0.114682        0.421309
LJ           3.43643        -6.45884         3.68333
LJ          -1.88014        -2.35832         3.82138
LJ           5.51388        -3.61893        -4.29517
LJ          -1.09639         5.97082         1.16561
LJ         -0.670945         2.08198          -5.579
LJ         -0.753484        -6.43198         5.69378
LJ           4.32727        -4.78536        -4.57515
LJ          -2.50737        -1.69278        -3.29634
LJ          -5.20622        -1.29575        -1.52969
LJ          -1.36541         4.32914         4.78174
LJ          -3.19839         2.11957        0.776988
LJ           1.34679         2.73679         3.72006
LJ          -4.07114       -0.989367         2.65464
LJ           5.90554       -0.330416        -5.01788
LJ          -4.81926         3.21864          1.2285
LJ         -0.490334         5.55482       -0.208194
LJ           2.83339         5.14769        -2.69211
LJ          -1.42487         5.25402       -0.484061
LJ          -4.43593        -3.00355        -5.59545
LJ          -2.56272         5.21095         5.84065
LJ           5.74921         1.33573       -0.893859
LJ           2.39722        -6.08848        -1.07879
LJ           5.19601         6.20416        -4.73288
