108
#Comment!
LJ           1.41931        -1.67531         1.37735
LJ          -2.53089        -1.58804         6.08107
LJ           1.50491        -1.43153         3.17555
LJ          -6.23676        -3.30947        -3.63176
LJ           4.84828        -4.38709         5.63571
LJ           -4.0983         1.82162       -0.850291
LJ           2.10432         4.29713        -2.37252
LJ           4.97023         3.85603         3.49996
LJ           1.30614         3.52573         2.27989
LJ           2.86647         0.99255        -1.70479
LJ         -0.707286        -5.74394        0.471464
LJ          -3.56217        -4.72292        0.763318
LJ          -1.01192        -3.68271         2.12346
LJ            6.2135         4.41591         -4.2765
LJ        -0.0996586        -2.28633        -5.44384
LJ           1.38791        -1.65686         5.16888
LJ        -0.0726044         1.07319          3.9206
LJ          -1.13918        -1.80525        -4.18419
LJ           0.20859          3.9505         -4.7667
LJ           5.33965         1.86856         1.77976
LJ          0.409139         5.17873        -5.32881
LJ           2.36663          4.2597         1.01586
LJ          -6.05546         2.19427         6.08488
LJ            6.3834       -0.702685         1.01731
LJ          -6.10711         1.60469         3.07249
LJ         -0.349348        -6.11254         1.89536
LJ          -6.06209        -2.24084        -5.13446
LJ          0.293842         6.14259       -0.277119
LJ          -2.20232        -2.94327        0.870404
LJ           1.13796         5.84154         5.90144
LJ          -6.24292         3.44052        -6.41607
LJ           6.13457         1.05572         4.69941
LJ          -3.54477       -0.533383       -0.838789
LJ          -4.81507        -4.27335        -5.60338
LJ           1.97891         4.08632         3.15861
LJ          0.281334        -5.19904        -3.09674
LJ          -2.62206        -1.93452        -2.00502
LJ           1.08991         3.06601        0.501846
LJ           4.47535        0.404011         1.82014
LJ          -3.22585        -6.07882         4.71879
LJ         -0.574006        -5.10699       -0.964435
LJ           4.89473        -3.06105        -4.93484
LJ          0.653139        -4.67775         2.46387
LJ         -0.483172         6.04194         6.18065
LJ           4.66597        -4.16654        -4.25045
LJ           4.77262         3.84886         2.46799
LJ           2.53412        -5.13882          6.2495
LJ          0.990391         2.47495         -2.7944
LJ          -1.08168        -3.01521         -5.3564
LJ           4.10671         5.21314        0.992296
LJ          -0.20667          1.4009        0.272118
LJ           1.52053        -5.49734         6.04139
LJ           5.38081        -3.83238         3.00965
LJ          -3.16274         4.64857        -2.11221
LJ          -1.72695        -3.98471        -4.64549
LJ          -5.02863         2.67056        -4.13297
LJ          -5.58702         -2.0932         4.40054
LJ         -0.494423        -4.13937         1.00007
LJ           4.24935       -0.380579         4.79791
LJ         -0.321145        -4.93619        -4.65773
LJ           1.58477        -2.82658         3.30293
LJ            -4.029         2.17687        -2.56338
LJ          0.811091         -5.1284        0.296925
LJ           1.73058       -0.395187         6.42469
LJ           2.06443         2.68164        -3.24886
LJ          -5.51731        -5.24341         5.77503
LJ          0.994141         3.09215         4.87117
LJ          -2.30084        -6.02607         4.29989
LJ          -6.35851        -2.20827         6.01028
LJ          -5.31567         2.74864         3.53022
LJ          -3.32388       -0.947837        0.387094
LJ           2.17908       -0.428133        -3.04084
LJ           0.45558         6.23074        -5.24626
LJ          0.290471        -4.37393         4.01046
LJ          -4.51102         1.51472         5.68073
LJ           3.47131        0.262877         4.14159
LJ           5.07585         3.46637        -6.41368
LJ          -2.14528         5.29992         4.06024
LJ          -1.86573        -4.31225        -2.62769
LJ           4.84317        -5.35053        -4.76495
LJ           1.83765        -4.85399       -0.653099
LJ          -4.27253         5.51621         5.07194
LJ          -5.11064         2.92304         4.88209
LJ          -4.89584         2.34498        -6.17687
LJ          -3.09344         4.47412         -3.1914
LJ          -5.81479         2.66266         2.45204
LJ          -1.50812         1.66029         4.26655
LJ          -5.58114        -4.95007        -2.71759
LJ          0.381242        -2.18258        -4.15228
LJ           4.55205        -1.93452         2.12758
LJ          -3.56934        -1.29951          6.2731
LJ           3.43937         1.60827       -0.349101
LJ          -1.27673        -2.72137      -0.0355898
LJ          -1.23282         1.16307        -4.25154
LJ           1.81383         5.65419         1.58129
LJ          -3.89451        -2.26511         4.98499
LJ          0.167724        0.119131        -5.10209
LJ          -3.98893        -5.93567        0.238635
LJ           1.66458         2.11568        -4.21891
LJ          0.799681         5.38479         2.79846
LJ           4.18755        -4.50206         3.46724
LJ           0.94652        -3.27657         5.21004
LJ           5.36233        -2.97122        0.732181
LJ           -4.0278        -5.63783        -1.50637
LJ          -4.22634        0.432784        -1.45224
LJ          -4.19292        -2.89541        -1.18585
LJ           5.60002        -3.39321        -2.58249
LJ          -2.76653       -0.443128        -6.38086
