108
#Comment!
LJ          -4.74046         3.44745         6.37166
LJ          0.701656       -0.130333        -5.04387
LJ           4.20698       0.0435056         1.43653
LJ         -0.851089         4.68566        -2.71437
LJ          -1.43186         1.15578         3.23588
LJ          -2.00714        -3.11166        -6.05573
LJ          -2.80137         6.36795         5.24145
LJ           5.63389        0.240194         5.07607
LJ           2.96612         1.49883          3.4713
LJ          -4.98703        -1.39839        -3.49705
LJ           4.29792       -0.906126         5.81005
LJ           6.34536         4.67962        -5.67366
LJ          -1.17514         3.33728        -4.00137
LJ          -6.39108        0.721876       -0.841038
LJ           1.61039         4.99716         5.32343
LJ          -4.19028        -5.80096       -0.312689
LJ           6.32999         3.01092         4.79151
LJ          0.646019         1.25664          3.6158
LJ          0.788073       -0.191718         2.08808
LJ          -3.34298         -0.6132        -3.68691
LJ           4.01383         6.13879        -5.50461
LJ           1.28482         5.07049         3.76275
LJ         -0.554975        -1.03766        -1.39132
LJ          -2.68476         -6.3789        -4.74707
LJ           1.58985        -4.84455         5.18848
LJ          -3.54011         3.67318        -2.62964
LJ          -2.03418         1.91311         1.12189
LJ           4.36891         3.90888        -5.47928
LJ           2.86696         5.49224         -1.3849
LJ          -5.52144         -2.8086         3.56662
LJ           2.81946       -0.696542          1.7525
LJ          -4.89658         3.06887         2.11583
LJ          -5.44725       -0.325554        -6.08131
LJ          -4.48227        -1.65438        -5.17498
LJ          -3.61881        -5.60912         5.58036
LJ          -2.90195       -0.659786         3.95972
LJ           3.92863        -4.10887         5.35103
LJ          0.957052         1.42083        0.683896
LJ          0.742352        -1.86394         4.22211
LJ          -4.90613         5.06973         3.78159
LJ         -0.783405         2.67526         1.31363
LJ           2.19614        -2.52866         6.09367
LJ          -1.41303         1.86636       -0.388302
LJ          -4.51498         6.38998         6.34826
LJ          -5.63037        -5.06972         6.08829
LJ          -6.05702         1.52019        -1.55623
LJ           -2.2141        -1.29663        -3.04506
LJ           2.83474        0.517455          1.1477
LJ           4.39507         1.02123        -4.57147
LJ           5.37512         2.08289        -3.52329
LJ          -6.27099        -6.34821           1.732
LJ           -0.9918         4.83297         2.63032
LJ         -0.615368        -1.71069         3.02471
LJ          -6.25963         1.57229         5.08778
LJ           5.77305        -4.38436        -4.87605
LJ           5.19175          5.9683        -6.23448
LJ          -0.71743         -6.3914         1.40277
LJ          -1.84668        -4.90509       -0.415867
LJ           5.25323        -5.23138        -4.22373
LJ          -2.16112          3.2357         -2.9753
LJ          -2.06102         2.82595       -0.106103
LJ          -1.51774        -5.60558         2.28825
LJ          -4.87214        -3.75413        -2.30941
LJ         -0.693138         6.17543        0.424027
LJ           5.34309        0.112531         6.01952
LJ          0.165779        0.610577        -5.94695
LJ           4.89685       -0.057995        -4.99468
LJ          -4.59689       -0.212555          6.4584
LJ          0.271154         2.65116         3.43258
LJ          -0.83736        -3.64633        0.299529
LJ           1.28365         -1.9828         1.59045
LJ           2.71123        0.785364         4.94007
LJ         -0.911016        -2.62253        -5.17264
LJ           2.80163         3.33685        -2.58549
LJ           3.58804          2.6756         6.02541
LJ          0.521431        -3.01635         1.06636
LJ          0.330356        0.532817       -0.440233
LJ          -4.04305        -3.09287        -5.17465
LJ          -3.55007         6.19945         5.92478
LJ         -0.966945        -1.19766         5.12344
LJ          -1.85017        -3.54945        0.591166
LJ          -3.13868        -2.64089         2.31006
LJ          -2.69643        0.390239        -5.16857
LJ          -1.78195        -1.77067        0.299066
LJ             1.046        0.935884         5.48343
LJ          0.625804       -0.287415         5.88546
LJ          -5.34772         2.28028         6.25713
LJ           6.38673        -1.24082        -3.79656
LJ          -3.73333        -3.35339         -6.1347
LJ         -0.823655         1.57491         5.07761
LJ           2.24142       -0.243285        -5.06102
LJ          -1.24251        -3.46624         5.76793
LJ         -0.301275        0.636268         1.93252
LJ            3.9183        -2.26958         2.77588
LJ             3.276         5.49992        -3.55444
LJ          -5.28133        0.294886         3.43171
LJ           5.53298         3.51513        -4.65149
LJ          -3.90399         3.12268        -1.27416
LJ          0.449268         5.99746         3.62589
LJ          -1.79889         3.77193        -5.79166
LJ           5.43353        -2.35359         -4.8467
LJ           5.37027         5.86703        -1.10167
LJ           3.01847        -4.34888         3.25182
LJ          0.322056        -6.31195          2.2367
LJ           2.06404        -6.24763        -3.28683
LJ           3.90105         2.25789        -4.52594
LJ          -2.27484        0.689875         1.67079
LJ           3.88079         1.94436         1.76358
