108
#Comment!
LJ           4.61164         4.55403        -4.51972
LJ           6.26951        -3.34976         2.16702
LJ          -6.19719         6.23814        0.950158
LJ          -3.41008         4.30533         3.16593
LJ           4.18774         2.04561        -4.98609
LJ           4.76821        -5.87889         2.35664
LJ           3.74255        0.449329       0.0282497
LJ          -5.27884        -5.28168        -3.05236
LJ         -0.641465        -4.81868        -1.07202
LJ          -3.14399         5.39424       0.0440605
LJ          -5.69077         3.05018        -2.18625
LJ          -3.09323         3.49808         4.00562
LJ           1.89077       -0.955124         1.35405
LJ           5.29522        -2.15927        0.885649
LJ          0.766263         -2.2429         2.10023
LJ            5.5189        -2.63329         6.06874
LJ          -3.95196        -1.57346         5.37715
LJ          -1.51837        -6.18344         4.42345
LJ          -2.67767         2.72919         5.86356
LJ          -5.40993        -2.88206         3.84508
LJ           2.21663         1.56904        0.499899
LJ           4.69071        -6.05183         4.17536
LJ           3.80789         2.45919          4.2585
LJ           1.29423         5.44098         4.83813
LJ          -5.81062        -5.77836        -4.79118
LJ         -0.338864        -4.95541         1.18272
LJ          -1.16337          5.1427        -5.28577
LJ           5.51016         3.44517         5.73331
LJ          -0.26892        0.348294         1.14617
LJ           2.39912        -4.15847        -3.92084
LJ          -4.07011        -5.79845         6.11567
LJ          -2.57959        -2.39068         -5.9383
LJ           5.37447         4.71468         1.47816
LJ           5.69346        -4.48568        -3.29856
LJ          -3.56786        -4.34025        -4.10354
LJ          -1.72897          2.9742      -0.0886348
LJ           5.36566       -0.159239        -3.27586
LJ          -3.70509        0.317534        -4.47867
LJ          -5.78479         3.39251        -4.08298
LJ          -2.23315          5.0948        -4.05959
LJ          0.785292        -2.90769         5.01293
LJ            6.2029         5.04682        0.483365
LJ           3.93786       -0.384145        -1.86047
LJ           4.64096        -4.94116        -3.19552
LJ          -3.02952         1.24125         -5.2244
LJ          -4.84181         4.34067        -2.62536
LJ         -0.201117         4.90813        -3.91413
LJ           4.52057       -0.782797        -4.20248
LJ           5.56433        -2.56587         2.75849
LJ            2.8837         1.20865        -4.53294
LJ         -0.842985        -2.37216        -2.69252
LJ           3.45714         3.13842         3.67735
LJ         -0.360139         2.73938         6.12047
LJ           5.49707         3.89781        -6.32384
LJ           2.46505          2.3884         3.64993
LJ           5.46545        -1.71898        -5.62552
LJ          -5.47866         2.35561         6.13808
LJ           5.85639         1.39219         1.91088
LJ           3.81948        -4.96187         4.50861
LJ            2.1449        -2.26268        -5.46142
LJ          -2.22218       -0.621263         2.86189
LJ           2.04296        0.135142         4.54871
LJ          0.449469        -2.94672         2.84814
LJ           1.76483        -5.74793         6.01442
LJ          0.752372       -0.787263          3.7967
LJ          -4.28168       -0.734305        -1.94391
LJ           2.64168         3.90152        -2.71502
LJ          0.817384         6.45326         4.94726
LJ          -2.21688        -3.35808         4.43997
LJ         -0.935136         4.65666          -2.059
LJ           3.61043        -1.78045        -5.33281
LJ            6.2425        -5.85234        -1.59013
LJ         -0.437107         3.79836         6.03773
LJ          -5.65938         5.84422        -3.66399
LJ          0.244881          3.2799         2.30578
LJ           5.97154          5.1271         4.79496
LJ           -3.8177         6.13431         5.32247
LJ          -1.50127         2.27713        -1.62992
LJ          -3.22628        -6.24002         2.97071
LJ          -4.41685        -4.73605        0.892536
LJ          -1.58933         4.19986          4.1773
LJ         -0.731814         2.55043         4.51178
LJ          -5.01899         -1.9763       -0.904254
LJ          -1.72677         1.78666         4.09606
LJ           1.77237        0.624981        -5.78638
LJ          -4.94639       -0.230612        -4.62058
LJ          0.221049        -2.16654         5.00341
LJ           1.17791      -0.0747888         6.22303
LJ           1.56329        -1.00652        -6.20455
LJ           1.92542         1.88177         5.70158
LJ          -5.89223         4.31848        -2.72776
LJ          -3.61099        -2.22542         1.71795
LJ            4.8329         3.86493        -5.47337
LJ         -0.769029        -4.15518         2.29766
LJ           -3.0225         2.73773         4.94634
LJ           1.05971       -0.514202        -2.63373
LJ           1.84999        -6.35259         4.73634
LJ           -5.4906          1.6341       -0.203554
LJ           2.74771        -4.60756        -1.48191
LJ           4.45842        -4.04574        -5.23065
LJ          -2.16252         1.73739         2.92852
LJ            -6.243        -1.60559         4.42312
LJ          -4.77371        -3.38205          3.0265
LJ           3.27405         4.61951         0.57045
LJ          -3.54822         2.83611        -4.76036
LJ          -3.16877         1.99308         1.95886
LJ          -4.20558         5.44051        -2.21993
LJ            5.4955         -4.6053         3.26344
