108
#Comment!
LJ           2.31964        -4.66461         2.37048
LJ          -5.39063         1.66936         1.57301
LJ          -1.46475       -0.460836        -5.97621
LJ           0.28203        0.602708        0.128078
LJ           2.17502          6.3503         -1.4406
LJ           3.92257         5.77032        -1.84607
LJ           5.42305         0.93869        -5.08246
LJ           6.33143        -2.90449        -5.57958
LJ           2.25192        -1.65636         4.53533
LJ           0.71588        -4.85227        -3.95096
LJ          -0.95378         -5.0124        -3.77223
LJ          -1.81761         4.01938         2.32272
LJ          -2.23166        -6.13858        0.747375
LJ          -3.52571         -6.3718        0.710885
LJ          -3.76064        -6.08846         4.13116
LJ           1.29725        -5.40562        -6.44379
LJ           2.98499        -2.38404         2.26552
LJ           5.78652        -2.39666        0.260437
LJ           4.28306        -5.82785        -5.81727
LJ           1.47886        -1.04867        -3.97283
LJ          -4.94616        -3.13349         2.44645
LJ          -5.19554        -5.58436         5.20172
LJ          -5.44785        -6.28129        -5.88424
LJ          -1.99756         6.20361         1.59364
LJ          -2.37816        -2.40039        -5.25069
LJ           1.45801        -1.71339        -5.75079
LJ          -3.72317         3.48255          5.5202
LJ          -1.68038        -2.19957         5.74135
LJ          -5.75407         5.05196         2.12071
LJ           2.76649         5.06847         1.41933
LJ           2.39661         2.75662        0.609483
LJ          -2.14059        0.883555         2.30043
LJ          -4.03774        -2.59844         1.19367
LJ            1.1571        -4.20576       -0.311555
LJ          -2.95215         1.71425         4.42467
LJ          -2.59554         3.16936        -6.08545
LJ           5.36987        -4.35207        -5.52244
LJ          0.715718         1.84459         1.47363
LJ           3.61589         2.16767          2.7981
LJ           2.91597        0.850364        -1.17881
LJ          -5.24765         -4.9214        -3.28678
LJ          -3.35512         2.72239         3.53582
LJ          -3.01683        -5.60147        -1.92104
LJ           1.14425         4.31362         3.58246
LJ          -6.39144         -4.5316        -1.36018
LJ         -0.934644        -4.53911        -2.71403
LJ          -1.33426        0.897329        -4.60532
LJ          -1.38165        0.764913         6.01536
LJ          -6.02628         6.34128        0.128626
LJ            2.8398      -0.0150278        0.988011
LJ         -0.427246         1.45015        -0.23263
LJ           -1.8248        -2.31528         3.49091
LJ           4.42706         5.20576        -4.25765
LJ          -5.29409        0.491845        -1.78084
LJ           2.16406       -0.682507        -6.06407
LJ         -0.924533         4.59309         3.07156
LJ           1.82851         4.67016         5.82408
LJ          0.717115        -3.50601         5.98536
LJ          0.642371         5.61923      -0.0273923
LJ           1.42568     0.000858143        -1.34745
LJ          -5.79191        0.977495         3.37159
LJ          -4.49393         1.45048        -5.59806
LJ           1.45745        -6.35903         6.41901
LJ           1.96698        0.404758         3.84547
LJ           5.31748          1.6993         5.20383
LJ           1.59637         4.53282        -2.94379
LJ         -0.230469        -0.63792        -3.34998
LJ         -0.287041         5.12951        -5.59668
LJ           2.23532        -1.65858        0.645294
LJ           -4.5053        -1.40059        -3.48347
LJ           4.30771         1.63163         6.19902
LJ           5.31568         4.04117        -3.61685
LJ          -6.35835        0.895721         5.39399
LJ         -0.326397         6.08822         5.81343
LJ          -1.25466         4.86764         4.42931
LJ           3.13315         3.71128        -5.17069
LJ            0.2525         4.26685        -4.81693
LJ           3.65711         6.10954         6.13095
LJ          0.993045        -3.96297          2.2791
LJ          -4.28906         1.97422         5.68266
LJ           1.04304         2.06154         3.78744
LJ            4.5587        -3.03718        -3.71485
LJ           1.85686       -0.513507        0.406742
LJ          0.767974         5.70957           4.617
LJ           1.76994        -3.03727         -5.9324
LJ          -6.15949         0.60864        -4.89235
LJ          -5.39457        -3.97789         2.00374
LJ           5.36402         2.66783        -6.03518
LJ          -5.40421        -4.84233         4.48414
LJ          -3.93262        0.677451        -2.24272
LJ         -0.366822        -5.52555         1.17849
LJ         -0.875202        -1.91909        -2.61751
LJ          -1.52808         2.35739         6.25512
LJ          -5.41662          -4.623        -4.26398
LJ           1.56337         5.72951        -5.16702
LJ           2.06051         2.96505         1.76455
LJ           2.06862       -0.225143         -4.1406
LJ           1.12135        -2.65258         2.90993
LJ         -0.981517         4.18027        -6.27779
LJ         -0.445931        -2.22764        -1.51059
LJ            1.3855        -5.37458       -0.784821
LJ          -3.99497        -4.55274        -4.12036
LJ          -4.93262        0.622312         -5.0052
LJ           6.01349         4.40615          1.0815
LJ           6.14755        -5.37439         3.31048
LJ          -4.08447         3.32338        0.965193
LJ          -3.86898        0.487062        -5.22094
LJ           1.57374         5.71516        -3.75188
