108
#Comment!
LJ           1.57361         0.83288         2.70685
LJ          -2.03351        -2.73122          5.6028
LJ          0.385706         -2.6854         3.73252
LJ          -3.93475         6.25163        -5.37471
LJ           4.57927        -5.66689        -6.31072
LJ          -3.27674        0.695868         1.80561
LJ           1.11661         5.98444       -0.597874
LJ           4.65576         1.99624         5.75589
LJ           1.62958         3.44949         1.88746
LJ           4.53023         1.04746        -1.39362
LJ         -0.990548         4.96596        0.299294
LJ          -2.10883        -2.10224        0.260744
LJ          -4.15453         -4.0606         2.66362
LJ           5.54609         4.93915        -2.31861
LJ          -1.65695        -1.70999         5.72972
LJ          -1.89001        -1.16076         4.83929
LJ           -1.3805        -1.05863          1.5461
LJ          -1.73008       -0.598073        -4.78601
LJ          -1.13881         4.80734        -5.68568
LJ          -5.82632        -1.33866          4.7138
LJ         -0.168116         4.83392        -5.21695
LJ            3.0609         1.58811        0.304467
LJ          -4.33632         1.26285         4.68457
LJ           4.52643        -1.23682         1.73992
LJ          -2.65214         4.65819         3.59482
LJ          0.187571        -3.73335          3.6768
LJ           5.95268        -3.04203        -4.80986
LJ         -0.583019         4.04919        -0.14978
LJ          -2.24155        -3.01906         1.78912
LJ           3.26218        -6.37426         5.12168
LJ           6.07085         3.24861         4.31188
LJ          -3.71573        -1.23378         6.08577
LJ          -3.52296       -0.484032        -0.21856
LJ           -5.9326          5.2098        -5.35491
LJ           1.78409         4.57573         2.27749
LJ          -4.42528         2.15807         -3.4464
LJ          -0.90518         -1.7036         1.06179
LJ         -0.202412         1.45546         1.26497
LJ           4.13364          1.1746         1.55122
LJ           5.34136        -4.27958         2.52222
LJ          0.992329        -3.57315        -1.22035
LJ           5.68562        -2.04324        -5.39649
LJ           1.98018        -5.83467         4.11043
LJ         -0.485105         3.67515         4.58032
LJ           3.66064        -1.98844        -5.71376
LJ           2.74435         2.77369         1.53896
LJ           3.62834        -5.15448        -6.34354
LJ           1.90945         2.78102        -1.90195
LJ          -0.72542        -2.72309         6.22063
LJ           4.73433         4.26959          2.1737
LJ         -0.869607         3.75216         1.07157
LJ           3.34325         6.05172        -5.94783
LJ          -6.11926       -0.964656         3.41869
LJ          -1.20874         1.33393        -2.65199
LJ              -1.2        -4.84495        -3.17118
LJ          -4.84714         5.62851        -2.44969
LJ           5.71349        -1.22773         6.17994
LJ           -2.3122        -6.38492         5.56337
LJ           4.60339        -3.48316         3.05442
LJ        -0.0845065         -6.1299        -2.98986
LJ            2.4861        -2.10925         3.87184
LJ          -5.26104         1.15005        -4.54876
LJ           1.27156         -5.2904         1.67135
LJ           0.98697        0.448441        -5.05403
LJ           2.49197        0.986428        -3.22179
LJ          -3.92441        -5.56039         5.01042
LJ          -1.95338         1.87398        -6.30906
LJ          -2.68397         -6.0372         4.21165
LJ          -6.45504        -2.41207         5.95783
LJ          -3.33114         4.04106         2.32317
LJ          -3.42589        -2.51786            0.96
LJ          0.391801        0.983663       -0.766869
LJ          -1.48443         5.71818        -5.40794
LJ         -0.568613        -4.32387         4.29968
LJ          -6.15133         2.69688         6.35126
LJ           4.46878       -0.600726        -5.63297
LJ           6.15012         1.33622        -5.73941
LJ          0.396646         4.79985         1.04188
LJ          -3.56132        -1.73772        -5.96298
LJ           4.62089         5.71693        -5.81886
LJ           2.38567         5.81714        -4.22749
LJ           -5.9518         5.47125        0.811333
LJ           5.31388         5.62216         3.68406
LJ           6.20514         4.30406         4.21434
LJ          0.816635         4.09751        -4.58031
LJ           6.34459         1.66436         1.78572
LJ          -2.89145         2.10827         3.07364
LJ          -2.12321        -5.09988        0.209531
LJ         -0.636832         -2.2132        -3.69533
LJ            6.2356       -0.762001         2.33232
LJ          -4.09331        -1.48803        -4.31926
LJ            1.7129         1.59097        0.384657
LJ         -0.557877         -2.6202         1.07907
LJ          -1.98882         1.73436        -4.56631
LJ           4.89132         6.20341         3.14436
LJ          -4.25987        -2.23282         1.64171
LJ          -1.12016       -0.238732        -1.56678
LJ          -3.20666         6.03812        -1.47796
LJ           2.16647         2.10134        -4.44426
LJ          -1.36851        -6.38046         5.04533
LJ           2.98913        -4.12501         3.97083
LJ          -1.91244        -5.04834         5.86947
LJ           2.52232       -0.845266         3.83522
LJ          -2.04109        -3.22811        -2.12782
LJ           -3.6084        -1.83528       -0.278723
LJ          -4.47421        -1.69357        -1.35134
LJ          -5.98915         5.61111         -1.7812
LJ          -2.90497        0.442886          6.0349
