108
#Comment!
LJ           4.91288        -1.59925         4.34086
LJ           4.99378         2.08327         3.88739
LJ            4.3432        -2.20801        -1.84662
LJ           4.22785          1.4276        -1.20028
LJ           4.67916        -1.24465         5.32191
LJ          0.518741        -2.91209        -1.55233
LJ           -4.9495        -4.56884        -5.73461
LJ          -2.95268        -5.65423         4.46883
LJ           2.42581         5.39637       -0.231469
LJ           -6.1798        -2.19239         1.93796
LJ          -0.13494        -5.91221         2.84184
LJ           2.10699        -1.58669        -4.94385
LJ          0.916216        -4.16578        -5.79834
LJ           4.50744        -2.32425        -6.20967
LJ          -5.38776          2.2434        0.815847
LJ          -4.31815         5.17585         2.37634
LJ           4.72211         6.14638         2.05968
LJ          0.146566          1.6089        -2.08209
LJ          -3.45139        0.831167        -3.28536
LJ         -0.646568         1.77297        -4.83259
LJ          -4.94866          -4.044         1.26994
LJ          0.713897         3.84016        -5.85256
LJ         -0.911747         3.22661        -5.64389
LJ           0.54241        -3.21624        -5.27515
LJ         -0.169263         5.42443         6.06875
LJ          -4.84506         4.92663        -5.10461
LJ           3.32116          4.7869         2.41653
LJ           1.65667        -3.21265        -4.76257
LJ           2.29943        -5.33188       -0.395926
LJ            3.7283        -5.76115        -1.64263
LJ            0.2244        -3.30059         2.11612
LJ          0.323087         6.09925         -1.0508
LJ           2.96567        -1.41892         6.00648
LJ           3.85688        0.983402        -2.67361
LJ          -5.91887         5.48925        -2.22392
LJ          -0.76267        -4.64187         2.05449
LJ           3.21581       -0.763273         2.11619
LJ          0.886874        -0.70043        0.475466
LJ           4.38683        -4.24961         3.75937
LJ           5.33705         5.03281        -3.67831
LJ          -4.13153         2.49699        0.163105
LJ            2.7757         2.19952      -0.0421289
LJ          -2.44494        -4.29818         4.44583
LJ          -5.14353         5.07725        0.839909
LJ          -4.02266        -4.29244         3.97767
LJ          -5.12078         2.97884         2.57157
LJ          -2.66187        -1.94379        -5.72971
LJ           5.73448        -2.83308       -0.498465
LJ          0.408908        -5.79465         5.51738
LJ           2.93697         -3.7624        -1.70702
LJ           6.30756        -3.82852         4.05302
LJ         -0.200875         1.30936         1.32411
LJ           3.39998         2.96527          -2.799
LJ          -6.24989         3.24529         3.17473
LJ           5.49681        -4.88324         5.39318
LJ           1.28704         6.09801          1.7318
LJ            2.3469         4.06581        -3.58902
LJ           2.10416         4.99554         3.06636
LJ           2.15422        -5.47266         3.32943
LJ          -4.73529         5.27591        -3.09507
LJ           4.10773      -0.0791093         4.24065
LJ         -0.257011          5.1548         2.17195
LJ           1.96901        -6.01325        -1.82951
LJ          -1.55818          -3.711       -0.276804
LJ           6.29565        0.158584        -2.67399
LJ           1.97023         3.52089         5.80933
LJ          -5.89109        -0.72949        -3.76472
LJ          -6.16338        0.405628        0.846186
LJ          -3.71167        -3.43466        -5.41586
LJ         -0.112629       -0.153531         3.31101
LJ           3.21264         1.87936         3.56203
LJ           6.08262         6.39553         2.14556
LJ           1.46105         1.49281         6.37307
LJ          0.128613        -1.29519         3.07392
LJ           4.69629          4.4313         1.72371
LJ           6.06334        -1.31632         5.86506
LJ        -0.0829441       -0.893843         -1.4283
LJ          -2.72778         5.20202       -0.520587
LJ          -5.45017         3.90506       -0.188217
LJ          -5.04669        -2.18342        0.162478
LJ          -5.21011        -4.80605         6.15771
LJ           2.27182       -0.995905         -1.7438
LJ          -5.63748        -2.49481        -1.96039
LJ           1.24651        0.974421        -2.26921
LJ         -0.644245         2.68596        -1.25149
LJ           2.50413          2.1192        -3.94857
LJ          -5.02899       -0.615826        -2.37071
LJ            5.3958        -3.77497         6.16374
LJ           2.20898        -3.93664         -5.8647
LJ          -4.09034          3.2257        -5.56532
LJ          -2.02293        -0.70343         5.67994
LJ           5.92717         -4.7433          3.0905
LJ           5.44611        -2.00425        0.365137
LJ         -0.879721        0.405352          2.3633
LJ             2.317        -5.87426        -3.05979
LJ          -5.13304         3.90201         3.78113
LJ           2.60207          6.4233         4.58973
LJ          -2.92886        -4.57047         3.19877
LJ        0.00785533        -2.12895        -5.91131
LJ          -3.14499          1.6694        -5.02945
LJ          -4.29954        -4.03782        -3.51089
LJ          -5.90109         5.03483         5.53013
LJ         -0.436634        -3.87876         3.94572
LJ           2.88684        -4.50167         2.81151
LJ           2.16732        -2.30788          4.8656
LJ           1.94099         3.63626         1.68501
LJ          -6.29193        -2.95671         5.75459
LJ          -6.31936        -5.22101        -5.26159
