108
#Comment!
LJ          -6.16013         5.07065         4.02397
LJ            1.4501         4.00567         1.92534
LJ          -2.65228         3.11028         1.42868
LJ          0.269577        0.932957        0.416749
LJ           6.38695         1.09477         -4.2768
LJ            -3.902         5.73944        -4.71905
LJ          -5.18909         4.82015        -4.09415
LJ          0.709674        -4.96853        0.463595
LJ          -2.10525       0.0484095         1.51012
LJ           5.95688         2.09616        -1.06974
LJ          -4.34454         1.70216        -4.74352
LJ           4.91402        0.145744        -2.38246
LJ          -1.31059        -6.43446        0.956155
LJ          -2.80348         1.19318         4.31001
LJ           5.13027        0.642189         1.45554
LJ           6.46291         -3.2283        -1.81132
LJ          -5.79186        0.896289        -2.56259
LJ           4.74567         -2.8382        -3.37831
LJ           5.57274         4.94496        -5.07134
LJ          -2.68356         2.02813         5.17246
LJ          -3.07085         6.29844         4.42903
LJ          0.691608         2.25382         2.59842
LJ          -3.67403        -2.23317         4.11168
LJ           2.61633        0.753093         1.08364
LJ         -0.975772        0.805232        -6.12563
LJ          -6.02054        -4.16535        -1.44824
LJ          -3.59298         -1.4135         5.29084
LJ           4.91609         5.40491        -3.93101
LJ           0.69241        -3.81749        -3.29858
LJ           4.25861         3.52107           -2.79
LJ          -1.05551         4.22581        -1.21284
LJ          -1.60092       0.0746343        -1.40373
LJ          -4.76866        0.250683        -4.72198
LJ         -0.721404         3.01512          5.3494
LJ         -0.276398       -0.743149         2.79535
LJ          -1.78936         1.11926         3.83436
LJ           0.70215        -4.61955        -4.69617
LJ          -3.08824         4.11674         2.28161
LJ           2.55474       -0.416195        -2.64475
LJ           6.39188         -6.0173       -0.356605
LJ           4.02948        -5.26045       -0.866255
LJ          -1.68797         5.69231        -0.09759
LJ           5.89305         3.85286         5.62101
LJ          -2.05461         4.87126          5.6475
LJ           2.63397        0.955096         4.48971
LJ          -1.02448        -1.90307        -3.56908
LJ          -2.09348        -3.83358         4.39444
LJ           5.89429         4.12241         3.08417
LJ          0.525088         4.55349         3.43055
LJ          -4.62489         4.72276         1.44079
LJ           2.29831        -5.64745        -5.23164
LJ          -3.20347         3.27746         4.82545
LJ          -3.49525       -0.573738        -4.92643
LJ          -4.71194         2.28599        -3.48477
LJ           2.43896         2.76443         6.43681
LJ         -0.615842         3.98846         4.22934
LJ           3.08303        -5.57902         4.21379
LJ          -2.17014        -6.36965        -1.24908
LJ           4.15977         2.54485        -3.15943
LJ           0.17043        -4.80122         2.84217
LJ           -3.5795        -4.14981         3.31966
LJ           3.82344        -1.81423         1.71688
LJ          -1.94065         5.81334        -3.16783
LJ         -0.490435         2.27635        -2.94779
LJ         0.0788986       -0.528491        -3.10275
LJ          -4.00338        -2.31851        0.650726
LJ         -0.609274         0.94074         3.25561
LJ          -3.62471         5.84989        -1.31807
LJ           5.37305        0.881035        -3.10388
LJ           1.23816         5.54441         3.19646
LJ         -0.259254         1.11022         -2.0257
LJ          -3.99197       -0.442593         2.23986
LJ          -2.15168        0.959507        -3.76377
LJ           6.41278        -5.69661        -3.94961
LJ           6.43876        -6.42064        0.853608
LJ          -5.84518         3.89144      -0.0343011
LJ           5.38372        -2.90307         6.20994
LJ         -0.824944         -3.9948        0.511338
LJ           3.02605        -3.36633        -3.59044
LJ          -2.72705         5.88204          2.4038
LJ           2.13135         1.79101         1.33083
LJ          -6.06326         4.20629        -4.80528
LJ          -5.00863         3.35408         2.52861
LJ            3.3765       -0.537033        -5.25378
LJ           4.97711        -4.93459        0.243831
LJ           2.89693        -6.09589          1.1683
LJ           5.85452          2.5287        -4.95564
LJ          -3.06968         1.31943         1.34274
LJ          -1.08671        -4.20978        -5.33527
LJ           3.64291        -3.60116       -0.613544
LJ           5.69195      -0.0927706        0.987638
LJ           2.85944         2.76393         1.60299
LJ          -5.01998        -1.41366         4.24647
LJ           2.78192        -1.19231        0.311446
LJ          -5.50376         3.75218         4.02481
LJ           5.50384        -1.93373        -3.46301
LJ          -5.71622         1.17538        0.887941
LJ          -5.95475         2.92172        -5.38403
LJ          -1.01695        -5.12305         1.16864
LJ           -4.0048         5.26285        -2.13436
LJ          -4.39441         -1.0877        0.432038
LJ          -5.84553          -5.882         2.09594
LJ           3.23254         5.15566        -2.94404
LJ          -4.17969        -3.37496        -3.53314
LJ             2.658       -0.452376        0.925438
LJ          -5.86601         1.43554        -1.58418
LJ          -5.40192         -1.7559        -2.33939
LJ          0.594193         -5.7682        -4.98299
