108
#Comment!
LJ          -3.15402        0.304666        -3.32913
LJ          -2.49348        -5.58324        -5.79563
LJ          0.453679         4.05554        -5.11204
LJ          0.648798         1.11684         2.49131
LJ          -1.62033         3.95215        -5.77799
LJ          -0.94699        -4.35703        -5.25891
LJ          -6.24562        -3.37273        -4.20417
LJ          -1.36937         4.11682         1.26486
LJ          -2.50898         1.28424        -5.38244
LJ           6.08338         3.96885       -0.888996
LJ           4.93902        -4.88888         1.17144
LJ           4.10872        -4.01924         1.14016
LJ         -0.859637         2.13072        -5.38727
LJ           2.60975        -3.58313         4.50017
LJ          -1.59875        -5.16099         5.54393
LJ          0.448621         2.39142         5.37659
LJ            1.1338         4.47815         1.12671
LJ           1.93934        -5.01303          4.9032
LJ          -6.36049          6.3962         2.34884
LJ          -4.32075        -3.52629        -4.90498
LJ           3.33171         3.29618        -5.29537
LJ           4.07525          6.3995         4.83019
LJ           3.98444        -1.97697        -5.70214
LJ            3.5425         2.97675         1.16544
LJ          -6.26646         4.25109         4.09091
LJ           1.59129         2.65275         4.75556
LJ       -0.00633941         3.81097          1.4175
LJ           -3.0733         2.34539        -1.18455
LJ           3.80674        0.299658         1.41695
LJ          -4.87988        -1.83182         2.55757
LJ          -6.06222        -1.03471         5.28913
LJ           3.98548         1.80791        -5.49074
LJ          -4.41297         1.12193        -2.58143
LJ          -5.01783        -1.33014         1.36474
LJ          -3.72165        -4.04399        -6.05739
LJ          0.520666        -4.43073      -0.0106383
LJ           3.87373        -1.83596          6.1694
LJ          -2.76057        -3.56576         6.38404
LJ        -0.0591877        -1.27479         4.92516
LJ          -4.46897         2.37976        -5.20895
LJ           -4.1123        -3.07131        -3.56614
LJ            -0.396         3.77903        0.300992
LJ         -0.757679         2.54729         -4.3086
LJ          -2.49494         -1.2781         2.80345
LJ         0.0409279        -6.01808        -6.19748
LJ             3.595        -1.41144        -3.71886
LJ           5.20841       -0.202385         4.14477
LJ          -2.28064         3.74939         -3.7478
LJ          -5.09015        -2.06537        0.345404
LJ           5.56381        -4.75984        -1.00929
LJ           -0.2239        0.785686        -4.35085
LJ           2.81722        0.457588        -3.81538
LJ          -4.11515         2.37682        -1.35531
LJ          -1.71701         6.29352         2.74642
LJ         -0.859529        -3.99577         1.16521
LJ           2.73458         3.50469       -0.806402
LJ          -3.88885         6.06932         4.39187
LJ         -0.949923        -2.63849        -4.13875
LJ           1.71065        -2.18302         3.38154
LJ          -0.45675        -2.00802      0.00735969
LJ           6.15488        -5.21734        -3.65971
LJ          -5.10883       -0.509687        -0.18254
LJ          0.173919        -2.58179       -0.669893
LJ          -2.13487         1.61516        -3.55599
LJ          -1.95102         2.04696        -6.27204
LJ           2.52385         5.65124       -0.530476
LJ          -1.98045        -5.67792         3.45858
LJ           1.46865        -2.77776         4.34473
LJ         -0.352456         -3.7001      -0.0472933
LJ          -2.42396        -0.31592         5.91651
LJ          -2.50395        -4.59554        -6.25669
LJ          -1.28412        -3.36686         5.16177
LJ         -0.778329        -6.20689         3.58401
LJ          -5.10629          3.2805       -0.889167
LJ           2.94849         4.32497          5.8579
LJ           2.14891         1.21097       -0.473022
LJ          -6.44869        -2.55723         1.58092
LJ           3.14169        -3.49191         5.50235
LJ          -4.27879         -5.4101        -5.52957
LJ           2.90615         4.51137         4.74647
LJ          -4.61742         5.39324        -1.27383
LJ          -4.21071         1.75194         5.05304
LJ          -4.20909        0.857681         2.36475
LJ           5.43614         3.74276         4.43279
LJ          0.457206        -2.55938         4.31689
LJ           2.73445         3.38327         3.62746
LJ           4.12134       -0.645213         3.96675
LJ           1.49854         3.19303         1.97378
LJ          -2.28784       -0.420657       -0.209076
LJ           2.51617         5.12333        -1.92489
LJ            5.1858        -2.82366        -2.30085
LJ           1.93471        -1.61435        -1.80667
LJ        -0.0650083         5.43487        0.349081
LJ           5.16459         1.99708        -1.80126
LJ          -3.65828         1.83409         1.09615
LJ          -6.10673         3.88657         1.73534
LJ           5.28146        -2.31165        -3.81813
LJ          -2.56402        -3.14572        -4.43257
LJ          -4.96501       -0.221369          3.9264
LJ           -2.1438        -1.46858        -2.48422
LJ          -3.82947        -2.88282         1.12879
LJ         0.0719996        -2.23808         5.80842
LJ           4.80681        0.587155        -5.03306
LJ          -2.04764          2.8919        -4.87178
LJ          -1.61337        -2.51594        -5.19821
LJ          -3.09801         1.69224         3.50024
LJ        -0.0557686        -5.27524         -3.6695
LJ           2.90836        -3.04437        -2.00781
