108
#Comment!
LJ           3.97523         4.20807         4.58362
LJ           4.14774         3.21526         1.82963
LJ          -5.59259        0.938039         3.00813
LJ          -3.02025        -2.71839       -0.703719
LJ           4.98937        -3.08772        -3.43963
LJ          -2.03555         4.66075        -5.87538
LJ          -4.92753        -4.04839       -0.811453
LJ           3.87814        -4.87462         6.32172
LJ          -3.24325         4.29996         1.31703
LJ           2.70946         2.65707         2.08828
LJ           4.39078        -1.60741         -4.1842
LJ          0.878841         -1.2088        -4.36142
LJ          0.279688        -2.75029        -2.43834
LJ            -1.646       -0.858915        -4.92992
LJ           4.83895        -3.58439         1.09419
LJ          -4.72453        -2.99598        -1.41948
LJ           -3.8515         3.96991        -2.60529
LJ          -6.03773        -2.02289        -4.11008
LJ          -5.24353         1.67753        -5.33768
LJ          -2.44049         1.67594         5.36862
LJ           -2.9792         5.28398        -3.68343
LJ          0.350134         1.38629        -3.15905
LJ          -4.56707        -3.21392         1.45507
LJ          -3.34254          2.8642         -1.2102
LJ           3.22167        0.760826        -1.71223
LJ           6.03439        -2.00843        -1.42772
LJ           5.48016         -1.9754        -6.36989
LJ          -4.24084         4.69446          -3.334
LJ         -0.150203          4.5738       -0.579142
LJ           5.61872         2.63444        -4.40812
LJ          0.860852         4.47431       -0.920604
LJ          -1.60933         3.78477        -5.83365
LJ          -5.39207        0.412003         -5.5775
LJ           2.11439         6.23286         3.51426
LJ         -0.620426         2.57845         1.16904
LJ           1.78898         3.73276         4.98845
LJ           2.85269       -0.168584        -4.71739
LJ          -1.34733         4.01615          1.1135
LJ           1.49455       -0.917597          1.3596
LJ           2.44898        -5.72613        -2.32814
LJ           2.92369        -6.20635        0.505704
LJ          -1.67753         3.87352        0.148915
LJ          -5.49246       -0.246634         2.59755
LJ          -2.28979         4.86921         4.23825
LJ           5.99964         5.73802        -5.85138
LJ          -6.03284         -0.1184       -0.266228
LJ           3.83864         4.38671        -6.43874
LJ           2.88044          5.5579         3.67117
LJ         -0.134246          3.2717         3.95245
LJ           3.85452        -1.15311        -6.43587
LJ          -1.13461         -5.7077         3.41398
LJ           4.46759           6.459         1.08497
LJ          -5.43544         5.78417        -5.77579
LJ          -5.05598         2.32719         5.97863
LJ          -6.16492        -3.68277         4.35154
LJ          0.966775         4.96645         3.41849
LJ           4.81246        -6.44023          3.1754
LJ          -5.25648         5.89259       -0.541808
LJ            3.1262         1.28141        -3.56807
LJ          -4.95941       -0.168791        -3.62782
LJ          -1.27025        -5.38527         1.48894
LJ           2.46808        -2.13082         5.26635
LJ           2.78611        -5.01207        -6.34517
LJ           2.48723         4.88705        -5.02429
LJ          -3.57036         -3.3078        0.233169
LJ           2.75989        -2.86234        0.208127
LJ          0.613148         3.65693         5.36617
LJ           -4.8567        -5.18222        -1.91854
LJ           4.96223         3.21062        -3.64225
LJ          -0.90677          4.1298         2.71519
LJ            6.1989         1.36505         6.34122
LJ          -1.69843        -4.65578         2.10099
LJ          -1.82168         -1.4553         2.24868
LJ           5.10996        -5.58459        -2.22296
LJ          -2.25897          6.1687         2.90842
LJ           5.95503        -4.57628         1.73669
LJ          -1.77026        -4.31018        -2.33903
LJ         -0.873348         -5.6526        -1.93549
LJ           6.40145        -1.59708        -5.18004
LJ           5.77105         1.07371         2.63632
LJ          -0.21277         6.13916         2.43986
LJ            2.8354         3.32741        -3.02481
LJ           4.47744         2.08556         5.28542
LJ            5.1775         1.45855         4.00993
LJ          -5.68658        -5.85253         1.64843
LJ           4.02913         4.61916       -0.884071
LJ           4.30159         2.08155        -5.78611
LJ          -4.56996        -1.97531        0.537815
LJ          -0.76529        -3.68592         -3.5715
LJ          -2.77264        -5.45892        -3.12613
LJ          -2.08451        0.378679        -1.73005
LJ           2.64382         3.96753         1.71434
LJ           6.22988       -0.902779         5.30765
LJ           4.92603        -4.63124        -3.21713
LJ           4.96147         4.89206         3.94548
LJ           4.18936        -2.11413         5.22377
LJ           4.67678        0.778595        -2.02768
LJ           -5.9146        -1.41781         6.43184
LJ          -4.07063         3.85887         2.57089
LJ          -2.05214         4.11723         4.99182
LJ          -1.17415       -0.726249        -2.31138
LJ          -4.59779        -4.66369        -5.73062
LJ          -1.30029         5.70314         1.71547
LJ          -5.88918         5.47133         5.30173
LJ          -6.17402        -2.19316         5.02061
LJ          -5.55403       -0.285675        -1.14168
LJ           -4.4945        -5.00964        -4.52101
LJ          -2.40019        -6.01048       -0.569252
