108
#Comment!
LJ          -1.47641       -0.695368         3.17564
LJ         -0.640679        -3.36284         4.21987
LJ           4.45805         2.63348        0.814377
LJ          -2.71116        0.381283        -3.96578
LJ          -4.91544       -0.564344         2.82508
LJ          -5.38105         2.14414         5.02067
LJ           3.58968         1.51579        -5.74656
LJ            -5.922        0.775317         1.87056
LJ             1.687         6.14927        -6.34456
LJ           -6.0062          1.8346         1.51805
LJ           4.40215         3.37458        -4.03627
LJ          -6.30632        -4.99952         4.64591
LJ           1.55967        -2.03438         5.00499
LJ           -5.9234         2.64736         3.67321
LJ         -0.467982      -0.0445182         5.53135
LJ          -5.13969        -6.28868        0.485753
LJ         -0.759812        -4.46491       -0.221058
LJ           4.51495         3.52252        -2.61882
LJ          -1.65019       -0.920564         4.73125
LJ          -5.71557       -0.714434        -4.61418
LJ          -2.62579          3.3703        -3.80475
LJ          -4.69042       -0.480294        -3.00329
LJ           2.07142        -5.38699        0.289515
LJ          -4.20197         -4.7635         1.12282
LJ          -4.08064        -5.10644        -5.44012
LJ           6.17248        -0.70852         5.82809
LJ           6.08178       -0.395666         -3.9048
LJ          -3.60538        -6.31358        -5.55507
LJ           3.54755         3.15688         5.87347
LJ           1.66695         3.09351         1.48549
LJ          -5.62188         1.96244        -3.44299
LJ         -0.144735         4.73929         5.60544
LJ           -6.0757         6.14846       -0.123543
LJ          -2.48768         1.20571        -1.32673
LJ          -4.11048         -6.3229         3.57246
LJ          -1.49551         1.56943         4.55659
LJ          -3.06856       -0.208052        -1.90123
LJ          0.510686         -0.7685        -1.13115
LJ          0.269595        -6.12676         -4.9886
LJ         -0.490547        0.583244        -3.23956
LJ           2.84932         4.06649        -5.97491
LJ          -5.21922        -5.57467         3.77119
LJ            1.5461        -3.13769          6.0053
LJ           -5.5948         4.70225         2.76365
LJ           3.09032         1.94313         1.43133
LJ           -4.4998        -5.12634        -4.14189
LJ           1.81166        -3.04711      -0.0323668
LJ          -3.33233       -0.268746         2.79303
LJ            4.8206         2.51761        -1.13028
LJ        -0.0115167        0.146493        -5.74365
LJ          -5.86293          2.3147        -4.42785
LJ           2.24302        0.432541         4.96054
LJ          -2.13665         3.66147        -5.24595
LJ          -4.83301       -0.982695         1.72708
LJ           5.35914       -0.472125       -0.159702
LJ          -3.69239         2.12474         6.12272
LJ         -0.900117         4.03163         4.10766
LJ          -5.44849        -6.40426        -4.72828
LJ           5.81346       -0.920847        0.803983
LJ           1.87479         6.00209         -5.4585
LJ          -1.41813         3.05113         2.48128
LJ           3.89853         1.41523        -4.22143
LJ          -2.72494        -4.87607         5.08012
LJ           1.90151         3.51848        -5.66298
LJ          -4.82688         2.99185        -2.58422
LJ          -6.07569         4.29039         1.36441
LJ          -4.98705         3.79273         6.19877
LJ          -6.41358          1.4512         3.37953
LJ          -2.17236          4.6839         3.94435
LJ          -4.49786        -4.60219        -2.02143
LJ           3.36954        0.318039         5.64823
LJ          0.423797        -2.76385       -0.147314
LJ          -5.76964        0.219831         4.88876
LJ           1.42568         1.13188       -0.118977
LJ           4.48802          1.7435          2.2668
LJ           1.71891       -0.094075         1.18567
LJ           2.93056        -4.72944       -0.472322
LJ          -5.65529        -3.65998          4.5786
LJ           3.14501         1.01158         3.25788
LJ         -0.568525        -6.16023         3.41586
LJ          -5.33917         2.72547        -1.70048
LJ          -2.12329        -5.59506        -1.41227
LJ         0.0396907       -0.922907         4.94358
LJ          -2.79488        -5.80458        -2.44037
LJ          -6.20748        -2.54278         2.88517
LJ         0.0473513        -4.44626        -4.21735
LJ          -3.08511        -3.92261        -4.56424
LJ           5.22063        -4.17045        -2.78956
LJ           1.77932        -4.90408         5.48597
LJ          -1.62489        -4.77191       -0.652619
LJ           2.78025         4.85732        -2.68701
LJ           1.00513         5.69517         6.02683
LJ           -3.9092        -5.59887          2.3126
LJ          0.417855        -5.23743        0.801169
LJ           2.64691        -1.40343        -2.91156
LJ          -6.37943         -3.7778        -5.11684
LJ           6.18828        -1.36388         -1.3609
LJ          -5.91416       -0.245001        -1.52251
LJ          -3.89404         3.33391        -5.03108
LJ           5.46128        -5.15713         4.58579
LJ          -2.21934         3.92673         5.41577
LJ            5.6411         4.32355        -5.18057
LJ          -5.62224        -3.49149        0.751589
LJ          -2.93631         5.77752         2.19448
LJ           6.37391       -0.531233         4.09429
LJ           1.08034        -2.00454         -3.8176
LJ           2.63981         6.06529         5.60003
LJ          0.215586       -0.900088          3.5251
