108
#Comment!
LJ          -4.23425        0.695474        -2.12053
LJ           3.08569        -4.51665         5.18611
LJ           -1.6895         -4.0728        -5.50629
LJ         -0.715906          -3.473         4.49457
LJ          -1.02996         3.95816        0.152212
LJ           4.30484         5.83257         -4.5474
LJ          -4.49899         4.74052         0.53748
LJ          -3.04317         3.03608         1.91941
LJ            1.6947         5.95117        -1.96118
LJ          -5.24822        -3.38757         2.24293
LJ          -1.79564         -2.7373         4.57554
LJ           5.16901         3.61722         3.38654
LJ          0.341768         1.54998         0.99132
LJ           -6.0602        -4.42276         3.05515
LJ          -5.28238        0.424267         1.81187
LJ         -0.485297        0.715215         3.51536
LJ          -4.37295         3.86473         5.86677
LJ         -0.917502        -0.51036        -1.19557
LJ          -6.13913        -3.66101        -4.24223
LJ          -1.30677         1.92743        -3.90304
LJ            2.8723        -1.95701        -1.07963
LJ           4.70493       -0.427731       -0.753419
LJ           4.99917         5.20425           -2.22
LJ           3.78714        -1.94704         4.79556
LJ          -6.16587        -4.60318        -1.73613
LJ          -5.17835        -3.82905        -4.91746
LJ           3.72425          3.4143         2.07448
LJ          -6.28583         4.45432         -3.6914
LJ            3.3669       -0.416743        -1.44977
LJ          -1.04833          2.3102         4.56485
LJ           4.32128         3.86407        -5.36014
LJ          -4.37135        -3.43107         2.90975
LJ           6.15647        -3.70634         2.75678
LJ          -5.38429        -4.58871         4.00327
LJ           3.34736         5.56943         3.08585
LJ          -5.27849        -2.05344       -0.138962
LJ          -1.85765        -3.13224         -4.1156
LJ           3.87221        -6.43085        -5.34063
LJ          -2.83774         3.13922       -0.861529
LJ           4.61364        -3.10704         1.51154
LJ          -3.36358        -0.10255        0.480345
LJ           2.19111        0.530268         1.55943
LJ            5.9575         4.13567       -0.911214
LJ           -4.9978        0.405753          3.8624
LJ           6.09985       -0.198924         5.98828
LJ          -2.49049        -6.27021          2.2481
LJ          -2.13145         6.05211         5.57741
LJ           2.68782         3.88905        -1.36346
LJ            6.2428        -4.13933         1.49556
LJ          -5.93704         0.84826         6.00242
LJ           5.52542         4.95406         2.77433
LJ           5.22249         5.12957         6.41133
LJ           1.50799         3.38253         5.05279
LJ          -1.36381         5.75347        -3.65817
LJ          -1.80111        -2.79944       -0.273867
LJ           4.17962        0.380844        -2.92298
LJ          -4.98072         5.36396        -2.01184
LJ           4.22262         5.04101        -5.83695
LJ           5.07382         5.50235        -5.23721
LJ           4.24401        -5.38459         1.56427
LJ          -1.50041        -6.27549         -1.9845
LJ          -2.44014        -5.82722        -5.04633
LJ          -1.76767         1.76661         5.54492
LJ           2.86719         6.36324        -5.27715
LJ          -6.01091         5.80352         2.32012
LJ          -1.77885        -3.11599        -1.57741
LJ           6.21366       0.0794426        -4.97742
LJ          -4.97575       -0.452342        0.413722
LJ           1.93423         2.02055         4.21624
LJ           3.46601         4.05321         2.84359
LJ          -1.00448        -1.81956       -0.657483
LJ          -2.63851        -6.30543         3.18326
LJ           4.12092        0.725465         3.72257
LJ          0.426017        -6.24193        -3.41816
LJ           4.86212         5.01868        0.234863
LJ          -3.02021        -1.84005        -5.95162
LJ           -4.9079      -0.0439604        -2.44396
LJ          -4.56076          -2.501        -4.46227
LJ          -4.30769        -2.93207        0.942398
LJ          -2.97875        -4.13405         4.95578
LJ            3.0238       -0.647565       -0.331133
LJ           4.83102        -2.08656         3.89929
LJ          -6.08621        0.125484         2.34334
LJ          -4.33855         5.25517         1.68538
LJ           1.64697        -3.10874        -3.10536
LJ          -2.92914         2.61852        -1.98278
LJ           2.09811         2.53155        -2.84138
LJ           5.61977        -2.87858         3.73376
LJ         0.0315557       -0.148262         4.42488
LJ           3.20132        -6.45426        0.574693
LJ           5.55404        -3.62493         -4.5744
LJ          -6.11414         3.45044        -2.67051
LJ           4.90537        -1.17134         5.24705
LJ            2.6171       -0.428541         2.29328
LJ         -0.313057         4.00586        -1.44655
LJ           4.87298        -2.47419        -4.35228
LJ         0.0923055          6.1899        -1.40475
LJ           2.45516        -5.17087        -3.08269
LJ          -2.61001        0.582896         1.88767
LJ          -4.47763         1.24835         4.48108
LJ         -0.644855        -3.64493         5.96699
LJ          -3.08004        -5.87002        -2.90715
LJ          -1.41142          1.5095         2.55724
LJ          -5.48909        -4.44348         1.06439
LJ          -6.32915        0.497641         3.68463
LJ           1.84144         2.57049         2.96696
LJ           3.45624         4.87403        -2.99227
LJ          -5.72103         3.57452         6.24276
