108
#Comment!
LJ           2.38344        -1.17561         2.83752
LJ           4.43246         1.77994        0.970635
LJ          -6.31858        -3.54267        -2.11022
LJ          -2.93551        -3.31906          5.6253
LJ           5.53353        -4.85446         5.61791
LJ           5.07829         -3.8021         3.62812
LJ           2.28297        -1.64149      -0.0719964
LJ           4.91226        -6.02195        0.303637
LJ          -1.83842         4.42849         3.47888
LJ         -0.136762        -1.12524          -3.909
LJ          -4.62281         5.08882         4.13066
LJ          -6.37365        0.825304        -2.52264
LJ          -5.55732         1.46993          1.0872
LJ           4.58942         2.88893         5.94935
LJ            2.0739       -0.569219       -0.385851
LJ          -4.28094        -5.80038         4.55674
LJ          -6.22258        -4.35319         1.82938
LJ           3.30591        -5.95817        -1.71079
LJ          -2.22234         4.03537        -1.54228
LJ           4.42933         2.01536        -1.80447
LJ           3.19236       -0.438847         3.37913
LJ         -0.585292        -6.46277        -1.35025
LJ          -6.34857       -0.595639         3.90595
LJ          -2.39254         1.07924         2.97177
LJ          -2.91605         4.24922       -0.261025
LJ           3.76617        -3.91303         5.90768
LJ          -2.86883         3.15662       -0.337604
LJ          -2.53225         2.36188         2.22763
LJ           1.22803         2.93005         5.24862
LJ          -2.83305        -1.70692         4.08561
LJ           4.67729         -1.9887         5.89756
LJ           5.25539         -5.0187          2.2045
LJ           1.49972        -3.14718         6.08346
LJ         -0.421127        -1.23696         2.57151
LJ          -2.56388         4.94091         5.25134
LJ          -5.07043        -6.24057         3.95222
LJ          -4.40939         1.39435          2.6961
LJ          -2.57473         1.19198         1.53999
LJ           2.44264       0.0569666         4.40058
LJ           1.91989       -0.613801         1.94708
LJ           4.89625         3.49226       -0.740992
LJ          0.101421        -3.89213        -1.96793
LJ           1.36161         -1.7585         4.78849
LJ         -0.282186       0.0135148          -1.808
LJ          -4.84472        -1.25396          1.9517
LJ          -3.54428        -5.10065          1.9968
LJ           -4.4264          4.9124        -3.68955
LJ          -5.82088        -2.13451         2.24914
LJ        -0.0654038       -0.530408         1.04208
LJ            1.0119        -3.78347        -3.38405
LJ           3.41288         1.88145        -5.36489
LJ         -0.715184         1.99473        0.165616
LJ           5.22742        -1.64439         1.47485
LJ           4.64977       0.0859474       -0.744256
LJ          -6.45961         2.87724       -0.968404
LJ           6.37254         5.03723        -6.21442
LJ          -3.00824         -3.5172        -3.06818
LJ           5.93316         3.31322         4.61685
LJ           4.40036       -0.862366         6.39887
LJ          -3.00193        -6.14805        0.814411
LJ          -4.25763          3.1177       -0.611157
LJ          -3.33933         1.76203         2.58375
LJ          -3.15612        0.421753         2.45662
LJ          -4.26373        -5.65333         3.05932
LJ          -3.10579        -4.62435         6.25781
LJ          -3.03581        -2.66298         4.80402
LJ          -4.15716         5.29935         2.59791
LJ         -0.831862         1.35226         -2.3704
LJ          0.722834         1.78707         5.20392
LJ          0.505746       -0.215959        -4.76507
LJ           5.30738        0.150416         2.26565
LJ            5.0285        -2.86871         2.31871
LJ           5.09507        -1.40849         -5.9611
LJ           3.13934         6.10297         3.35814
LJ            3.1929         3.05872        -2.68812
LJ          0.808197         2.42779           3.446
LJ           0.33937         1.41587        -3.87748
LJ          -6.09699        -1.33571           1.229
LJ         -0.396319        -6.34344        -3.27244
LJ          -3.59499        0.977871         4.35616
LJ           -2.2104        -3.06193         -1.1448
LJ           1.00874        -3.86232         2.15921
LJ          -6.14731        -3.70531       -0.457063
LJ           -3.5505         1.36763         1.69464
LJ          -4.55721         0.43589         3.73558
LJ         -0.174381        -0.30435         4.58758
LJ          -0.75316       -0.258195         2.91265
LJ         -0.614239        -3.29333         2.57311
LJ          -2.74717        -1.71718        -2.94139
LJ           2.92336        -2.32352         2.58035
LJ           2.04103         1.43464         4.49552
LJ         -0.272902         0.10035        -2.89408
LJ           3.63594         1.91487         6.26349
LJ           -5.5714          5.7624        -4.26221
LJ          -5.60637        -4.69429        -5.79897
LJ          0.571951        0.653336         1.16094
LJ            3.0373        0.114501        -3.57213
LJ           1.18677         -5.7327         5.82209
LJ          -5.46372      -0.0690833         4.18794
LJ          -6.39492        -1.43275         -2.6674
LJ           1.34423         2.10146        -0.89537
LJ          -5.84347         4.59147        -4.26103
LJ           1.72518         3.34516         2.61662
LJ          -1.47122        -6.40434        -3.82807
LJ          -1.25919         1.52002        -4.27719
LJ          0.893914         4.70161        -1.61109
LJ            2.1334        0.482176        -2.27159
LJ           4.07958        -2.02201        0.617359
