108
#Comment!
LJ           4.03515         5.43595         4.16229
LJ          -5.27421         3.46399         3.15416
LJ          0.886268        0.448335        -2.33726
LJ          -3.12378        -5.30183       -0.815228
LJ            1.6011          5.3308        -4.22134
LJ          -2.73483       -0.224023        -5.54454
LJ          -1.69118        -4.88469        -1.43299
LJ          -0.95953        -5.41474        -6.31503
LJ            1.9257        -6.19704          6.2558
LJ         -0.611429        -1.97232         4.94813
LJ           4.66399       -0.937754         4.80386
LJ          -5.99864         5.48564         4.05515
LJ           3.82993        0.717175         1.81864
LJ           6.30098        -4.98797        -2.40754
LJ          -5.04178         1.40379       -0.649677
LJ           2.93029         5.10234         1.87059
LJ          -4.31413         2.42587         2.89481
LJ           6.39825         1.04498       -0.429706
LJ          -4.47049        -4.80597        -6.16301
LJ          -1.95176        -1.45212        -4.50378
LJ          -1.06532       -0.411937          4.1314
LJ           5.00961        -3.43307         2.33102
LJ           2.43902         6.42754        0.710981
LJ          -3.70335         2.04021        -4.95353
LJ          -1.82576        0.597144       -0.850747
LJ           4.60022        -3.64865        0.600733
LJ          -4.96211         6.44871         6.12083
LJ           1.12017         5.06021       -0.852957
LJ           4.78619         3.39942        -3.66304
LJ           2.07004        -6.14612        -3.62456
LJ           5.73965        -1.44574          4.2542
LJ           5.51921         4.97727        0.337937
LJ          -3.33978         -5.6853        -3.77474
LJ          -1.59197        -4.58949        -3.01654
LJ          -1.92867         6.17093         -4.7855
LJ          -6.24422        -4.19461        -3.00688
LJ           3.47319        -5.68334          1.8062
LJ           -0.5252        0.565213        0.789515
LJ        -0.0512141         5.64842       -0.603066
LJ          -5.54823        -3.91663         1.79005
LJ           -6.3126        0.647216        -1.72754
LJ          -3.95293        -1.11871         0.66283
LJ           -5.3584         3.40185         4.42296
LJ           0.66924         1.82031      -0.0087465
LJ           -5.1246         5.70388        0.717509
LJ          -3.37432        -2.02408        -2.49555
LJ          -2.78941        -2.19097          1.7977
LJ         -0.592549        -6.35144       -0.516943
LJ          -1.05341         6.27801         5.40011
LJ         -0.123328        -1.78125        -2.01191
LJ          0.641753         3.93318         -3.0304
LJ          -3.55821         6.20436          2.0825
LJ           5.93703        -5.54096         3.89012
LJ           1.20048         -5.4141         4.39794
LJ          -3.72415        0.844567         6.09569
LJ           3.24415        -1.55116         2.20046
LJ          0.376455        -1.79525      -0.0895164
LJ          -6.16079        -2.94096         5.35518
LJ           3.35401        -2.49502        -2.85395
LJ          -3.78507       -0.043702        0.936585
LJ           3.16061          6.2635         5.92345
LJ           4.05097        -3.21527        -4.49458
LJ         0.0177926        -3.78161        -2.72858
LJ        -0.0549664         4.70731        -3.14345
LJ         -0.152041         3.58663        -6.04272
LJ           0.53116         -2.2476          4.8954
LJ           2.36272         2.42227         3.80902
LJ          -1.01424         3.41757        -5.52054
LJ          -5.29934         2.25519        -2.16514
LJ           5.75733         1.83428         1.17607
LJ          -4.09718         6.04441      -0.0450809
LJ           5.23705          -5.854         2.23318
LJ           1.39344         5.80532         2.34218
LJ            5.0072        -1.96513        -5.22066
LJ         -0.724373        -4.24673         6.12782
LJ           -4.1627        -1.77757        -6.38244
LJ          0.721634        -6.09286         3.24858
LJ          -1.29984        -1.81778        -1.58981
LJ         -0.977421        -4.87844         4.30682
LJ          -2.30408        -3.76059         4.09243
LJ           6.38198      -0.0179294         4.66018
LJ         -0.217049          -1.406         3.95698
LJ           4.05742         3.41709         1.69035
LJ          -3.47199        -3.61834         5.85156
LJ            5.3656        0.578325         2.12581
LJ           2.57823        -4.79812       -0.458473
LJ          -3.42365         5.97435        0.875964
LJ          -4.99777        0.243938       -0.217278
LJ          -1.14416        -2.62547        -6.18295
LJ           4.04451         2.77706        -4.97552
LJ          -1.13764        -4.66689       -0.161118
LJ           4.95538        -3.03879          5.8056
LJ          -1.22259         5.26202        -6.01463
LJ           2.04186        -5.68681        -5.56695
LJ           3.77074        -1.23563         3.34756
LJ           4.92454        -6.16262         3.32022
LJ          -3.40951        -1.40173         1.87597
LJ          -1.23061         2.93877          3.1845
LJ           2.70861        -5.15073         4.89983
LJ          0.427465         5.33328        -5.41015
LJ          -1.60772        -2.28542         -2.9758
LJ           -6.3491        -3.24716         6.36728
LJ          -3.62939          3.9958        -1.94094
LJ           4.37255        -5.76872        0.568166
LJ          -4.93596         3.26711        -3.35624
LJ           2.36598         3.32428      -0.0953322
LJ           1.53211        -2.69288        -4.13281
LJ          -5.00817        -0.89381        -4.64354
