108
#Comment!
LJ           4.59557        -1.03942        -3.35306
LJ           1.31635        -4.86684        -4.93814
LJ           3.93211        -6.41678        -2.64392
LJ           6.22296        -2.69485         2.92095
LJ           -1.9844        -2.01753        -5.81452
LJ          -3.48231        -4.36396        -4.84615
LJ           1.38759        -4.22961         5.55975
LJ            6.3145        -4.36444        -5.38841
LJ          -3.70243        -3.24666         2.52846
LJ          -5.85364         4.80266          1.3878
LJ          0.643915        -3.70532        -1.95897
LJ           4.87454         4.16492         5.81257
LJ          0.230839         6.12753         1.00255
LJ           4.66849        -4.33383         3.48312
LJ          -5.21133         2.58663         6.08489
LJ           2.63425         3.72742        -6.24554
LJ           5.40978      -0.0290451        -1.43983
LJ           5.70161         5.79316        -3.77163
LJ          -4.60191         5.71536         3.98911
LJ          -3.37657         5.89244        -5.47135
LJ           4.67325        -5.12432        -3.71991
LJ          -1.54381         5.00592        -0.10118
LJ          -5.86526       -0.689935         2.20607
LJ          -2.43644        -1.41769         4.57329
LJ         0.0907246        -4.43474         -1.2752
LJ          -3.43938         2.05191        0.341616
LJ           2.85838        0.261424        0.671215
LJ           5.24737        -4.85003        0.417043
LJ           3.55751       -0.149339        -2.86834
LJ          -6.04355          3.1044        0.461531
LJ          0.187453         1.70068        -2.86507
LJ           5.41587         -2.7387        -2.30042
LJ           6.30933         2.07546        -3.38364
LJ           5.83348        -1.49241        -2.40853
LJ           2.33262         3.77282         0.61874
LJ           5.39533        -4.64807        -1.79018
LJ           1.63751        -1.13062         1.48678
LJ          -5.49286        0.222567         2.97511
LJ           3.86154         5.95857         2.94245
LJ          0.414909        -1.14922         1.73767
LJ          -6.15991        -5.39236         -5.9331
LJ          -2.37727        -2.47226         3.40661
LJ           2.25861         3.81055         1.59125
LJ          -2.13332         1.31546       -0.515119
LJ          -2.73156        0.514556        -4.31138
LJ           5.02533        -6.36297        -0.89721
LJ          -4.61344         2.42384         4.91317
LJ           5.58929        -5.46676        -4.14858
LJ           3.07346         6.39804        -4.87445
LJ           6.06015        -3.73399          5.1585
LJ          -2.03608         3.72424       -0.220539
LJ          -2.37851        -2.39595         1.37775
LJ          0.166217         -2.7503        -4.17412
LJ           6.39064        -2.43248        -2.28395
LJ         -0.697789         1.17725        0.525034
LJ          0.366765         4.97636         4.07189
LJ          -1.33836         3.94497        -2.45858
LJ           4.17013         3.02879           4.098
LJ           2.09993         6.25377         3.14394
LJ           0.66193        -4.75453         4.98672
LJ          -3.62722          4.5923        -1.12274
LJ          -6.38147        -6.32121        0.986551
LJ          -4.66062        -5.50541        -3.78999
LJ           1.37381        0.231919         1.76532
LJ           2.73771        -2.65073          -3.379
LJ          -1.36917         5.54102         1.54158
LJ          -2.01916        -4.80315        -3.63015
LJ           2.85834         1.91865       -0.121895
LJ           2.55987         2.72657         5.83427
LJ           4.05906        -1.23565        -1.98104
LJ           6.42155       0.0332667        -3.85068
LJ           2.70815         1.12975        -6.13226
LJ           4.19697         -4.5745         2.66437
LJ          -3.83179        -2.07962          1.4271
LJ          -2.91413        -5.67611          3.3767
LJ          -5.97678         3.15087        -2.45874
LJ            3.7298         1.37873       -0.915654
LJ           5.51598          3.5801          -2.879
LJ           1.64321        -2.65355         2.84017
LJ           2.83151       -0.268595        -6.37459
LJ          -4.29714       -0.296903         2.13997
LJ           5.40732        -1.80413         2.80027
LJ             5.109        -5.62082          5.8361
LJ           5.39483         3.13754         5.43489
LJ          -6.23975         3.21911        -4.02236
LJ          0.416772        -4.67485         2.76906
LJ           5.58664       -0.726145         4.12743
LJ           -6.0091         6.44743        -6.44893
LJ          -1.95671        0.966269         6.15091
LJ       -0.00350289         2.85629        -2.39386
LJ           5.71155         4.04311       -0.494076
LJ         -0.100178         3.21773         5.50765
LJ          -3.53028         2.03904         -2.6395
LJ          0.192042          6.2331         -1.1393
LJ         -0.634159         1.15929         6.01081
LJ          -3.31049        -6.10456        -2.37003
LJ          -2.30026         6.14213        -1.90934
LJ          -0.14209        -5.97912        -5.08519
LJ           1.77099         2.61583         0.68065
LJ          -1.70835         6.17347        0.359406
LJ           5.36868       -0.790326        -5.35706
LJ           4.22936        -2.76774         6.02616
LJ           3.37517         2.57949         3.09184
LJ          -1.24806        -1.92128       -0.456126
LJ           3.02453         3.00756         1.72168
LJ         -0.484493        -6.22264         1.48509
LJ           1.16259       0.0203347         5.45603
LJ          -5.30213         3.60372        -5.91496
