108
#Comment!
LJ            4.8689         4.66552         4.51627
LJ           3.50181         3.76148         1.62387
LJ           -4.6052         1.90274         2.76207
LJ          -1.59856        -1.54414       -0.912568
LJ           5.36351        -1.13621        -3.49077
LJ          -3.27257         5.02816        -5.63268
LJ          -5.58909        -5.41089         -1.9883
LJ           2.73594        -4.78391         4.22912
LJ          -2.66186         3.03659         1.51191
LJ           3.90895         2.41568        0.799493
LJ           5.70172       -0.438979        -4.21805
LJ           2.18544         -0.7702        -3.53546
LJ         -0.265124        -4.12586        -1.85303
LJ          -2.00512       -0.264102        -6.23194
LJ           4.96921        -2.09501         1.14929
LJ          -5.51334         -2.8716        -1.63843
LJ          -4.76171         2.91068         -2.8484
LJ           6.41748         -2.5305        -3.45031
LJ          -6.27596         4.45246        -4.90249
LJ           -2.6214         1.81861         5.36705
LJ          -2.33592         5.96628        -5.43963
LJ          0.612743         1.68733        -5.50274
LJ          -4.22577        -3.03915         2.13322
LJ          -1.24788         2.11256       -0.446813
LJ           1.82937        0.914843        -3.41574
LJ           5.96548        -3.61401        -1.64538
LJ          -6.44031        0.139547         5.78141
LJ          -1.25894         5.09925        -3.21276
LJ         0.0261862         6.28033        -1.26963
LJ           5.88871         2.38888        -3.49323
LJ           1.16789         4.03638         -1.9093
LJ          -1.59462         2.25852         3.77576
LJ           -5.2451      -0.0653517         -6.3444
LJ          0.679049         5.72493         4.67899
LJ         -0.390414         1.31063         1.72611
LJ          0.401765         2.61293         3.97519
LJ           2.18362        -1.87746         -4.8892
LJ          -2.08616          5.5833          2.1679
LJ           1.85342       -0.717798      -0.0276715
LJ           3.64398        -6.32854        -1.66261
LJ           4.31648        -5.50472       -0.805521
LJ          -1.35245          4.9484       -0.238129
LJ          -6.14242         1.28474         3.73239
LJ           -2.3037         4.84923         4.09733
LJ           4.86179         3.21539         6.27615
LJ          -4.49004       -0.917678        -1.62715
LJ           1.74722         6.00058         5.99393
LJ           4.02449          4.9784         3.49046
LJ         -0.121102         3.37244         3.42951
LJ           5.15882        0.537068         4.32795
LJ          0.603231        -5.56079         4.34374
LJ           6.43545         5.01349         2.09301
LJ          -4.50417        -4.84141        -5.64085
LJ          -5.44147         2.09759         6.39597
LJ            5.2572        -5.90406         5.17305
LJ          0.490733         4.70948          3.9167
LJ           3.78574        -6.05986         3.94475
LJ          -3.92952          5.9322        -0.49361
LJ           3.58715         1.49819        -3.56363
LJ          -3.34565         2.45519        -4.96414
LJ          -2.06555        -6.36875         2.18944
LJ            2.8613        -2.03406         4.04243
LJ           1.02989         -5.7479        -5.30118
LJ            1.8825         3.93531        -3.81569
LJ           -2.6379        -2.06043       -0.426526
LJ          0.423881        -2.70061        0.389093
LJ          0.296859         2.73203         5.31434
LJ          -4.01521        -5.82762        -1.82167
LJ           4.92703         2.23134        -2.87876
LJ          0.279161         3.99282         2.66515
LJ          -4.28919         1.28014        -4.45705
LJ          -2.40159        -2.93184         2.05576
LJ          -1.95486       -0.491973        0.467939
LJ           4.93542        -5.35009        -1.48713
LJ          -3.77169         6.06369         2.10525
LJ           6.02843        -6.33035         1.02001
LJ          -3.62212        -3.56608        -3.87382
LJ         -0.900135        -4.91447        -0.65756
LJ           5.81012        -3.69764        -4.62498
LJ          -5.22941          3.3363         2.20609
LJ          0.801243         4.89779         1.67809
LJ           2.81808         3.99849        -3.16738
LJ          -6.44009         1.35298         5.65097
LJ           4.55475         1.29411          5.3697
LJ          -6.16122        -5.26451         1.25864
LJ           3.83629         5.65739       -0.488383
LJ           5.28766         1.75698        -5.49879
LJ          -3.96615        -1.42896         1.07021
LJ         -0.882368        -3.85669        -4.22548
LJ          -5.20291        -4.87307        -2.90183
LJ          -3.74702        0.194687       -0.800173
LJ           1.98216         3.61259         2.14333
LJ          -5.53076       -0.721961         5.58944
LJ           4.10086        -3.40229        -2.02714
LJ           5.75544         4.38045          3.8302
LJ           5.73431        -3.00569         5.97561
LJ           5.55322         0.90337       -0.951502
LJ          -6.18952      -0.0103407        -5.52677
LJ          -3.44355         5.06502         2.04543
LJ          -2.44507         4.28873        -5.74862
LJ          -2.65993       -0.491862        -1.41152
LJ           6.41449         -3.6353         5.83332
LJ         -0.189259         5.57233       -0.427777
LJ          -5.35059        -6.17368        -6.28425
LJ           5.34526        -1.63022          3.6135
LJ           -5.8904         1.11808        -2.49851
LJ          -4.96334        -3.97076         -3.6859
LJ          -1.03516         6.37372        -1.90207
