108
#Comment!
LJ          -3.42193        -1.19895       -0.758993
LJ         -0.711512        -3.94029         4.39115
LJ           3.71689        -1.82981        -1.94191
LJ           1.56473        -6.24111         1.08853
LJ          -6.40921       -0.681771         5.29693
LJ           3.42344        -5.50519        0.299952
LJ          -1.94606        -2.85765        -6.24007
LJ          -1.65241         1.46586         2.42872
LJ           4.82558         2.92991         5.49839
LJ           6.19971        -3.71517        -2.59403
LJ          -6.04213         -6.4135         5.88095
LJ           4.82142        -1.94824        -1.75331
LJ           2.59174        -6.30551        -2.43743
LJ          -2.00397        -3.21366         4.29265
LJ           3.78333       -0.178033         -2.7704
LJ         -0.242906       -0.856864         2.22384
LJ           5.85398         -4.6571          1.7591
LJ           2.24143       -0.931811        -6.28738
LJ          -1.24901       -0.515559       -0.985535
LJ           5.25481         1.08754         1.36311
LJ           5.50618        -4.08226         0.61159
LJ          -3.85096         2.49034        -2.76292
LJ           4.62926         3.69103        -5.80523
LJ          -1.98143        -1.65742         1.54965
LJ          -4.03731        -2.83188        -6.38534
LJ          -3.26682         4.46452        0.483314
LJ           2.82182        -4.26586         4.64784
LJ           4.33092         -2.6266         6.36855
LJ         -0.398858        -3.16479        -2.90028
LJ              5.91        -3.36949          2.3863
LJ          -1.73747        -1.62028       -0.940869
LJ          -3.07599        -2.14783       -0.688873
LJ          -3.86293          2.8257        -3.61972
LJ          -3.14564         4.86482         -5.8409
LJ         0.0238311         -2.9351         4.59333
LJ          -1.87561        -5.89148       -0.820279
LJ          -3.78859          3.3862         4.60307
LJ           4.65324         5.39852        -2.24535
LJ          -1.08031        -4.92187        -4.52136
LJ          -1.56858        -3.15266        -2.92636
LJ          -2.43578        -2.02034         2.58609
LJ           4.29076        -3.97125        -1.90162
LJ             5.238         -6.2974         3.23984
LJ           5.38556         6.03782         2.26995
LJ          0.144949         3.36318       0.0530645
LJ          -3.03275       -0.710431        -5.24772
LJ          0.837436           5.951        0.266428
LJ          -3.80524         4.07757        -1.73312
LJ          -2.62675        -2.39934         1.48363
LJ           2.57732         1.42953        -4.55379
LJ           1.66374          3.4881        -4.23373
LJ          -3.72969        0.917389         2.90439
LJ            -2.545        -0.82589        0.180555
LJ          -5.05897       -0.863157        -5.57248
LJ           5.46215         3.43802        -5.21905
LJ           4.63868       -0.375403         -3.9152
LJ          -2.16803         4.71277         1.29114
LJ           1.95159         4.47859        0.409377
LJ           4.62633        -1.32258         2.59975
LJ          -3.25469         2.04785         4.02971
LJ          -4.82313         3.17094        -1.56662
LJ          -1.68787         4.32157         -5.6377
LJ          -2.63527        -5.34995         3.95841
LJ           6.14203       -0.927766         1.25098
LJ         -0.987918        0.817705         2.71547
LJ            1.9497        -2.08738        -1.08466
LJ           2.91934        -5.26786         4.06215
LJ          -4.01243        -3.88176         2.72192
LJ        -0.0608824        -3.29397        -4.63837
LJ          -6.24204        -2.98238        -4.96013
LJ          0.816867        -2.97929         2.51562
LJ           -4.7279           1.962       -0.624164
LJ           3.52476         3.87024        -2.41981
LJ           6.21414        -5.80129        -4.59595
LJ           4.97659        -4.76432         2.44089
LJ           1.30163        -1.22016        -4.64366
LJ          -4.85133       -0.721289        -1.10194
LJ           5.78277         5.35029         2.93839
LJ          -4.69361         2.23314        -2.23502
LJ           3.78101        -3.76664         3.75975
LJ          -3.44999         2.43648        -4.92618
LJ           6.10587         3.72342        0.449009
LJ          0.103479        -4.47734         1.08805
LJ           1.04907        -4.37868        0.617816
LJ          -4.95798         5.54026        -6.08464
LJ           2.19819          -2.421         5.55392
LJ          -6.37079        -2.80582        -2.05483
LJ           5.81791       -0.301167         6.01899
LJ           5.87295         2.47004        -3.72392
LJ           1.99927         -5.1442        0.360659
LJ          -2.98082         1.05147         1.95206
LJ          -5.21555         4.46244        -6.01231
LJ          -1.51486      -0.0644903        -2.27894
LJ         -0.670275        -5.17398       -0.950925
LJ           5.97812        -3.96967        -1.65478
LJ          -5.17982        0.661372         5.59705
LJ          -2.11875         2.62486        -3.39839
LJ          -4.19941       -0.897978        0.527296
LJ           2.75029         2.32783       -0.144026
LJ          -3.52506        -1.20783         -3.9332
LJ            1.4354        -2.33042          6.2176
LJ           -1.7574         2.98572        -5.61379
LJ           3.22364        -1.46375        -4.04833
LJ          -1.23463         -1.7056          2.8566
LJ           4.79246        -1.60921       -0.169654
LJ           5.04569         2.35739        -4.57038
LJ          -2.30332        -4.06087         6.36035
LJ          -6.34644        -3.36126        -1.12563
