108
#Comment!
LJ          -4.27529        -4.62548        -5.69386
LJ           4.20583        0.154362        -4.09174
LJ           1.00709        -2.66068         -2.2676
LJ           -0.6212        -4.64786        -5.31856
LJ           4.93548        -3.45027        -1.69509
LJ           1.13434         2.93426         1.77536
LJ          0.770081          1.4752        0.414897
LJ          -5.56321         6.07709       -0.549192
LJ            2.1924         -2.1002        -4.56544
LJ         -0.954072        -1.02048        -1.25078
LJ          -6.29244         3.73971         4.83127
LJ          -6.30574         6.41755         3.66269
LJ           3.30049       -0.389845       -0.434486
LJ           5.47776         5.62858         2.94722
LJ          -4.26728        0.476029         4.62268
LJ          -2.04849          2.9265          4.9121
LJ            2.0429          2.2083        -3.52094
LJ         -0.133648        0.462453       -0.194758
LJ           6.15813          4.4401        -3.49996
LJ         -0.422074         1.26896        -0.63083
LJ          -6.13346        0.248879         6.26129
LJ           2.66304       -0.011899        -2.72144
LJ          -6.05961         3.14174         3.48252
LJ           2.02584       -0.615259        -5.82461
LJ          -5.27771        -3.98287         5.38276
LJ           1.73035       -0.867654         1.40423
LJ           4.45271         2.97059        -0.31336
LJ           5.17158         3.83552        -3.58763
LJ           -3.2157        -4.63108        -4.50296
LJ           1.23235         3.24318         4.03919
LJ          -5.30105        -5.24001         1.90884
LJ          -4.82028         5.47632         1.41253
LJ           5.82022         -4.2358        -5.22565
LJ            6.2551        -1.92777         4.38156
LJ           3.54077        -3.94303         1.43903
LJ           1.62286        -3.60446         4.39852
LJ           5.09971         3.16594        -5.45226
LJ           2.31695         2.96557         2.49901
LJ          -1.33852          5.1338        -3.14686
LJ           5.99372        -2.72298        -1.80437
LJ           1.29271         3.87428         3.05147
LJ          -1.65718        -4.40958        -3.06927
LJ         -0.411609         3.07795        0.767068
LJ           2.23201        -2.33581        -2.49756
LJ           5.94758        0.706855        -1.79505
LJ           2.78565        -4.93892         1.66579
LJ            -4.795         0.17313         6.20334
LJ           4.73673        -2.95416       -0.242893
LJ          -3.75148       -0.225621       -0.160822
LJ           5.01428         2.38101          6.3517
LJ           5.69366         1.71922          1.6912
LJ           0.50405        -3.45157         5.60686
LJ           2.58281         1.47094         -1.8824
LJ           5.81494        -3.38297         -3.2056
LJ          -4.02015        0.496849         3.25768
LJ          -2.63322        -2.32057       -0.597913
LJ          0.378026         5.28857         3.22455
LJ           0.91374        0.612255         1.15126
LJ           1.69182         4.26988         5.02418
LJ          -2.60449        -4.86468        -1.95703
LJ          0.330156         1.97658        -4.29489
LJ          -1.12283         2.90331        -2.13079
LJ          0.542813        -2.23568       -0.642488
LJ          -1.83022        -1.03242        0.632467
LJ          -1.02818        -3.73035         5.11049
LJ          -4.11983         3.56293       -0.845765
LJ          -4.51418        -2.47853       -0.924321
LJ          -4.01908         1.39982        -1.99921
LJ           -5.0077      0.00110366       -0.850204
LJ          -3.75128         2.20064         3.00588
LJ          -5.17776        -3.10686         4.93179
LJ           4.57833        -4.95308        0.205698
LJ           2.06081         5.30758         1.11033
LJ          -2.52664        -6.43269        -5.72003
LJ          0.810845         4.84148       -0.156792
LJ          -2.14007        -4.35583        -4.30537
LJ          -2.20676        -2.98346        -4.26043
LJ          -5.84062         1.47345         5.57783
LJ           3.48901        -2.16507         3.06244
LJ           1.40369        -6.09166         5.60379
LJ           5.76321         4.46549        0.487908
LJ          -3.37803        -5.56857        0.761663
LJ         -0.669147        0.660647        -1.72853
LJ           5.54609        -1.31021         4.88948
LJ          -3.13905        -3.13768         1.71399
LJ          -3.81419       -0.185855        -3.89484
LJ          -3.81432         2.63149        -1.68957
LJ            1.0808         5.29889        0.691999
LJ           0.44541         4.01851        -1.93875
LJ           5.74752        -4.80598         1.61949
LJ           -1.4967        -5.68058        -3.27497
LJ          -4.87976       -0.794618       0.0885882
LJ           1.43562         5.79173        -5.63805
LJ          -6.05543        -3.62964         1.25292
LJ          -4.69447        -3.88616        -5.12615
LJ          -4.15201         4.81325         6.15892
LJ           4.73287         2.32768        -4.70845
LJ           1.25933        -6.24935         -5.0473
LJ          -4.90801       0.0243241        -2.08832
LJ           3.56146         1.70293        -5.23106
LJ           -3.0831        -3.06989         3.84121
LJ           4.58584        -5.26087          4.0875
LJ         -0.533263         1.04733         4.20677
LJ           4.23341         6.40744         5.83842
LJ           5.65183        0.123494         2.47537
LJ            6.0303         2.76176         4.38808
LJ          -4.27125        -3.03126        -2.88097
LJ           4.78357         5.14875        -3.71982
