108
#Comment!
LJ           5.77108         5.20665         4.44888
LJ           2.36194         4.02395         1.49522
LJ          -3.93592         2.99547         2.47978
LJ         -0.546258       0.0869245       -0.898368
LJ           5.84352        0.664377        -3.46243
LJ          -3.72029          5.4804        -5.22893
LJ          -5.95288         6.09339        -3.43591
LJ           1.64662        -4.86126         2.19243
LJ          -2.29832         1.46904         1.53211
LJ           5.15297          2.1769       -0.343008
LJ          -5.63089        0.760961        -4.43345
LJ            3.6257       -0.315474        -2.94367
LJ           -1.0878        -5.56932       -0.810984
LJ          -2.37628        0.367484         5.38249
LJ           5.08646       -0.613653         1.26383
LJ           6.40792        -2.84976        -2.13631
LJ          -5.86298         1.72854        -3.04413
LJ           5.80132        -2.96888        -2.89528
LJ           5.90558        -6.29292         -3.9712
LJ          -2.68333          2.0572         5.31361
LJ            -2.182         5.94428         5.65334
LJ          0.810383         2.02789         4.93829
LJ          -3.81541        -3.13885         3.08037
LJ          0.834946         1.35297        0.346046
LJ          0.322876        0.854719        -4.86976
LJ          -6.14829        -3.95965          -1.835
LJ          -4.83046       -0.460419         5.57103
LJ           1.94998         5.42096        -3.28451
LJ          0.369879        -4.91083         -2.2771
LJ           5.25192         2.68834        -3.02297
LJ        -0.0309694         4.08132        -1.50956
LJ          -1.48794        0.705974        0.460127
LJ          -5.23636         0.22634        -5.54544
LJ         -0.635842          4.5936         5.28056
LJ         -0.266914        0.147403         2.30217
LJ          -1.05115         1.74763         3.71039
LJ           1.38156        -3.47711        -4.80757
LJ          -2.46071         4.64027         2.83086
LJ           2.20536       -0.550239        -1.42271
LJ            5.2677        -6.41547        -0.82671
LJ           3.95246        -5.47277       -0.711068
LJ           -1.9156         5.51926       -0.322611
LJ           6.16744         2.71544         4.85173
LJ          -2.26451         4.78461         4.39562
LJ           3.68591         1.63602         5.34811
LJ          -2.68871        -1.51179        -2.76998
LJ         -0.357538         -5.2598         5.21327
LJ           5.38766         4.31172         3.32262
LJ           0.19273         3.91382         3.21422
LJ          -6.16198         2.70736         2.58794
LJ           2.13682         -5.6512         5.60629
LJ          -4.38076         3.59827         3.11941
LJ          -3.83013        -2.57297         -5.3592
LJ          -5.16112         2.25527         -5.1502
LJ           3.73025         4.75684          5.8907
LJ         -0.114117         4.46901         4.32807
LJ           2.85521        -5.72632         4.57212
LJ          -2.62105         6.13654       -0.654546
LJ           4.54415         1.91412        -3.58702
LJ          -1.35701         5.52401         5.30116
LJ          -3.01021        -4.69575         2.92895
LJ           3.36051        -1.89185         2.78851
LJ         -0.688023         6.42477        -4.27293
LJ          0.613139         3.03739        -3.37854
LJ          -1.55696       -0.871266        -1.35588
LJ          -1.93149        -2.51238         0.54277
LJ        -0.0821585         1.72184         4.36871
LJ          -3.46299        -6.46218        -1.37274
LJ           5.03099         1.22272        -2.55657
LJ           1.03781         4.68802         2.88826
LJ          -1.68449         1.15117        -2.50233
LJ          -3.29006        -1.21321          1.9548
LJ          -2.15726       0.0905759         -1.7266
LJ           5.87507        -5.68641        -3.19936
LJ          -5.28758         6.38605         1.28467
LJ          -6.35644         5.09628        0.429632
LJ          -5.80144        -3.14464        -5.37061
LJ         -0.870913        -4.31927        0.143021
LJ           5.08551         -4.8093        -3.60264
LJ          -3.44752         5.31788         2.02665
LJ           1.56587         3.37257         1.31364
LJ           5.11242         4.19773        -3.97978
LJ          -5.37057         2.25374         4.25118
LJ           4.43459       -0.108294        -5.94579
LJ            5.8141        -5.02406        0.759893
LJ           3.38916        -6.39694        0.271049
LJ           5.78293         1.85862        -5.24981
LJ          -3.48339       -0.349389          1.4581
LJ           -1.0081        -4.03639        -4.82512
LJ           5.30094        -4.07493        -2.70345
LJ          -5.58203       0.0264103         0.16221
LJ           2.29594         3.05832          2.2697
LJ          -5.35795        -1.23268         4.70468
LJ           3.39283        -2.23559       -0.782064
LJ           6.33986         4.06309          3.6897
LJ           5.06971        -1.64918         -5.5273
LJ           6.43669         1.05222       0.0659407
LJ          -5.88942           1.566        -5.46512
LJ          -2.60532         6.10171         1.71296
LJ          -3.20254         4.73202        -3.70105
LJ          -3.71211       -0.795909       -0.453254
LJ          -6.17528        -4.81704          3.8416
LJ           1.46345         5.48523        -2.29011
LJ          -4.71589         -4.7144        -4.81808
LJ           3.85716        -1.05263         2.27587
LJ          -6.31325         1.61587        -2.01379
LJ          -5.38555        -3.32893        -2.56141
LJ           0.25657        -6.38487          -3.306
