108
#Comment!
LJ           4.57063        -3.06928        -4.61992
LJ           3.04776        -5.76089         3.11475
LJ          0.802695         1.84617         6.32902
LJ           2.87022        -3.37917        -4.87323
LJ           5.37606        -3.35047         5.44892
LJ           4.36716        -1.35309        -3.16699
LJ           1.17008         6.43607         5.30738
LJ           -4.1388         2.00921         5.51647
LJ           1.51748         3.14791         -5.5552
LJ          -3.26691        0.292601        -1.54693
LJ           4.39988         3.12294        -4.95028
LJ            2.3365         1.55898         1.19731
LJ          -3.00416         5.11104        -4.72519
LJ          -3.90208        -2.20561        -5.21273
LJ          -4.80574         3.04926          5.1648
LJ             2.265         3.66783         4.15328
LJ          -3.25956        -2.97147         1.28513
LJ           4.41566         6.04529         -4.3829
LJ          -1.54699      -0.0592733       -0.274502
LJ          -5.70709         2.65964        -3.94561
LJ          -4.80159         2.48497          3.6951
LJ           6.14971         5.94759        -4.19185
LJ           1.60605         1.01669         1.64997
LJ          -6.33959          2.0901        -2.62835
LJ            -2.087         5.65005         5.80096
LJ          0.710173         -5.5072         3.28652
LJ          -1.82951          5.6564        -3.41097
LJ          -3.44608        -2.89821        -1.27637
LJ            5.0709        -2.33202         1.14765
LJ         -0.696589         6.15579         3.01114
LJ          -4.05502         2.72485         -5.5901
LJ          -4.18368       -0.329734        -3.57793
LJ          -2.67464         4.34086         2.30952
LJ          -3.05191         6.12876        0.654318
LJ          0.827837        -6.20222        -4.22726
LJ          -2.93728         -4.2971       -0.689788
LJ         -0.717268        -1.36172        -4.18193
LJ           1.73039        -6.02152         1.32389
LJ           1.03051        -5.51705        -1.09908
LJ          -2.29661       -0.444129        -6.27876
LJ           3.80479         1.18008         0.85024
LJ          -1.75632      -0.0244462         2.81799
LJ           -4.5072         -3.4593         5.35497
LJ          -5.28483        -6.00155         6.09523
LJ          -4.82836        -5.20481        0.204016
LJ           2.95671        -6.14113          4.6332
LJ           2.27927       -0.127781         4.32094
LJ           5.86331         2.37231         1.51149
LJ           -4.6967        -5.25819        -4.73429
LJ           3.00306         3.05973         2.99188
LJ          -1.64314       -0.340357        -5.26587
LJ           1.19927         1.30218         -3.0863
LJ          -5.39426         3.81597        -3.99192
LJ           -3.0578        -2.19788         1.86117
LJ           4.86165       -0.241553        -1.51434
LJ           1.77724         0.17368         3.11823
LJ          -3.60332         3.66059       -0.493477
LJ          -1.89122          5.7877        -1.33448
LJ          -6.37608         3.66696         2.27166
LJ          -2.22625          2.6869         4.81946
LJ          -3.70347       -0.865879        -1.43661
LJ           -4.4579        -3.14785         2.87429
LJ           5.93203        -5.40641      -0.0498248
LJ           4.72046        -1.80991         6.30919
LJ          -5.01781       -0.452818          6.1324
LJ          -6.33034        -1.33407         6.21495
LJ           2.18846          5.5355         3.75583
LJ         -0.465468        -6.21569         6.26118
LJ          0.350613         6.44718        -5.46392
LJ          -4.84335          3.9287        -6.18526
LJ            3.2276         3.57495         6.14296
LJ          0.681617         3.31035         5.87084
LJ          -1.36136         3.35418         4.06795
LJ           5.47395       -0.516718        -3.76859
LJ         -0.119866          2.3334        -6.39515
LJ           5.16741        -1.97197        -1.18874
LJ           3.59178           2.084         1.93431
LJ           4.43176        0.715942        -3.42344
LJ           2.88263        -2.22896        -2.13649
LJ           1.04906        -3.73516         2.27874
LJ           4.04945         2.93503         1.15598
LJ          0.155384         4.53292         2.41821
LJ           3.02974       -0.663604        -5.02602
LJ          -2.41016        -3.36921        -1.21452
LJ           4.45243        -2.21002        -4.27147
LJ          -1.49165         5.06042        -5.67485
LJ           4.26609        -5.43986        -6.29115
LJ           5.19924         3.32019         2.30813
LJ           -1.3465        -2.83879        -5.23958
LJ          -3.75307         4.11592         3.86458
LJ          -4.75416        -2.49933         1.89303
LJ          -4.22824        -5.67691        -2.83907
LJ           2.19218         2.52307         -2.2497
LJ          -1.57828         -6.3761        -4.75263
LJ           6.00391         4.40257         5.38199
LJ           4.43511        -3.33293       0.0663522
LJ           3.15325         -6.4472        0.801713
LJ          -4.11521        -2.23366        -2.04937
LJ           -4.5297         4.51096         -4.9765
LJ           4.20635         2.29101       -0.725565
LJ          -2.94999         -6.3737         1.57496
LJ           4.86279         4.12373         3.53157
LJ          -4.96369        -1.52544        -1.61141
LJ           4.89944        -6.06786        0.852821
LJ          -0.43811      0.00950943         -5.5222
LJ           5.42885         5.06445         6.25825
LJ         -0.368523         5.41362        -4.79908
LJ          -2.96457        -2.11304         4.70269
