108
#Comment!
LJ           -1.1704        -3.65674        0.891219
LJ          -4.73238          2.8473         4.92747
LJ           5.97185        -5.78544        -2.94108
LJ           5.51977         0.16482        -5.55377
LJ           5.88007         5.78797        -5.18691
LJ           2.60445         -1.4365        -1.13252
LJ          0.112573         3.50434        -2.13646
LJ           2.74669        -2.10812         5.05736
LJ          -4.00864         -0.2036          1.6924
LJ          0.340997        0.253192         2.28058
LJ          -6.28536        -5.04726        0.222478
LJ           4.59381       -0.699665        -4.55392
LJ           5.13341        -4.23753        -1.72698
LJ            1.2603        -5.45353        -5.27706
LJ           5.61158         4.84981        -4.24681
LJ           1.15306        -5.04146         5.86452
LJ          -3.98503        -3.52997         1.50546
LJ          -5.65302       -0.074347         5.64002
LJ          -6.10926        0.962933         2.10894
LJ         -0.174624         6.42927         5.59651
LJ          -3.71113         5.16841        -1.50755
LJ           -6.0013         1.74632         2.81575
LJ           1.22429        -4.86845          3.1237
LJ          0.296048        -2.02213        -3.48328
LJ          0.511329        -4.94557         3.87032
LJ         -0.997301        -2.12065          2.8361
LJ           5.35764       -0.766075        -2.44604
LJ          0.282907         2.54049        -1.68719
LJ          -1.74244         5.17505         4.84167
LJ           4.76933        -5.72484         4.86726
LJ           5.15312         2.20614         -2.9604
LJ         -0.651201         3.50976         3.11432
LJ           1.07603        0.590805         3.36748
LJ           3.98589          6.0213       -0.923877
LJ            4.5142         4.59669        -0.79949
LJ           1.76174         2.08367        -4.32023
LJ           1.18364         1.72265        -1.02486
LJ           2.19411         6.29461         5.70337
LJ           5.95978        -3.42644        -2.57165
LJ           1.95855        0.267736         4.04326
LJ          -5.32852         6.11447       -0.455574
LJ        -0.0704873         -3.2457         1.91239
LJ          -4.94619        -6.27462         4.06435
LJ           2.38151        -5.24825        0.401353
LJ           -4.7274         3.04215        -5.84095
LJ           2.64913         3.07905          4.5414
LJ          -3.19644        -5.25617          0.1912
LJ           1.58012        -5.82731        -2.98412
LJ          -6.05316        -2.05483        -4.93404
LJ         -0.868119         4.79603        -4.01078
LJ          0.674857         1.59565         4.38978
LJ           3.18077        -3.79534        -3.29015
LJ          -1.58361        -2.55341        -1.13576
LJ           4.48452        -0.95586        -3.23528
LJ          -4.31134         3.12881         3.74457
LJ          0.455997        -5.95107        -4.23224
LJ           1.39572         5.72041        -5.29141
LJ          -6.39905        -3.37858        -3.44561
LJ          0.109893        -5.51198         5.71885
LJ           5.23198        -2.58928      -0.0249468
LJ           5.29998         4.87098         4.61922
LJ          -5.64422         2.41065        -3.02628
LJ          0.144687        -4.41022        -3.86901
LJ         -0.746322         2.02301        0.223752
LJ          -3.45945         3.35781         5.37575
LJ            2.2783        -2.52631        -1.92962
LJ            4.5591          5.2232         -5.0263
LJ          -1.67908        -2.87765         3.96406
LJ           4.43621        -2.77991        -1.27382
LJ           5.16073       -0.685843       -0.462255
LJ         -0.936695         4.73751       0.0136922
LJ           3.50025         -3.8229        -0.50471
LJ           2.35885       -0.541201        0.127654
LJ           3.01064         2.72158         3.26485
LJ          -4.89713        -5.43817         3.01383
LJ           3.24067       0.0204364        -5.93144
LJ           3.86086        -6.35296         5.74761
LJ          -3.74717       -0.987934         6.41617
LJ           2.42836         3.97184        -2.24225
LJ          -1.72278        -6.27583        -2.55104
LJ            5.6174       -0.394689        -1.60331
LJ         -0.390931         1.39896           5.541
LJ           6.39011         0.15138         5.95988
LJ          -1.78511         3.94773        0.706792
LJ          -3.10677          1.3099         2.82117
LJ           2.92858        -0.86639        -4.31798
LJ          -5.58144         -4.1957         1.69453
LJ         -0.428183         5.54152         5.27519
LJ           2.20437        0.995202        -3.17433
LJ          0.618524         1.01448        -4.79275
LJ            2.8448        -1.79409        -5.46534
LJ           1.35468        -5.16819         4.55845
LJ           1.38755       -0.320803         -4.5622
LJ           2.36726          2.3221        -2.12256
LJ          -2.85608       -0.519471         -2.8661
LJ           2.11591         6.09054        -1.42491
LJ          -5.55474         1.50694         4.02825
LJ        -0.0314246        -2.35403       0.0457783
LJ          -2.36672        -4.09794        -0.36867
LJ          -6.23676        -4.84803        -4.71647
LJ           1.97669       -0.879729         1.88568
LJ          -3.36473         2.70588        -1.33126
LJ            3.2454         -3.7597         4.50182
LJ           1.70706        -1.09409        -3.57138
LJ           0.60118        -4.38939         2.35305
LJ         -0.237421         3.59058         4.14506
LJ           5.58625         3.15253        -3.93938
LJ           5.46884         3.67189        0.530285
