108
#Comment!
LJ            5.2757        -5.96226         2.34604
LJ          -1.13457        -4.98029         2.04141
LJ          -4.88756         2.50763        0.227099
LJ          -2.94753         2.02053        -4.32843
LJ          -5.41557        -3.01388        -2.35782
LJ           5.38539        -5.56291        0.919688
LJ            2.5991         5.83894        -1.08423
LJ          0.535392         4.36386         5.04128
LJ           1.18088         3.74983         4.08373
LJ             3.778        -2.13668         4.81783
LJ          -0.34512        -3.34697         4.69513
LJ           1.56509        -2.09022         -0.9285
LJ           4.33274         -1.0123        -4.05479
LJ           -2.6273         5.56369        -5.83279
LJ          -4.55772         1.43254         4.68663
LJ          -6.07533        -5.18406        0.488324
LJ          -2.93361         1.52726        -1.47348
LJ           5.23348         1.54358        -2.31591
LJ          -2.72391        -5.33924          1.8724
LJ         -0.940358       -0.178696         2.63701
LJ          -3.28792         1.52742         2.75114
LJ           6.26739       -0.543373        -2.81076
LJ           4.74894        -2.48205         2.10548
LJ          -1.04881         5.46158         5.29747
LJ         -0.276388         5.10233        -4.28147
LJ          -2.77624         5.97741        0.444461
LJ           6.30879       -0.725212         1.50709
LJ          -1.61891        -2.30557         2.23912
LJ          -4.01078          1.3095        -2.65228
LJ          0.418901        -1.02696        -4.26381
LJ         -0.632126         2.77497         3.82474
LJ             3.156        -4.63318         4.69685
LJ         -0.195128        -5.27002       -0.239768
LJ          -0.78322       -0.128604        -2.12544
LJ          -5.07913        0.378314       -0.123591
LJ          -4.26501        0.702158        -5.58941
LJ           3.73751        -5.81492         2.00142
LJ          0.831206         3.76669        -6.43969
LJ            5.2068        -2.19059        0.371403
LJ           1.12234        -2.07257        0.856619
LJ           3.33643        -4.57249        -1.71122
LJ           2.51161         5.56759        -2.38412
LJ           -4.7009         4.93596         3.05019
LJ          -5.60418         5.08957       -0.646538
LJ           2.03709        -5.96968         3.94374
LJ           1.42469        -3.61444        -4.17026
LJ          -1.59768        0.579223       0.0779986
LJ         0.0604213         1.40661        -6.41937
LJ          -6.30997        -4.79593         1.70797
LJ           4.35716         2.29302        -1.39366
LJ            1.8877        -3.22515        -1.49474
LJ          -4.34755        -4.90765         4.15824
LJ           2.51038        -3.59023         5.19342
LJ           2.13138        0.191852        -2.12555
LJ           1.91652        -3.47756        0.341128
LJ           -5.5346         5.76809         5.14642
LJ           4.36793        0.122321         2.80932
LJ          -3.16488        -5.22399         2.86096
LJ          -3.62388        -1.64875        -3.38356
LJ         -0.524706         3.16891        -3.54112
LJ           6.35063        -5.99744        0.903025
LJ          -6.12403         -3.1864       -0.854032
LJ            3.1296         -1.6193         1.03569
LJ          -4.31937         5.63136        0.848907
LJ           5.01059         4.33789         2.21877
LJ           2.91444        -3.13828          1.2423
LJ          -5.03676         3.75369         2.41424
LJ           4.82581        -1.11735         1.74192
LJ           1.07949        -5.40229        -4.14423
LJ           -5.8359         5.61797        0.784663
LJ          -4.11287        -3.78203         2.87083
LJ          -5.02558        -4.80141         -4.5702
LJ          -3.89512        -6.33186        -4.54569
LJ          -1.27919        0.934115        -5.72051
LJ         -0.180999        -4.78558        0.750915
LJ             1.601        0.157627        -6.29194
LJ          -5.74641         6.20288         2.86629
LJ           2.74321         3.50143         3.13053
LJ           1.78845        -6.38836         2.03771
LJ          -3.15772         5.11229         -4.1126
LJ           3.82383       -0.769831         5.41851
LJ           2.39078         5.15553         4.80276
LJ           6.14196         3.06004       -0.497176
LJ           6.37117         1.22475        -4.74871
LJ          -2.94669        -1.62587        -2.68994
LJ          -6.17038       0.0902889         2.06782
LJ          -1.22587        -1.60669       -0.108282
LJ           3.36039        -3.10719         4.58896
LJ          -4.13859        -4.87321         3.16182
LJ           3.09624        -4.34545         1.25471
LJ           -6.2432        -5.51998        -2.37602
LJ           -5.1751        -4.23478        0.690125
LJ           -1.1797         3.18301         -2.1388
LJ          -5.27757        -2.57223        -4.76506
LJ         -0.835741        -5.34724        -5.23934
LJ           2.42595        -3.13376         -4.1113
LJ           1.44074        -5.68799         2.90759
LJ            4.3625        -4.52964         -2.8416
LJ          -6.08934         -2.1551         -3.1262
LJ            2.0476       -0.394489         4.09911
LJ           4.07535         1.52458         -1.8703
LJ          -2.76037         -2.6507        -6.10354
LJ            4.9114         5.09931         3.97412
LJ           6.31154         -6.3704         4.09756
LJ          -3.66383        -3.00239        -6.35485
LJ          -5.51067         1.12986        0.501914
LJ            1.0013         4.13077        -1.14633
LJ          -3.40977        -2.63303         3.92012
