108
#Comment!
LJ          -5.82946         1.78523          4.0706
LJ           3.70572         5.94358         3.34255
LJ          -3.75769         -1.1334        -2.35577
LJ          0.233325          6.2616         -4.5167
LJ          -4.44959         3.40237        -4.15173
LJ          -6.08438       -0.861177        -6.00383
LJ         -0.894222        -5.60515        -2.26579
LJ          -5.84235         3.28805        -2.19984
LJ          -6.41692         6.28109         3.85462
LJ          -5.85723         4.94213         5.73921
LJ          -2.14584         2.62963         5.83873
LJ           5.53532        -1.83849         4.25181
LJ            6.4127        -1.81027        -6.02091
LJ           6.25779         1.89879        -2.35852
LJ           5.22219         1.23453         4.57847
LJ           4.96019         6.15025        -6.11108
LJ          -1.17247         5.63984        -5.50717
LJ          -1.20634        -5.17912         2.02824
LJ         -0.938334        -4.06121         4.44305
LJ           5.98403        -3.19692       -0.477585
LJ           2.66053        -5.53805         5.76686
LJ           6.15394         5.09594         4.19825
LJ          -4.75156         3.57947         1.32829
LJ          -4.64143        -3.78985        -4.93739
LJ          0.584385         4.62161         5.78639
LJ            1.2399       -0.968769         3.55314
LJ          -2.30428         3.19316        -2.77357
LJ           1.67106        -2.78336        -6.30177
LJ          -3.83115          4.9124        -5.37144
LJ           2.99119         2.73894        -4.85636
LJ          -1.00245        -5.44926        -3.54398
LJ          -4.70062      0.00757681        -4.93364
LJ           4.34223         1.73899         3.34644
LJ           5.85007         6.36735        -5.65647
LJ           2.00174        -1.74551        0.455014
LJ          -3.67595         1.60899        -6.43159
LJ        -0.0471663        -4.51298        -4.79641
LJ          -3.87529         3.87738         5.00799
LJ          -4.91756        -6.28251         4.38196
LJ          -3.11678        0.368515        -6.32613
LJ          -3.69309        -4.29041         2.52569
LJ           0.33924        -5.06922         1.57948
LJ          -3.01295       -0.539138         4.40963
LJ          -3.70277      -0.0337415         3.18377
LJ          -2.55802       -0.868228        -4.09036
LJ           4.67719         3.67433         1.62646
LJ          -3.32334        -1.43555        -3.56194
LJ          -4.75924        -3.87225         4.87381
LJ          -2.31984         3.13929        0.251466
LJ          0.988666         5.36694        -4.94931
LJ          -5.25429         5.54733        -1.47277
LJ          -1.41033        -4.75868        0.514645
LJ          -3.31361        -5.65649         2.15887
LJ           5.71866         3.32794        -3.51378
LJ           2.53958        -6.33756        -2.75582
LJ          -1.41873        -1.70018         3.92959
LJ          -5.93111         4.00267         2.41836
LJ           1.97395        -1.29751         2.64578
LJ          0.883958       -0.805748         1.54816
LJ          -3.50065         1.11089         3.89494
LJ           3.04449         5.01793        -5.87256
LJ           5.74763        -2.36027        -3.32888
LJ          -5.82378         1.67572        -1.01709
LJ           2.17916         6.32763         4.88286
LJ           3.06926         5.70971        -3.81426
LJ            1.3414        -6.29736         5.71444
LJ          -1.46824        -1.66526         5.95908
LJ          -3.74072        -4.28472        -1.13217
LJ          -1.95565        -5.84754        -2.02528
LJ          -3.88716         3.09335        -1.90532
LJ           -1.1439        -5.96969        -4.61239
LJ          0.543545         2.13025         2.68542
LJ          0.564716         3.17405        -4.09374
LJ           5.91511         2.77698        0.288244
LJ           1.06519        -1.08142        0.393272
LJ          0.460761        -4.02193         3.33013
LJ           4.84375         4.80834        -4.79258
LJ          -4.81021        -4.00402         3.34209
LJ          -5.01233         1.45533        -6.11354
LJ         -0.502463        -6.42188         1.89924
LJ           -1.5529        -2.90966         3.83424
LJ           1.30787        -2.41109         4.00934
LJ           3.42319         2.17906         -3.4065
LJ           -5.7481         5.18219        -4.26984
LJ          -2.81932         4.70907      -0.0918236
LJ          -5.30138        -1.21978         3.82447
LJ          -4.45708        -2.43486         3.07358
LJ          -5.97899       -0.486235        -5.06334
LJ          -2.81637        0.226847         1.11904
LJ           5.03272        0.966176          1.6273
LJ          -5.64465       -0.573162        -3.70522
LJ           2.33158         1.07745        -2.31505
LJ           1.90605       -0.258694         2.90064
LJ         -0.248888         5.93426        -6.35052
LJ           0.12085        -5.95709         5.48336
LJ          -1.85057         4.02022         4.38644
LJ           5.48787         2.85928        -5.85135
LJ           1.98529        0.506259         4.47982
LJ          -5.50261         5.16475         4.14595
LJ          -4.71807         1.44847       -0.408297
LJ           -4.6603         1.88128        -2.38812
LJ           4.01922         1.06471        -6.20354
LJ          -4.68627      -0.0505315         4.63205
LJ           5.85579        -3.61317          -1.815
LJ          -4.20843         1.52323         4.55951
LJ         0.0136439          5.2811         -5.2384
LJ           6.00112        -4.98836         4.45147
LJ          -5.66267         3.97891         5.16812
