108
#Comment!
LJ           3.65479        -1.96003        -2.54473
LJ           5.09585        -4.57856        -1.13392
LJ           1.09271        -1.36192        -3.07335
LJ           2.26036        -3.51876        -5.82401
LJ          -4.55299        -4.65881        -5.92198
LJ           -4.8754         6.40721        -5.30963
LJ           6.29249        -3.48271         4.00155
LJ           5.41676         6.04619         6.18507
LJ          -6.02362        -1.93947      -0.0765439
LJ           4.49601         3.95348         4.12137
LJ           3.18347        -6.23477        -1.93458
LJ          -3.62619         5.20733        -5.32225
LJ          -0.26004         4.60134        0.182437
LJ           -5.0136         2.38678         1.05407
LJ          -5.31438       0.0301376         5.76661
LJ          0.874285         6.28768         4.39395
LJ           3.17331        -1.70326       -0.910543
LJ           2.22813         6.18282        -4.86384
LJ          -5.04248        -5.59298          6.0505
LJ          -3.62649         2.03193      -0.0358793
LJ           5.05565        -4.33201         4.88377
LJ           -2.4219         6.22792         1.11303
LJ           4.53171        0.351856         1.39601
LJ          -4.11081        -1.50286         3.87653
LJ           1.24062        -1.66013        -1.81403
LJ            3.8828         5.98619        -2.67535
LJ           4.50777        0.610466         6.41003
LJ            5.0833         5.28555         3.52942
LJ           3.83905         5.40902         -3.8743
LJ          -4.43062         3.47243        -3.90513
LJ          -2.35517        -6.17512        -4.15973
LJ          -5.69375      -0.0410285         1.19986
LJ           -5.4908        -1.84059         1.41058
LJ          -6.25229        -5.90727       -0.653318
LJ           5.60424         5.14912         2.43814
LJ          -1.21299          5.6199        -5.54392
LJ           2.71291        -3.00212         4.27398
LJ           4.73853        -5.05509        0.562893
LJ           5.36085        -4.31061        -4.27823
LJ         -0.805167         2.20773        -3.77495
LJ           5.46035         4.51349         5.87003
LJ          -4.03449        -1.87428         4.91187
LJ          0.742913        -1.96555         4.89134
LJ          -5.22997         5.53693        0.489784
LJ          -4.89992       -0.904874        -5.15522
LJ           5.80323        -5.80749         3.75074
LJ           6.34328         3.83593          5.0169
LJ            3.6568         1.54035        -5.99339
LJ           2.32589        -3.44513        -3.96433
LJ           5.04701         -4.4431          3.2805
LJ          -3.78022         3.83225          6.3757
LJ          -1.32124         2.05439        0.999168
LJ           -4.8083         1.73915       -0.611789
LJ          -5.52509        -5.77735        -1.74559
LJ          -4.86403         4.49624        0.661959
LJ        -0.0767601        -1.36575        -5.88781
LJ         -0.307444          1.0178         2.17735
LJ         -0.256097          3.4844        -3.79869
LJ           1.90438         6.03764         6.30673
LJ           3.98518         4.65014       -0.928668
LJ         -0.867843         4.72104         5.85454
LJ          -3.32599         4.96551         -2.1388
LJ          -2.59332         3.06989        -5.15315
LJ           4.32678       -0.812948         2.56139
LJ           4.41809        -1.28737         -3.7456
LJ          -2.97327         3.47172         2.78534
LJ          -1.62903        -2.12141        -2.94582
LJ           1.19512        -1.52786          1.5557
LJ           5.81694         2.05128         6.14451
LJ           6.04324         1.43438        -1.42489
LJ          -3.35313        -5.32755        -4.56905
LJ          -3.14352       -0.663356        -5.18201
LJ          -2.59187        0.163699         4.92839
LJ          -3.97898        -3.97033         3.16414
LJ          -3.84049        -6.29493        -5.51468
LJ          -5.91701         2.21154         -2.4372
LJ           4.84971         3.53297        -3.69249
LJ           5.26193         1.50826        -5.82683
LJ           4.57454        -1.65939        -1.44622
LJ          -1.80808         2.64518         4.79335
LJ           4.98648        0.749756       -0.887137
LJ          -4.07775         1.24254         1.87246
LJ          -5.56256        -4.38889         3.65328
LJ          -6.20286         4.84775         4.52989
LJ          -5.60247         2.30212        -4.50473
LJ           4.63021          -1.338        0.997285
LJ          -4.63283         1.74349         3.33048
LJ           3.17491         5.31314        -5.97042
LJ           1.06548         0.87329         -5.3402
LJ          -1.39255         1.62699        -4.51119
LJ           5.97811         6.25979         2.15583
LJ          -5.77334         1.98538         2.79187
LJ          -5.08905        -3.34612        -2.84523
LJ           1.67336        -3.92848        -2.50319
LJ          -2.07541         5.36999        0.674645
LJ         -0.683947         6.08959        0.404308
LJ          -2.18571         4.49666        -5.04377
LJ          -1.60889        -5.18704        -5.27672
LJ           1.66273        -1.00485        0.644062
LJ          -4.43912         5.89268         2.50585
LJ           6.05708       -0.781017         5.79412
LJ          -3.08919        -2.83697        -5.19887
LJ           3.38129        -1.35209         1.48518
LJ          -5.32929         4.98175         2.80543
LJ           2.31598        -1.57308          1.7285
LJ          -4.17427         3.11192         3.14075
LJ           3.38909         -5.8989         4.90637
LJ           -2.9817          1.8923        -1.19556
