108
#Comment!
LJ          -5.00891        -4.73428         4.32245
LJ          -5.55203           1.209          2.2263
LJ          -4.00261        -2.11991        -4.84523
LJ          -3.13509       -0.808019        -1.97956
LJ           4.53923        -4.55076          2.3232
LJ          -5.89686         1.88594         1.09993
LJ           -0.8051         1.50633        -1.17058
LJ           0.67198         1.29769         -2.1026
LJ          -6.36554         -4.5993         3.08825
LJ         0.0545589        -3.47256         5.99949
LJ          -5.31401       -0.711908        -3.81567
LJ           3.82724         3.53078        -1.44601
LJ          -1.45602        -0.02157          3.9636
LJ           5.64517         4.49908        -5.76822
LJ            4.3966        -3.48303        -4.27874
LJ           1.33428         3.62794        -3.67439
LJ          -3.91786         5.18633         3.28889
LJ           3.81963           4.637        -2.33541
LJ          -2.54525        0.710216        -1.52983
LJ          0.936469        -5.61061       -0.326073
LJ          -3.33747        -2.56511         5.84131
LJ         -0.548092         4.85173          1.8949
LJ          -4.04412         1.45705        -4.07944
LJ           1.69911         1.58049         5.70171
LJ          -4.98668         6.03845         4.58574
LJ          -1.17772         5.10337       -0.935284
LJ          -5.66599          6.0811        -3.80816
LJ           4.96257        -3.44325         5.02089
LJ            -1.173         5.34314         5.93921
LJ          -4.62884         1.94332        -5.89776
LJ          -4.02739        -2.22396          1.7604
LJ          -2.96333         5.50601         2.85702
LJ           5.97715        -2.43014        -2.04796
LJ           3.05841        0.838088         5.05819
LJ          0.645676         3.99908        -5.27961
LJ           4.98322         4.31146         3.20678
LJ          0.794232         5.02501          2.2229
LJ           4.72365         1.33706         3.51627
LJ           2.48143         2.40341         5.39341
LJ         -0.429951         2.63657        -5.03383
LJ          0.540681        -3.94095         3.82543
LJ          -1.02279       -0.782545         2.92456
LJ          -3.86166        -3.22193         1.55177
LJ          -1.77137        -2.96098        -5.50467
LJ          -3.77223         4.99295       -0.159461
LJ          -2.21906         1.23701         4.54753
LJ           6.05662          3.4919        -5.72476
LJ           1.85001        -6.44068          1.0842
LJ           3.15528         1.29586      -0.0569989
LJ           4.42197        -3.54617         1.80568
LJ           4.95471         5.95822        -2.26511
LJ             5.197         4.63196        -3.67793
LJ           1.42431        -1.78061         4.75417
LJ           3.34374         3.18209         5.00995
LJ           6.33952        -1.71046        0.840323
LJ          -3.03198         3.78708        -4.47476
LJ          -1.27807        -1.76333        -5.40136
LJ          -3.13521         2.09244         1.48631
LJ            6.1763         1.83451        -3.14772
LJ          -3.61419         3.08127        -3.38597
LJ          -1.01436         2.13682        0.523607
LJ           3.52031         2.15083        -3.43783
LJ           -2.2494         3.05452         4.01521
LJ           5.73431         2.53461         5.42092
LJ          -2.13742        -2.11833         6.32159
LJ          -5.33417        -2.26567        0.368771
LJ           -4.3988         1.04684         6.38039
LJ          -6.12096        -1.84816      -0.0310218
LJ           1.02363        -1.61841        0.686562
LJ           3.14302         4.43245         4.57053
LJ          -4.09869        -3.05922        -1.59844
LJ          -4.27489        -3.36195         4.43162
LJ          0.904697       -0.655775         1.12486
LJ           6.36115        -2.88494        -5.67706
LJ          -6.02064        -4.79322        -2.25786
LJ          -5.78254        -4.11397         5.89067
LJ           1.12528        -2.36171        -5.40978
LJ          -2.23792        -3.09697         3.28121
LJ          -3.00596         1.08071        -4.62094
LJ          -2.95522        -2.54812        -2.83779
LJ          0.487724        -2.08274         4.25619
LJ          -5.93653         3.28046         4.70086
LJ          -3.16554        -3.87031        -3.70639
LJ           1.62137        -3.20649        -6.18415
LJ           1.06164        0.419233        -5.21544
LJ         -0.821582        -5.41112         -5.7365
LJ          -2.76556        -4.32764          3.7877
LJ          -0.86178         2.36614        -2.77496
LJ           5.25459          1.1768         2.67755
LJ          -5.50082          4.2061        -2.94204
LJ          0.293595         -5.9279         5.06508
LJ          -3.64768        -4.57586         4.94561
LJ          -5.20601         4.84329        -4.05106
LJ          0.341319         6.12782         2.07219
LJ           5.53629         4.53931        -1.33766
LJ           1.64353       -0.272831        -5.61447
LJ            -2.396        -5.36155         6.15447
LJ          -3.74813         1.94216          6.1519
LJ           5.91615         4.26976        -4.26772
LJ           -3.8097         -4.2194         3.77922
LJ          0.209069        -2.15065        -4.14171
LJ           2.75885         -5.1916         2.71548
LJ          -1.53233         6.21911        0.610221
LJ          -4.58004        0.378848        -3.55308
LJ          -6.02111         5.02847        -5.79093
LJ         -0.413572        -2.28208        -2.58817
LJ           1.66129         1.63605        -2.48651
LJ           2.26632         4.01822         -3.5152
