108
#Comment!
LJ          -4.93642          -5.603         6.28468
LJ          0.592353         3.89571        -1.03897
LJ          -2.28274         3.96071         2.26318
LJ          -2.17752         3.59764        -5.13362
LJ           1.85092        -6.40146       -0.754024
LJ           3.08827       -0.699881         6.22073
LJ           -1.3847        -1.88325      -0.0438257
LJ          -4.56091         6.14964         1.54843
LJ           4.15258      -0.0519727        -4.45684
LJ          -5.98613         5.47171         3.04655
LJ            6.3673        -1.50016        -4.88155
LJ           5.31458        -4.63584         4.46332
LJ           6.17665         4.95931         1.87124
LJ          -2.81896         -2.3313        -5.21499
LJ          0.486702     0.000144752        0.897941
LJ        -0.0569442         2.76275        -6.33639
LJ          -5.12911         1.37744        -1.43757
LJ           3.71335        -4.31204        -5.30511
LJ           4.82249        -5.96762        -6.26202
LJ          -3.10747         5.24277         4.03556
LJ         0.0479535       -0.545799       0.0337694
LJ           2.90933         3.72382      -0.0811605
LJ           3.02653          5.8255        -6.45566
LJ          -4.21448           4.658        -3.32342
LJ           1.07886        -1.85038        0.419208
LJ           6.17689        -4.68614         5.21793
LJ           1.96335        -1.84139         5.72908
LJ          -1.95175        0.277594        0.047943
LJ          -1.16667          1.7334        -6.38965
LJ           3.99661        -1.67832         5.88109
LJ           1.22948        0.777928           3.451
LJ          -3.39204        -4.06123        0.189663
LJ          -1.38396         4.46812        -4.91516
LJ            2.9341         -2.5956         6.12968
LJ          -3.71352         1.10841        0.389348
LJ          -5.76448        -5.87858         2.63254
LJ          -3.73712        -1.33448         6.28456
LJ          -1.07015        -0.82461          5.6203
LJ           1.52226         -1.8724        -2.31569
LJ          -1.71181        -5.40316        -3.34413
LJ           5.27841         1.34438        -3.53072
LJ         -0.552018         5.20737        0.840264
LJ          0.765758        -3.72409         4.01203
LJ           4.39629         2.15472        0.898733
LJ          -3.15437        -5.15748        0.629903
LJ          -4.00392         4.99636         5.73143
LJ           -2.7094        -1.75321         3.84373
LJ           4.87364          -2.561      -0.0564987
LJ         -0.344007        -4.37194         5.52554
LJ          -5.32581         4.15287        -2.60875
LJ           4.41626        -5.77232        0.527763
LJ          -3.95738        -6.27069       -0.454429
LJ           3.19975         1.15336         4.23871
LJ          0.750423        -6.28121        -6.08777
LJ          -3.47989        -4.15886         3.29907
LJ          -1.86872        -4.44966        -5.34263
LJ          -6.10219         3.52323       -0.415685
LJ          -5.55959        -1.34607          3.8327
LJ          -3.72405        0.937238         4.91378
LJ          -2.79614         4.99582         2.83953
LJ           2.65024        -6.16204         2.56296
LJ           3.45095        -5.98641        -4.36155
LJ        -0.0531084        0.708182        -3.29917
LJ           3.96299        -4.24537         2.86768
LJ           3.12685         3.94175         6.27319
LJ           1.33658        -6.29459        -3.07345
LJ         -0.727471         2.22145         5.63729
LJ          -2.34168         4.13601        -4.09648
LJ         -0.936352         5.97358        -3.71052
LJ          -2.78992         1.11972         2.71144
LJ          -2.00446          4.8446         1.08307
LJ        -0.0635245        -3.22019         5.64168
LJ           1.24751        -2.63769         1.73809
LJ          -6.03016        -3.34456       -0.926737
LJ         -0.695034        -6.32631       -0.478706
LJ          -4.82963        0.662952         5.06532
LJ          0.624792         3.51256        0.758517
LJ           2.18663        0.589687        -5.43557
LJ          -5.66978        -2.19322         2.55477
LJ        -0.0563811        -4.32629        -2.50471
LJ          -3.39712        -5.49099         3.50039
LJ           1.98667        -2.26244         4.82276
LJ          0.491134         1.11036         2.05653
LJ         -0.723995        -2.96412         4.49846
LJ           4.75896       -0.770968           5.056
LJ          0.467097         1.97858         -2.5661
LJ         -0.523533        -4.87624        -6.17038
LJ          -3.39704        -6.40168         1.43877
LJ          -4.88757         5.53098       -0.287196
LJ            4.4169         1.86044      -0.0355177
LJ            1.2562        0.992113        0.867584
LJ          -2.02682        -5.92326           -4.91
LJ          -4.27101        -1.18577          3.9062
LJ          -1.83887        0.293293         5.20517
LJ            2.9904        -2.26704        -4.07935
LJ         -0.800111         6.41012        0.562994
LJ           1.77815         1.40163        -5.68673
LJ           2.03144       0.0138651         2.17585
LJ          -1.66953        -1.80785        -5.27943
LJ          -4.77067         4.42564        -6.12007
LJ            4.9512        -1.33289       -0.314956
LJ           -1.1295       -0.666103         3.35163
LJ           -5.8209         1.16988          3.1796
LJ           1.30785         -2.6672        -1.43895
LJ          -3.52861         5.03183          -1.262
LJ          -2.43191        0.788742       -0.792414
LJ          0.808163         1.81871          2.7942
LJ          -3.19151        -2.59198         -1.2849
