108
#Comment!
LJ           3.86276         -3.5577        -5.86867
LJ          -4.63296         2.05853         1.98685
LJ           4.13171         1.25432        -3.14325
LJ         -0.926714          2.5611        -5.61483
LJ          -1.28788          2.8066         2.95877
LJ           4.31829         3.56805        -1.74793
LJ          -3.64956        -5.83969         1.19449
LJ           6.30384        -3.93342         5.37162
LJ            5.9732        0.525006         -4.9534
LJ          -4.12996        -1.69761         -4.1422
LJ           5.24364          3.4131        0.833358
LJ           1.34354        -4.99292         5.62157
LJ          -2.23864        -2.75931         5.05782
LJ           6.12615       -0.995644         1.80609
LJ            6.1087         2.22596        -3.36841
LJ           0.10839         2.33212        -3.94569
LJ          -3.89315        -1.57417        0.321335
LJ          -2.49989         5.53186         5.62548
LJ          -6.29643         2.96943        0.260477
LJ          -1.38566         3.87645       -0.541191
LJ           2.29479        -3.36542        -5.97347
LJ          -3.37187        -5.54184        -4.87645
LJ            3.8054       -0.922813       -0.331729
LJ          -5.80221         -5.3118         3.31426
LJ          -2.63432         3.99885        -4.11284
LJ          -2.87198         2.88671         5.29925
LJ          -3.04063        0.769919         -5.9158
LJ          -5.90262         -4.5162       -0.278629
LJ          -2.23974        -1.31939        -1.07441
LJ            5.0705         2.00408         3.04266
LJ           5.39658        -3.87962         1.37123
LJ          -1.51215       -0.120483        -1.92891
LJ         -0.935113        -5.52143       -0.360639
LJ          -2.72013         3.57721         3.01421
LJ          0.436287         3.73793        -2.42918
LJ           5.95131         4.78367        -2.43389
LJ           6.00279         6.12643        -6.30019
LJ           6.41196        -3.51895         1.36407
LJ           5.03371         4.62983        -1.35017
LJ          -1.20792          -4.754        0.624815
LJ            -5.759        -1.29945      -0.0883188
LJ          -2.56546       -0.165206        -1.22061
LJ           5.68594         -3.5173         3.65836
LJ          -1.08529        0.735206        -2.70602
LJ         -0.169683        0.851794         5.73505
LJ          -4.25643        -2.39371       -0.350411
LJ          -3.61491        -2.07102         5.71414
LJ           2.68173         3.32054         4.85996
LJ          -1.43751         5.55427         3.56586
LJ           -6.0482        -4.89164         4.96119
LJ          -5.72729         4.53165       -0.891136
LJ           6.37618         0.11087         1.38667
LJ          -3.91943         2.05414       -0.564535
LJ           4.97626         1.39433        -4.54422
LJ           2.09337         3.96168        -5.50231
LJ         -0.559294        -6.10836         4.37594
LJ           3.01674         4.69471         1.45606
LJ           3.94361         6.42555         4.91589
LJ          -1.52547        -1.89536       0.0126736
LJ           5.36378         5.10561         4.16175
LJ           3.34523         1.71587        -1.24432
LJ            3.5584         4.74687         6.36276
LJ            4.9279         1.12135         2.02733
LJ          -2.36831         4.43532          1.0301
LJ           5.08812         1.51036        -0.37055
LJ          -6.14057         3.22968         2.65785
LJ           5.07608        -2.63764        -2.04613
LJ           3.22109        -3.20044        -4.97031
LJ          -3.48347         3.37943        -1.53936
LJ           4.47639         3.76195          4.8923
LJ          -4.16749       -0.193226        -5.96835
LJ           1.83421        0.239091         2.05822
LJ           -2.3763         3.05728        0.133263
LJ          0.595583        -5.23976        0.635373
LJ          -2.69734        0.782185        -4.87844
LJ           4.19935         4.93343         3.27042
LJ           2.18806         3.92421         3.18588
LJ           6.02821        -3.70703         2.55472
LJ          -2.66483        -1.05947        -2.45196
LJ           1.45301         -3.5334       -0.977572
LJ           2.14305         4.24102         6.21621
LJ          -3.71001         5.10445        -1.63981
LJ          0.390671          3.9801        0.551653
LJ           2.60866          3.0861         1.84998
LJ           3.44532        -2.13489        -5.99569
LJ           5.86837        -5.41899         5.86371
LJ          -5.28112         4.45575        0.769182
LJ          -4.60776        -2.32588        -5.40068
LJ          -3.83302        -5.02229       -0.280396
LJ          -3.70935        -4.10167         2.78124
LJ          -2.67855         2.55443         1.55762
LJ           2.80815        -0.33607        -5.07798
LJ           4.52794      -0.0180658        -3.36806
LJ           1.24086         6.11744        -5.23901
LJ          -4.24656         5.75634        -3.66743
LJ          -2.81027        0.752641        0.742459
LJ          -3.84755         2.97349         1.90983
LJ            6.2147         3.69748         3.88939
LJ          -5.00212         5.67409        -1.64867
LJ           3.89456         -2.1922       -0.521057
LJ          -4.68233        -5.45164        -4.34528
LJ         -0.861735        -1.50216        -3.23326
LJ           4.50731        -4.86646        -4.70131
LJ          -5.93551        -1.36656        -3.47006
LJ           4.59614        -2.70546         -6.2457
LJ           5.74942       -0.376841        -1.26375
LJ          -5.48439        -2.90993        -5.46727
LJ          0.643864        -4.18502         1.23005
