108
#Comment!
LJ          -4.23104       -0.544939         1.15752
LJ           3.83283        -3.64973         6.41838
LJ         -0.684708        -4.09329        -5.81029
LJ         -0.104542        -3.90387         6.05051
LJ          -3.15228         5.52876       -0.775062
LJ           3.10675          4.8062        -6.31726
LJ          -2.43775         3.40682         1.23489
LJ          0.705872         3.98424         1.80696
LJ           2.47536         3.22665        -2.71951
LJ          -5.22652        -4.43964         3.48808
LJ          -3.77921        -2.65999         6.40924
LJ           6.07383         3.55914         2.83524
LJ           2.88097        0.100775        0.818163
LJ            5.6251        -5.74361         3.50063
LJ          -5.00859        0.580894         4.37117
LJ          -1.37759         1.33486         3.47034
LJ          -2.99772         3.26313        -5.71912
LJ         -0.973553        0.393649        0.236258
LJ          -5.37402         6.04651        -4.08905
LJ          -3.19454         2.98082        -3.68648
LJ          0.438486        -1.88245        -2.85782
LJ           3.54495       -0.352076        -1.72388
LJ           5.59507         4.88098       -0.980685
LJ            2.9781        -1.17354         5.29946
LJ          -5.86382        -4.45188        -3.25259
LJ          -2.23259        -5.32924        -3.05143
LJ           3.96368         3.28068         1.16643
LJ           -5.1843         4.35505        -3.85506
LJ          0.613225       -0.818007        -3.04981
LJ          -1.31384         3.52261         5.45603
LJ           5.44933         4.66968        -2.70684
LJ          -4.33129        -4.83512         2.10901
LJ          -5.75018        -2.87268         3.31807
LJ          -6.21775        -3.79987         4.24548
LJ           3.54158        -6.36058         2.61809
LJ          -2.88791        -2.29152         0.79661
LJ          -3.51265        -5.04171        -4.61895
LJ           3.41117         5.72986         6.04366
LJ          -2.54705         3.70182        -1.73252
LJ           4.26214        -1.28166        0.683788
LJ          -2.34971         0.88383         1.19063
LJ           0.89173        -1.24135       -0.182086
LJ          -5.13968          3.7372       -0.363995
LJ            6.0823       -0.519063         5.87098
LJ          -6.12107       -0.316783        -5.32156
LJ         -0.856105        -5.90755         2.04062
LJ          -2.08961         4.18255         6.27809
LJ         -0.200354         6.12185       -0.916424
LJ           6.45271        -2.91447          0.3008
LJ           5.96224         1.06961         6.26732
LJ           4.85062         5.26932         3.29464
LJ           4.48976         5.84007         4.16071
LJ            1.7149          2.8464          -6.111
LJ           2.00538        -6.14056        -3.51684
LJ          -3.75468        -3.22001         1.90628
LJ            1.0264        0.340998        -1.63294
LJ           -3.5167         5.10737        0.304394
LJ           3.36795         3.83508        -3.91868
LJ           4.63743         6.08361         6.03393
LJ           -5.9833        -5.19549          1.7938
LJ          -2.35254         6.17133      0.00336378
LJ          -2.32613        -6.29178        -6.07768
LJ          -3.21525         4.79943         4.62362
LJ           1.11506        -5.07966         5.49442
LJ          -4.44347        -5.98555         2.84971
LJ          -2.42579        -4.56537         -1.3559
LJ          -6.02311       -0.429135        -4.11813
LJ          -5.18396        -1.91383         -3.9027
LJ           3.12956          1.4777        -6.20701
LJ            5.5294         3.92976         3.69744
LJ          -2.22451        -1.60318        -2.71041
LJ         -0.520096        -5.60133        -6.07202
LJ           3.64444         1.19533         2.32208
LJ           3.09992        -6.38323        -4.07306
LJ            4.0512         6.02746        0.746641
LJ           -5.9372        -2.43113        -4.30265
LJ          -4.14557        -1.20422        -3.22504
LJ          -5.62094        -5.11282         -5.0894
LJ          -4.89565        -2.79129         1.53071
LJ          -1.83097        -5.50049         6.18974
LJ           3.40985        -2.71981       -0.433255
LJ           6.02428         -3.2295         3.30572
LJ           4.43493       -0.260542         2.10647
LJ          -4.82946         3.09373         2.76276
LJ       -0.00426692        0.779285        -1.45183
LJ          -2.90679         1.15591        -3.04328
LJ          0.955079         1.50619        -2.31291
LJ           4.20259        -4.55002          2.6695
LJ          -1.00402         1.67722         6.09227
LJ           3.74222        -6.27576         1.54017
LJ          -3.82214        -5.77139        -5.69019
LJ          -5.78643         2.38428        -1.89319
LJ           3.25854        -2.77651         5.63931
LJ          0.603757       -0.668806         1.50144
LJ         -0.976693         1.84846        -3.04996
LJ           1.14931       -0.590882        -3.90294
LJ          -2.36771        -6.31067        -2.85252
LJ           1.78718         -4.6303        -3.79004
LJ          0.967636        0.822554        0.603406
LJ          -5.44077         1.38041         4.99289
LJ          -1.57258        -3.41618         5.15946
LJ          -3.84566         6.02071         6.20385
LJ          -1.12396         2.06731         2.47441
LJ          -3.77964         -6.4455         1.91624
LJ           6.36395         2.41407         3.00459
LJ           3.17144         2.49662         3.83398
LJ          0.183872         2.54809        -2.24448
LJ            6.3219         4.08447         -5.6475
