108
#Comment!
LJ          -6.06373         1.10902         5.68536
LJ           2.26516        -3.98066         6.22407
LJ           4.34394       -0.394054         0.88523
LJ           1.07522         3.78792        -2.51893
LJ            -3.804         1.25438         3.59938
LJ         -0.884671        -2.92066        -4.15091
LJ          -3.50094        -5.84354         5.75251
LJ          -4.85099        -1.24948         5.18555
LJ           2.68728         2.78161         2.40237
LJ          -5.40754        -1.68469        -1.50252
LJ           2.70987        -2.70951        -3.53908
LJ           6.15874         4.88428        -6.27915
LJ         -0.560234         5.13001        -4.82628
LJ            5.7737      -0.0734324        -2.49893
LJ          -1.44332         3.01507         4.55938
LJ          -4.54738        -5.99369        0.188057
LJ           5.89644         4.53108         4.58438
LJ          0.263352         1.59817        -6.29522
LJ         -0.382884       -0.312452         4.71453
LJ          -2.88976        0.157255        -5.01908
LJ           5.83471        -6.11033        -2.57794
LJ           1.15544         4.42926        0.323574
LJ         -0.652379        0.746508        -2.89568
LJ          -1.42311        -5.23745        -4.88657
LJ           1.07691        -6.32201         5.63387
LJ          -5.77763         4.65112        -5.31579
LJ         -0.149933          2.1556         1.99314
LJ           3.64823         6.20685        -4.98916
LJ           3.10327         6.42676        -1.43359
LJ          -6.43213        -4.09513         6.32098
LJ           1.27801        -1.95954         1.17814
LJ           5.44548         4.29914        0.786684
LJ           5.89092       -0.933645        -5.55173
LJ          -5.86823       -0.412415        -4.05893
LJ           -5.0256         5.44704        -5.22418
LJ          -2.93884        -2.12361         4.16144
LJ           1.63476         5.44621         3.77934
LJ           1.13992        0.752322        0.448366
LJ           2.01918        -2.28963         4.18287
LJ          -5.65428         4.73155         5.45696
LJ         -0.703488         3.23399         2.32631
LJ           2.77519        -5.90334         3.69651
LJ          -1.95076        -0.78806         2.08859
LJ          -4.89828         5.71347         4.18458
LJ           -5.0548        -4.98725         5.54785
LJ          -5.83488         2.14709      -0.0617983
LJ          -2.47799        -1.50657         -3.9813
LJ           4.00589        -1.05257       0.0840854
LJ          -5.25367         2.72987        -5.59548
LJ           3.91352       -0.585438        -3.14142
LJ            6.4185        -5.43233         2.57026
LJ         -0.830321          4.7532         1.83308
LJ          0.717056       -0.132438         5.78692
LJ          -6.21604         1.67827         4.17392
LJ           5.30019        -3.96307         -5.6711
LJ           3.92159         6.13133          4.9387
LJ          0.579057         5.82725       -0.187847
LJ         -0.809706        -5.89149         1.07173
LJ           3.91528        -5.73576        -5.47114
LJ           -3.1509         3.88143        -3.07336
LJ          0.490052         1.18217         1.28662
LJ           -1.0281         5.76498         2.19955
LJ            5.3484        -4.72087        -2.37144
LJ         -0.620217         -4.8361       -0.366339
LJ           5.84948         1.94486        -5.17845
LJ          0.812984         2.68219        -6.11279
LJ          -6.27865        0.788664        -5.02218
LJ          -4.36692      -0.0941334         4.92843
LJ           1.71402       -0.518499         3.40001
LJ          -0.22665        -2.29509         1.57615
LJ           1.30281        -1.95802         2.79552
LJ           4.50816         3.96604         4.91713
LJ         -0.312596        -1.13855        -5.25742
LJ           2.33635         1.98022        -0.63492
LJ           3.74465         3.52846         5.69954
LJ         -0.533487       -0.937537          3.2212
LJ        -0.0280468        0.475055       0.0416765
LJ          -3.85509        -5.16194        -3.59359
LJ          -3.77027         5.82883         -4.2968
LJ          -2.27435        -2.57714         3.30246
LJ          -3.85066        -3.67893          2.5499
LJ          -1.76259        -1.68838         1.05359
LJ          -4.20862        -1.01769        -5.46561
LJ          0.234696        -0.28627        0.718333
LJ          0.395639        0.447799        -6.29345
LJ           1.75574         1.24439        -4.34812
LJ          -5.17081         0.41472        -5.97173
LJ           5.58021        -2.35604        -4.97411
LJ          -1.67197        -3.47615        -6.19399
LJ          -1.67754          2.3327         5.62688
LJ          0.968736       -0.897631        -6.23486
LJ          -2.55176        -3.45365         4.01663
LJ           2.14315       -0.786268         1.65677
LJ           2.23256        -1.85159         1.99103
LJ           2.64911        -5.94967         -3.1835
LJ          -5.36406          1.9302         3.57237
LJ           4.16879          4.0473        -6.44633
LJ          -3.40973        0.583006        0.272743
LJ           0.47894          3.3137         4.66625
LJ          -2.53575         2.24291        -5.43856
LJ          -6.09751        -3.19745          -4.197
LJ           5.95121         5.54446        -3.26677
LJ           1.90885        -4.35056         3.19823
LJ           1.24429        -3.41357         2.57342
LJ           1.57576        -4.56633       -0.103016
LJ           2.53671         1.90918        -3.34692
LJ          -2.99172       -0.585545          2.5625
LJ           4.56639       -0.679851        -1.57566
