108
#Comment!
LJ            3.8005        -3.98562        -1.74916
LJ          -3.93636        -3.24891         -2.7028
LJ        -0.0765272         1.27835        -1.35308
LJ           1.61818         -0.9321       0.0610228
LJ          0.491334        -3.92768       0.0176445
LJ              3.31         2.66817        -6.12129
LJ           -5.9652        -1.34234       -0.138974
LJ          -5.21291         3.12177         4.18384
LJ           2.99724         1.13623        0.641204
LJ          -4.64469        -3.45578         6.45564
LJ          -2.73377         3.97807         6.15884
LJ          -1.35936         3.74367         3.81369
LJ          -2.23197         3.19978         5.44179
LJ          -5.88056         5.51448        -2.33672
LJ           3.39507         4.41187         5.49107
LJ           6.07827        -5.26858         3.14623
LJ           6.31234        -2.95634        -0.68638
LJ           3.69549         6.33178        -1.52306
LJ           2.18162       -0.364922        -2.76572
LJ           1.76357         5.25108        -5.22146
LJ           3.25057        -2.03351         1.28637
LJ          -1.89443         5.95918        -1.02772
LJ           1.66401        -3.20484        -2.91473
LJ          -3.72034          5.5379         6.05381
LJ          -1.15823        -3.45677        0.302549
LJ          0.918567       -0.515409         3.03355
LJ          -5.83467        -3.30489        -5.12391
LJ           -5.1182       -0.526007       -0.872384
LJ          -5.65188        -3.71438        -3.31025
LJ            3.1639        -2.72872         3.46468
LJ           1.92156        -4.76646         1.32969
LJ          -2.08904         1.62954         4.92494
LJ          -2.21801        -4.28078        -3.17414
LJ          -4.05952        -2.93908         5.44183
LJ            2.1664          1.5236         4.53336
LJ          -3.94001         1.35908        -4.03969
LJ          -2.84059        -3.24117        -3.04092
LJ          -5.53571        -5.93339        0.204849
LJ          -4.28154         5.97137        -4.68429
LJ          -2.74994        -5.94025        -3.29369
LJ          -4.24754       -0.163054        -1.51181
LJ           1.19247         1.35281       -0.514088
LJ          -4.75837        -3.19347        -5.24314
LJ          -1.06765         1.84142         5.42016
LJ          -6.23962         3.41228         2.14266
LJ          -6.31396         5.24491        -3.39608
LJ           6.22988        -4.20699         3.34341
LJ          -3.38607          2.5084         5.26178
LJ          -1.82163        -3.77396        -5.18345
LJ          -4.33796          3.6224         3.78412
LJ          -4.62394        -5.43813        -2.87277
LJ           4.64859         4.42508        -2.80822
LJ           4.77089         4.07143         3.20797
LJ           4.34686        -5.85813        -4.68795
LJ           4.10344         3.90086         6.30328
LJ         -0.202824        -3.11934         1.30975
LJ           -1.2096         4.74246        -5.95049
LJ          -2.71025        -5.01686        -4.35256
LJ         -0.112147        -2.12959        -1.97514
LJ           3.18671        -4.90546        0.236978
LJ          -6.46189        0.875606         -4.2542
LJ           3.60134        -5.54405        -2.36496
LJ           3.24113        -4.48666         3.55237
LJ         0.0284735         4.29934        -4.27096
LJ           6.11159         4.23498         1.46483
LJ          0.559513       -0.400034       -0.580557
LJ          -4.26002        0.938473        -2.48884
LJ            3.7962         3.04431         1.33166
LJ           0.30409        -3.29472        -2.77595
LJ           5.20483         3.84422         5.36357
LJ          0.854697         2.28559          5.7996
LJ           2.41034        -2.76967        -5.45171
LJ         -0.120261         1.71823        -5.65073
LJ          -5.10636        -4.79958         2.74855
LJ          -5.68543        -2.49263        -5.83081
LJ           3.18035         3.62928         4.34281
LJ         -0.663109        -5.18805         5.74517
LJ           4.39751        -4.69169        -5.64411
LJ           -1.7641         6.28469        -3.89684
LJ          -2.07953        0.494921         3.46013
LJ           3.01123         2.15885         2.47819
LJ           5.71463          3.1427        -4.59466
LJ           1.51101        -5.63128         -1.5376
LJ           2.72639        -2.30037        -2.21111
LJ        -0.0628955        -1.86781         6.16046
LJ           5.90782        -3.30887        -2.75347
LJ           5.09106         4.27936         1.92551
LJ           2.08581        -0.61045        -4.66669
LJ          -3.66784          6.4273        -3.24358
LJ           -5.3283         -4.7165         3.92833
LJ          -4.23001         1.51583         5.17534
LJ           1.64156        -1.95689        -2.32666
LJ         -0.915322         2.04388       -0.595768
LJ          -5.29483        -3.87658         4.49379
LJ          -5.28843        -4.76318         6.29837
LJ           5.52987         1.57155       -0.710058
LJ          -5.18631         1.17354        0.387245
LJ            3.7136        -1.82172        -5.52341
LJ           2.02791         4.35622        -3.17852
LJ          -3.26936         3.13008         6.30527
LJ           2.92665         1.09012         2.39643
LJ         -0.809822         5.70091        -6.29423
LJ           4.09928        -3.06351         2.26381
LJ           1.81406         2.66612        -4.02793
LJ          -1.74644        -6.16439        -2.15097
LJ          -1.02022        -2.60316        -5.12973
LJ           6.03762        -5.24755        -5.48789
LJ          -4.48753        -5.07274         1.74575
