108
#Comment!
LJ           2.95942         3.05112         4.35896
LJ         -0.561498       -0.340427         2.89461
LJ          -3.38438        -5.91625        -4.88319
LJ          -4.15205          4.4123        -5.03971
LJ          -2.23683         4.10174         5.10536
LJ          -3.98629         4.47855        -3.68108
LJ           -3.6063         3.88194        -1.89869
LJ          -6.22999       -0.349489         3.30631
LJ           2.12469        -5.70742         4.56448
LJ           5.88337          -1.609       -0.583697
LJ           2.84739        -1.30795         3.11459
LJ          -1.31014         2.60813          3.3867
LJ          -6.40037        -4.04492         5.23904
LJ           2.64922        -4.18693        -2.81921
LJ          -2.25974          -5.804        0.190596
LJ           -4.2697         5.57293        -6.21276
LJ           2.79558        -1.58071         4.74614
LJ          -5.88928        -1.22086        -3.11429
LJ            3.4526         1.48065        -2.64017
LJ          0.885755         3.90264         1.42593
LJ           2.79115        -1.71022         1.19014
LJ           2.96629        0.447503        -2.52866
LJ         -0.628873      -0.0289461        -2.87912
LJ           2.58883         3.50217       -0.397498
LJ          -1.47151         1.49192         4.54634
LJ          0.195723        -0.34879       -0.822744
LJ           2.98925         1.92508        -4.21834
LJ            1.4777        -3.77534         4.39085
LJ          -6.19452        -5.22772        -5.49651
LJ          -3.53812       0.0179838         -5.2329
LJ          0.841997           1.844        -4.61371
LJ           1.50111         2.81592        -6.19351
LJ           2.71558         3.41071         1.34292
LJ          -3.75668         1.22275         3.32346
LJ         -0.229095        -1.81201       -0.803607
LJ          -2.81909         1.65432          3.7582
LJ           2.18706         5.81399         -2.7232
LJ          -2.35497        -5.06327         3.76138
LJ          -3.52663         3.61119          6.2692
LJ           6.32499         -2.8097        -1.34415
LJ           5.63447        0.576466         5.07113
LJ          -5.24506        -2.45092         -6.3505
LJ          -4.94005        -1.41477         5.63965
LJ             -1.62         1.88815        0.439459
LJ          -4.86497        -3.99324         6.36434
LJ           2.67265        0.386287         5.61206
LJ          -5.56464        -1.95143        -2.11212
LJ           4.33463         1.39629         -1.9344
LJ           4.50886       -0.922456       -0.179596
LJ           4.54296        -3.12271         1.24529
LJ          -4.19928       0.0849698        -4.02306
LJ           5.91836        -1.32698        -3.21677
LJ          0.204703         5.49147        -2.12475
LJ          -5.66093        -4.75345         0.17088
LJ          -3.62937        -3.21275         2.12464
LJ          -1.40844         6.24773         6.15009
LJ           1.36976        -1.34369         5.79863
LJ         -0.547308        -2.75588         5.49055
LJ           3.95408         1.32166       -0.486885
LJ           5.13595        -1.06974        -5.61662
LJ          -3.48829         5.17607         3.83379
LJ          -3.16363         1.66867        -3.13117
LJ           5.65435        -1.01716         3.84631
LJ         -0.266232        -1.63123        -4.01182
LJ           5.90686        -1.81702        -1.47372
LJ           5.29444        -3.77207         4.28147
LJ           1.31781        -3.20152        -3.56972
LJ         -0.372426        -5.45621          1.9399
LJ          -4.76056         3.27739         -5.7266
LJ          -4.36641         1.55351        -5.43491
LJ         -0.484517        0.613414         3.41659
LJ          -3.83513        -5.34435       -0.865463
LJ          -4.75305        -5.30805         4.74304
LJ           3.41881         -2.6621        -5.88738
LJ       0.000556251         4.40661        -1.94774
LJ           1.83839         1.04742        0.255744
LJ          0.750186         1.67348         5.71616
LJ           1.21221        -4.38635          3.0585
LJ          -1.97113         5.33097         2.02844
LJ           6.16766         5.80062         6.34952
LJ          -5.11856         6.44362         1.46306
LJ           3.89483        -6.16233         2.56373
LJ         -0.654884          0.9682        0.748689
LJ          -4.89087         1.12367         1.50636
LJ          -3.10644        -2.56803        -0.65772
LJ           1.67706         2.75004         1.87015
LJ          -4.65985        -1.78345        -3.69554
LJ          -3.82395         5.01482         5.73499
LJ          0.262706         -1.7586        -2.50538
LJ           2.68806        -3.50933         1.62681
LJ          -4.89456        -4.54694        -5.13716
LJ          -5.93857         1.99619         2.38765
LJ           4.80338       -0.803678        -2.65479
LJ           4.96123         1.56747        0.441861
LJ           2.13553         4.48717        -6.01163
LJ          0.595721        -6.15865        -5.18305
LJ           -4.5148        0.540319         3.24321
LJ           4.47613        -5.18443        -5.14494
LJ          0.517971        -2.21883         3.40784
LJ           3.65757          6.0783        -5.59587
LJ           3.99564         5.11348          5.1442
LJ          -5.46559        -1.35555        0.411452
LJ           1.55161          4.3398       -0.898289
LJ         -0.672568       -0.546188         4.18356
LJ           6.04535         5.24067         4.29515
LJ           4.09509          3.0881         5.85996
LJ          -5.62309         -1.5556        -5.27241
LJ           1.48979         1.85264        -1.73112
