108
#Comment!
LJ           -4.3743         1.82528        -5.73724
LJ             4.298        -6.10917        -2.06226
LJ           3.36244         4.63428        -3.84831
LJ          -2.52561        0.985009         -5.3836
LJ           2.69343         5.97379         4.83998
LJ          -3.02353        0.996043        -6.36789
LJ          -4.50167         3.39887        -5.08998
LJ           1.01999         4.76631        0.817281
LJ          -5.82569         1.77235        -1.89775
LJ          -4.84039         2.25267          4.6811
LJ           4.35105        -2.36541        -5.54922
LJ          -6.44582         -6.1467        -4.91142
LJ          -1.42873        -1.28351         -2.8194
LJ       -0.00500933          2.5395        -4.07319
LJ           4.23186        -1.01727        -5.95865
LJ          -4.14196         1.25297         2.85256
LJ          -4.77809       -0.711018         1.10235
LJ          -1.26152         4.00528         1.84537
LJ         -0.120127        -1.30597        -1.95309
LJ           3.74083       -0.287591         5.09772
LJ          -1.84905         5.22129         1.35037
LJ          0.760244         5.59453         2.16666
LJ           2.63134         4.68464        -5.92752
LJ         -0.690192        -6.01039         6.16435
LJ            4.5144         1.97724        -1.59644
LJ          -5.44413        0.295669         3.72883
LJ          -3.28486         3.89072          5.7429
LJ          -2.44985        -3.64703        -1.57186
LJ           4.41863         2.10686         5.63973
LJ           2.31575         2.04954         1.46915
LJ           5.04855        -3.90271       -0.985092
LJ           6.13909        -6.00886         1.63143
LJ          -1.95092         4.77008         6.06972
LJ         -0.839868        0.641904         4.24189
LJ           1.17023        -1.46795        -3.09497
LJ           5.82964         1.43175         1.13333
LJ           3.70923        -1.38632         2.99273
LJ          -5.71497        -5.17045       -0.145291
LJ           5.26003         4.77344        0.242706
LJ         -0.152424        -6.02211        -5.77658
LJ         -0.620481         -5.9759        -4.56965
LJ          0.807941        0.285765        -5.74764
LJ           3.59574       -0.823966        0.150903
LJ           2.09416       -0.149897          6.0216
LJ           4.57105         3.97606         4.05839
LJ          -1.22841         4.88155        -2.99728
LJ             5.047        -3.97106        0.637519
LJ           2.12333        -5.68834         6.11972
LJ           4.77228        0.813271        -5.76647
LJ           4.30567         3.67679        -4.27261
LJ           2.50064         -1.0146         4.52602
LJ          -5.33053         1.63778         3.88837
LJ          -2.35963           3.967         2.32995
LJ           1.20823       -0.591696        -4.13215
LJ            5.8519         5.23325         2.82081
LJ         -0.930168         4.89601        -5.89945
LJ          -1.86599         2.79208         5.72813
LJ          -2.27346         1.13874        0.414819
LJ          -5.39645         3.22869         3.26617
LJ           -5.6716        -4.06582        -5.20951
LJ         -0.434226         2.96221        -1.09486
LJ            -4.009         1.66409        -4.42239
LJ          -2.46802         5.49213        -1.56469
LJ          -6.22258         1.80075         2.14399
LJ           5.41986         4.44953         3.91823
LJ          -4.26855         3.70964        -1.49761
LJ          -5.86501         3.72971         2.14679
LJ           5.46956         4.62158         2.06378
LJ          0.177317        -5.15427         3.04924
LJ          -6.00196         2.74777         2.67523
LJ          -6.16528        -1.87317         5.42435
LJ          -0.77345         4.88141         1.81686
LJ           -4.8844         3.54373         5.42018
LJ          -5.09548        0.678879         2.35852
LJ          -2.95149        -2.18777        -3.51579
LJ          -4.44115          6.0891        -4.64217
LJ          -4.36995         4.01051         1.85017
LJ           5.47451         4.30288          5.1523
LJ           1.73923        -4.91273         1.24251
LJ        -0.0144711        -5.12026         4.27411
LJ           5.29168        -1.27764         0.20879
LJ           3.34419        -1.50058        -3.38511
LJ          -4.49493        -5.25771        -1.32412
LJ           6.12319         -1.2503        -3.88577
LJ          -2.33571         3.03136        -5.66575
LJ           3.62102         2.82889         5.45651
LJ          -3.91994       -0.504169         2.48758
LJ          -6.30279         3.02447         1.31434
LJ          -1.08686         6.17494        -2.04575
LJ           3.93942         5.20071         6.02053
LJ           5.17602         5.27186        -6.06437
LJ           2.13673        -6.02075        -2.37879
LJ           3.25295         6.24798         3.31988
LJ          -1.76983        -1.07608         5.47999
LJ          -3.07752         4.34166         1.27953
LJ           3.90888         4.21082        -1.84178
LJ          -3.51391         5.70284        -2.45594
LJ          -1.92513         4.04278         5.16826
LJ           1.58461         5.78608         1.60504
LJ           6.13218       -0.840073       -0.303514
LJ           5.17333          3.8848        -5.59727
LJ           2.36498         5.05626         1.31077
LJ           4.99437        -6.28546         4.29007
LJ           2.29821         1.85679        -1.96938
LJ          -4.34681         1.65108         4.20745
LJ          -1.18798        -6.22533          2.7415
LJ          -2.16445         1.13839         2.70778
LJ          -2.47577          5.5792        -3.13497
