108
#Comment!
LJ            4.1688        -5.16738       -0.502248
LJ           3.58551         5.00446        -5.15412
LJ          -3.56686         1.34074         5.95885
LJ           3.71047        0.254374         5.73338
LJ         -0.849829        -2.74346        -4.80609
LJ           4.17244         4.87517        0.148152
LJ          0.359635        -1.47134        0.138166
LJ          -1.39705        -5.17907         1.80871
LJ          -3.36791         3.32198        -0.62047
LJ             2.265         4.42017         5.30429
LJ           5.47347        -3.41893       -0.926538
LJ          -2.17255         1.94532        -6.06086
LJ           -3.5772        -5.89715        -4.04451
LJ          -3.99742         1.83414         2.42302
LJ          -3.49564       -0.992654         6.15569
LJ          -5.41639        0.887026        -3.10381
LJ           2.85525       -0.616856        -5.07844
LJ      -0.000173209        -3.26874         2.01277
LJ            3.4112        -3.36943        -5.23835
LJ           3.19119         2.14806        0.920554
LJ           3.77637        -2.67042        -3.56694
LJ           2.86691         4.33075       -0.834543
LJ          -3.54438       -0.316902        -3.05509
LJ           4.90411         2.61611         2.46846
LJ          0.107622      -0.0262363         0.88002
LJ           1.76879        -1.32309         4.90157
LJ           4.84107         4.89166         3.90217
LJ           1.39145        -1.73614        -5.34429
LJ          -4.97688        -4.21776        -2.48013
LJ         -0.546923         1.12406         6.02754
LJ            0.5323         4.40042        -1.86367
LJ         -0.758281         6.08848        -2.09655
LJ           4.79276        -2.33681        -2.18283
LJ          -4.82321        -4.92786        -5.41021
LJ           3.56691         6.08549         3.07595
LJ          -5.44636         3.55709         5.37835
LJ           5.97823          4.0288        -5.63026
LJ           3.74712         2.10856        -5.58246
LJ          -4.24753        -3.31967        -2.47082
LJ           2.60551        -2.03539        -1.46513
LJ           -4.8977         5.27396        0.849069
LJ          -6.42529        -3.14457         6.00373
LJ            3.4882         1.94144        -3.68766
LJ           3.76165        -1.94692        -2.85123
LJ          -1.96532        -5.48199           3.584
LJ           5.59206         3.90735         3.72803
LJ           6.07957        0.835841        -4.90462
LJ           3.14118        0.809361         4.70424
LJ          -2.57549        -3.42424          2.1914
LJ           2.70265         -2.8617         3.14606
LJ         -0.834303         4.23655        -1.22382
LJ          -4.55856        0.709673        -0.66759
LJ           5.32305         3.11442         5.82715
LJ           1.52473         4.95691        -6.45496
LJ         -0.817174        -6.00699        -2.60728
LJ          -2.07344         6.10635         1.54202
LJ          -4.88387         1.67514         4.86179
LJ           3.09083         4.72891         6.25366
LJ           4.09114        -5.22541         4.08184
LJ          -3.10959        -2.09851         5.81224
LJ           -1.7716         2.16095        -4.30983
LJ           -4.1226         5.28108          1.5336
LJ           2.62563         3.15459         5.94593
LJ          -4.79088       -0.609188        -4.42844
LJ          -4.45181        0.736938        -4.11784
LJ          -5.78777         3.00063         2.58207
LJ          -3.43729         5.05169         2.51597
LJ           5.64822         6.02554       -0.139685
LJ          -1.97155          3.4007         1.29469
LJ          -3.96547        -2.48529          1.7462
LJ          -1.85913       -0.170379        -5.27458
LJ          -0.46721        -3.29205        -2.42034
LJ          0.619616         3.46244        -3.89409
LJ          0.566884         3.36313         5.65723
LJ           2.36562        0.888425         3.98007
LJ          -4.85836         4.81605        -3.44814
LJ           4.37895          4.4574        -5.84908
LJ           5.39149       -0.878975        -5.49431
LJ          -2.90073         6.42565        -3.27312
LJ           -4.8412         3.68731        -4.66227
LJ          -4.56232         2.62854         5.66182
LJ          -1.96274         2.92279         2.14577
LJ          -1.12441        0.680171        -5.02768
LJ           2.94701         5.98849         3.96636
LJ        -0.0829604        -2.05389       -0.611608
LJ          -1.97567        -6.10012        -4.53452
LJ           6.45066         1.63357        -5.72808
LJ           3.20208         1.23355         3.29939
LJ           1.92743        -2.53068       -0.588433
LJ          -0.67101          2.8439       -0.857792
LJ          -1.28363        -1.94296         3.04307
LJ           3.63474         3.76079         3.42157
LJ          -5.06603         2.42742         -5.2196
LJ          -6.05644       -0.751199         1.46173
LJ          -1.17195         2.16287        -5.46657
LJ          0.523696        -2.22054        -6.20018
LJ           2.04166         1.99007          3.2714
LJ           2.44137        -3.37519        0.171706
LJ           1.01451          -5.346        -4.99582
LJ           6.38906        0.317143        -3.92404
LJ          -3.93511         3.25212         1.34387
LJ           4.19809         1.13775        -2.81304
LJ          0.746155       -0.830507        -2.81047
LJ           5.79995        -2.32521        -4.18124
LJ          -4.05725         2.78308        -6.05388
LJ           3.87752        -4.88754        -4.84457
LJ          0.174151         1.44111        -2.97947
LJ          -6.02025         4.67905        0.415964
