108
#Comment!
LJ           4.88812         4.45405         3.23606
LJ           6.13045         3.30303        0.247206
LJ           3.41857         1.64147         4.08477
LJ           5.19622        -5.95052        -4.84443
LJ           5.11933        -3.46058        -3.30674
LJ          -6.44392         4.67515        0.706993
LJ           2.79196        -2.19568        -3.80359
LJ          -4.71328         2.78725         2.00438
LJ          -2.10764        -2.34112       0.0781545
LJ          -0.73756       -0.590461         5.93726
LJ          -2.37402        -5.41155         0.14708
LJ           5.66744        -2.67218        -4.93125
LJ           1.07095         -4.1493         3.89758
LJ          -2.12364        0.266074         3.40832
LJ           1.81029         3.56697      0.00734228
LJ          -2.15761       -0.515976         5.43836
LJ           6.12828         3.70998        -1.36545
LJ          -2.80672         0.79468         1.31038
LJ          -1.19222         6.31001         2.58553
LJ          -2.25626        -2.77089         4.88551
LJ          -4.93143          4.8497       -0.654536
LJ          -5.83565         4.65497        -3.72638
LJ           1.25833        -4.27484       -0.221176
LJ          -2.22961       -0.919924        -5.12044
LJ          -3.87321         4.51851        -1.96987
LJ           -3.6912        -1.66257        -1.44938
LJ          -6.05307        0.593003        -4.42227
LJ         -0.647612         4.90094          5.1515
LJ           -2.3666         5.57805        0.317344
LJ          -1.67965        -2.93305         1.10786
LJ           5.34623          1.1572        0.616994
LJ           -2.4162         4.57026        -5.57599
LJ         -0.590099        0.267096         1.70567
LJ         -0.912151         -1.1593        -3.80692
LJ          -4.26399        -3.60906         3.67019
LJ           2.53978        -3.56035         5.74274
LJ          -3.83595        -5.63608         4.58018
LJ          -1.74206        -4.50943        -5.33726
LJ            3.1584        -5.27809        -3.88496
LJ          -4.63628        -1.38123        -2.01096
LJ          0.614149          6.1442         3.73264
LJ           3.03809        -6.04849         -1.1961
LJ           4.72723         4.42478         -2.1962
LJ           1.14197        -2.67313         4.70173
LJ           4.88249        -3.95831        -5.58684
LJ          -5.50327        -4.63705      -0.0737686
LJ           2.67643        -1.06747        -1.43439
LJ            4.1188        -3.28327        -4.97805
LJ           6.39801        -1.81637         3.85217
LJ           2.49954       -0.891883          3.5536
LJ          -3.33182         5.83823        -5.94351
LJ         -0.370082         1.27709        -6.01841
LJ          -4.71556         5.66843        -5.61151
LJ            1.8736        -3.51784        -3.60693
LJ           1.58126        0.917165        -4.20599
LJ          0.130218         1.55646        -5.16561
LJ          -5.72485        -2.69197        -4.80938
LJ            1.0195        -1.67228         5.77145
LJ          -0.92199       -0.634826          -6.062
LJ          -3.16927       -0.851542        -4.79902
LJ          -4.86686        -1.30295       -0.606008
LJ           3.80118        -2.95511       -0.559956
LJ          -4.95217        -1.41437          3.4599
LJ            5.7615        -1.78389         2.23376
LJ           5.20044         3.84535         1.03433
LJ            -1.482         4.95269       -0.573716
LJ           4.87244        0.737384         1.52163
LJ          -4.83559         3.97887         2.51779
LJ           4.92331        -4.34302        -1.15286
LJ          -4.46457       -0.244493         3.95254
LJ           6.22544         1.07571        -3.52723
LJ           3.22349        0.435274        -1.92679
LJ          -1.75644           3.345         -3.4157
LJ           5.62324           4.984        -1.63283
LJ          -1.94454         3.32836         4.75848
LJ           6.31828        -2.18889      -0.0182558
LJ           4.09858          5.9902        -1.32871
LJ           5.52441         1.13956         3.11423
LJ          -6.45078        0.714059        -2.38158
LJ          -1.62751        -4.00131         3.01181
LJ           5.95453         2.52824        -2.58398
LJ           1.49142         2.28738         2.58427
LJ          -5.32052        -5.80945        -6.12661
LJ          -1.50151        -1.81147        -6.44822
LJ           6.30066        -2.97669        0.775394
LJ          0.502044         3.59381         6.22122
LJ          -3.42869         2.85962      0.00172953
LJ          -2.40893         2.15024       -0.238784
LJ          -5.49205         0.19608        -6.01186
LJ           2.71738        -3.24933        0.552881
LJ           6.07161       -0.764468         4.89503
LJ           2.83049        -3.73552        -1.77704
LJ           2.03017         4.96737       -0.217387
LJ          -5.20423         2.10221         -1.0979
LJ          -5.65777         2.84303        0.947485
LJ           3.90653         1.82125       -0.394574
LJ          -6.00166        -4.56601         6.41505
LJ          -3.62839         3.96109          0.1677
LJ          -0.64542         1.97936        -2.25772
LJ          -4.51074         2.51325        -4.08593
LJ           4.43143          3.5189         4.14688
LJ           2.78861        -4.37848         5.09336
LJ          0.084462        -2.61572       -0.832031
LJ          -4.10426        -1.75397         1.78242
LJ           1.57929         5.14303        -3.67654
LJ          -1.43666          3.3314         2.33154
LJ            4.8721        -3.69712        -2.25825
LJ           2.06059         4.25845        0.809468
