108
#Comment!
LJ           4.15952       -0.223949         2.34942
LJ           4.87486        -5.17445         4.11385
LJ          -5.98782        0.255719        -3.70154
LJ          -1.40929         5.17391          6.4126
LJ          -1.07273         3.22301         6.16295
LJ            4.9695         3.08987         4.15056
LJ           0.13748         2.15723         0.79188
LJ          -3.71738         5.70839         3.45855
LJ          -2.33619         4.11469         5.13527
LJ          -3.50658         3.25504        -5.94486
LJ           1.23591         3.10619         4.02104
LJ           5.56111        -3.37473         4.55335
LJ          -4.04663       -0.508467        -5.54662
LJ         0.0291715        -0.19969        -1.85321
LJ           5.87557         1.81883         1.87256
LJ           1.96652         4.27436         5.24807
LJ          -2.20364        -5.00857      -0.0819166
LJ          -3.79745       -0.582972        0.496365
LJ           2.35417        -2.74331         1.15293
LJ          -4.86293        -2.08428         3.04286
LJ           3.49499         3.72777        -6.08425
LJ            6.3855         2.21085         4.44159
LJ          -1.53539         3.35341         4.64208
LJ          -2.82572           6.062        -5.32382
LJ        -0.0941698         4.14496         4.92272
LJ         0.0690657         2.55076        -2.03926
LJ          -3.17765         2.40508         6.25447
LJ         -0.123024        -3.22658        -5.64397
LJ           4.32862         4.87416        -4.79408
LJ           3.76115         3.65907        -4.44883
LJ          -2.79222         5.91553        -3.23756
LJ          -3.29142         1.80892         4.52915
LJ           4.94516          0.6272         1.58143
LJ          -3.68356         5.31495         -1.9334
LJ           2.40026        -3.91102         1.29065
LJ          -2.16861         4.13869        -5.25048
LJ           -2.9138        0.742929        -4.53135
LJ          -4.14938         3.32038         5.00835
LJ           -2.4629        -3.64757          1.2959
LJ          -3.05559      0.00289252         3.81247
LJ          -1.99967        -4.45261         4.21064
LJ           3.80027         1.16757        -2.40717
LJ          -4.06559        0.527955         5.64593
LJ          -1.73211         2.19512         4.68739
LJ          -2.74491        -3.17684         5.85607
LJ          -6.40225         2.59589       -0.289005
LJ           4.57936         1.35429        -5.23892
LJ           1.35422        -5.29736         6.18928
LJ         -0.299857         4.15953        -2.55986
LJ           1.83977        -5.53526         3.31418
LJ           5.29638         4.35759        -4.45366
LJ          -0.69395         -4.6723        -1.78159
LJ          -2.83539       -0.840362         2.87514
LJ           5.10653         2.66725        -6.45375
LJ           2.64239         3.88434        -2.06818
LJ           -5.5416        -2.94782         3.95318
LJ           -6.2714         3.20814         3.82629
LJ           4.21179        -1.23541          4.0951
LJ         -0.531991        -3.79214         1.60635
LJ          -2.55079         3.07105         5.90107
LJ           2.09176        -5.34304         -1.1608
LJ           2.71881        -1.13528        -2.73759
LJ          -5.19713        -1.11069       -0.374435
LJ          0.617569         5.09906         5.28827
LJ            4.1577         5.56034        0.697991
LJ          0.128429        -5.40691         5.13058
LJ           1.86062        -2.75228        -4.04954
LJ          -5.06763         4.72242        -1.92434
LJ          -2.01622         6.20751        -2.51686
LJ          -3.76035         3.42371        -3.23507
LJ         -0.031151        -5.50581         6.29309
LJ          -3.27007        0.427113         1.72389
LJ           1.15028         3.79633        -2.90439
LJ           6.26077        -4.45594         1.04279
LJ           1.11008       -0.715308         1.50205
LJ           1.81295        -4.58054         3.96808
LJ           4.41199        -5.25747         -5.8718
LJ           6.17117        -2.02078         2.56773
LJ          -5.31357        -1.42856         5.67262
LJ          -1.32767         -4.9303         1.26557
LJ          -3.58759        -1.36044         5.52033
LJ           4.05668         1.19567         1.94765
LJ           1.89208        -6.12433        -4.17568
LJ          -4.80982        -6.32997        -5.25522
LJ          0.343382          5.4488        0.866354
LJ           2.40929         1.41033         5.10694
LJ           6.24293       -0.390006         2.01816
LJ           -4.5345        0.582954        -6.01485
LJ         -0.420425        0.329702         4.17199
LJ          -4.70595       -0.369562        0.420224
LJ          -3.97616         1.74491         6.05852
LJ           2.12907         0.19812       -0.315149
LJ           4.72113        -2.87455         4.34685
LJ         -0.193687         4.43218        -3.69093
LJ           0.88027          6.2801         3.03901
LJ          -1.04171         4.92476        -5.00771
LJ           1.92185         1.98002        -3.19209
LJ          -3.49621        -1.85542          3.7025
LJ        -0.0760544         1.23055        0.495196
LJ           -3.4622         2.38678        -0.23304
LJ          -2.45553         4.97068        -3.54204
LJ           5.44326         1.96808         4.68493
LJ          -5.01801         3.94757         5.82486
LJ          -4.66895        -4.55131        -2.71102
LJ          -5.57795          4.5389         5.05897
LJ          -1.63129          3.8173        -3.97543
LJ          -5.53918        -1.03535         2.45541
LJ          -6.44595         5.24494        -4.93117
