108
#Comment!
LJ           4.04194        -2.45294         3.43628
LJ           6.13537        -1.39733         2.84785
LJ           4.70108         -3.4582         -3.2248
LJ           5.58804         0.60862        0.771371
LJ            3.2264        -1.85014         3.86369
LJ           1.04619        -3.42804       -0.794045
LJ          -5.41959        -3.91917        -3.98669
LJ          -2.78941          5.2379         5.13662
LJ            1.8457         6.29296        -1.57897
LJ          -6.45896        -2.53525         3.52706
LJ          -1.81636         5.50135         5.29252
LJ         0.0180989         1.90345        -3.81117
LJ           1.13006        -2.71826         5.25057
LJ           4.17964        -3.16806         4.15869
LJ           5.11211         2.29032       -0.564739
LJ          -3.65536         4.52406         4.21907
LJ           4.48583        -6.11947         1.23345
LJ          0.102846         2.99593        -1.66436
LJ          -4.89682         0.70079        -1.32078
LJ           1.14389         3.48171        -3.09985
LJ          -4.50985        -2.38524         2.57097
LJ          0.565713          3.4584         4.05658
LJ         -0.797093         3.95464         6.01776
LJ           2.03636        -4.39311        -5.06987
LJ          -1.22979         6.25074        -6.14936
LJ           -4.4913         5.43362        -4.65129
LJ           3.49359         6.22029         2.78508
LJ           3.32651       -0.322568        -4.49745
LJ           1.18152        -5.04726       -0.206466
LJ           2.47234        -5.84002        0.941954
LJ           1.36456         -2.8228         2.45755
LJ          -3.45041         5.70317       -0.351026
LJ         -0.890955        -1.06682        -5.94781
LJ           3.61635         1.44126        -3.57698
LJ          -5.86135        -6.10264        -1.60491
LJ         -0.552712         6.07457         1.47777
LJ           5.23878        -3.77322         1.79923
LJ          0.814244        -1.34049        0.488423
LJ           4.11349        -4.58077         4.53828
LJ           4.67836         5.60824        -1.70932
LJ           6.28639         2.02853        -1.70163
LJ           1.91605       -0.144149        -1.71557
LJ           -2.9031         6.03874         5.84513
LJ          -4.88918         4.94149       -0.686227
LJ          -2.50409        -4.38932          3.1553
LJ          -4.44751         2.47467         3.28899
LJ          -2.69991        -2.19109         6.26677
LJ           5.46085        -3.71722        -1.34499
LJ           2.59901        -3.65416         4.85439
LJ           3.09826        -3.91706       -0.633176
LJ           6.19449        -3.48688         4.70802
LJ         -0.176692       -0.645514          1.8688
LJ           3.17233          5.6147        -1.77734
LJ           6.41518         4.61268         3.33706
LJ           5.64633        -5.19221         4.37119
LJ         -0.391219         5.29789        0.619757
LJ           3.30799         2.69319        -5.10107
LJ           4.25015         4.59164         3.68923
LJ           1.98915        -5.09542         1.35479
LJ          -6.17448          6.0975        -2.86503
LJ           5.20452        -1.16002         5.87847
LJ          0.521924         5.13841         1.87991
LJ           2.43517        -5.58602        -2.23902
LJ          -2.18497        -3.92446       -0.201729
LJ           6.08993        -2.07672        -1.09156
LJ           3.29998         3.33134          5.3329
LJ           6.08917        -2.56018        -2.89358
LJ           5.72369         1.00594        -1.08031
LJ          -0.68332        -5.27237        -5.48125
LJ        0.00569631        0.506042         2.61997
LJ           4.88174         3.87575         3.22037
LJ           6.13066        -5.92092       -0.132949
LJ              1.88         2.30093         5.79262
LJ          -2.00729        -2.68543         4.89439
LJ           6.32798         5.19107       -0.122514
LJ           3.46033        -3.01425        -5.60173
LJ        -0.0840562        -2.72037       -0.867067
LJ          -2.06175         4.17461         1.05371
LJ          -5.68494         2.54309         2.45727
LJ          -5.80524       -0.266875        0.609236
LJ          -5.48976        -5.97434        -6.45331
LJ           4.49134       -0.743039        -1.45077
LJ          -5.89824        -4.21173        0.590187
LJ           1.16797         1.92977        -3.52429
LJ          -0.39591         3.75334         1.59492
LJ           3.44278         2.50936        -3.86724
LJ          -5.42873        -1.12175       -0.687931
LJ           5.59108        -4.14498         5.20361
LJ           3.02188        -4.11505        -4.80461
LJ          -5.50117         4.17314        -5.31466
LJ          -3.35498       -0.467649         5.48531
LJ           5.37506        -5.93143         2.00017
LJ          -5.49402        -2.36528      -0.0230309
LJ          -1.74714         2.46177         3.20073
LJ           1.98189            5.63        -2.51954
LJ          -5.13852         3.45181         2.59205
LJ           1.44325        -5.13639         3.33989
LJ           -3.7285        -6.43912         3.27811
LJ          -2.19494        -2.80536        -6.00147
LJ          -2.14943         1.88292        -4.59054
LJ          -3.51237        -4.31751        -3.34766
LJ          -5.49675         4.57061         4.00014
LJ           -1.6986         -3.7117         4.45277
LJ           3.35664        -5.55492         2.90393
LJ           3.31447        -2.91729         6.08756
LJ             2.046         4.88387         4.05069
LJ           4.78939        -3.44795        -5.89093
LJ          -4.94364         4.92314        -5.83651
