108
#Comment!
LJ           2.95051         -2.0744          6.4245
LJ           3.62732         1.44581        -2.17885
LJ          0.985257        -2.54949        -5.70348
LJ            5.9128        0.920513          3.0756
LJ          0.288022         2.44293         3.94936
LJ           2.25796         -2.4786        -1.91366
LJ          -4.60396       -0.955421        -6.01192
LJ          -6.16554         4.64681        -5.55795
LJ          0.238931        -3.00837       -0.615043
LJ          0.542567        -4.54309        -5.97284
LJ          -1.99704        -3.39028         1.86629
LJ          -2.85753          1.1021         5.91172
LJ          0.731447         1.68128         6.35613
LJ           1.49373        -2.18429        0.165759
LJ          -1.35507       -0.862053       -0.237115
LJ           1.70353        -3.33083         5.24293
LJ          -1.22732        -6.46324        -4.49541
LJ          -3.41826         3.58776        0.538238
LJ          0.135696         5.39232         2.95278
LJ          0.387803         5.23583         6.19491
LJ           1.70846        -1.31002         3.39018
LJ           5.14699         6.19198        -2.68092
LJ           2.79999        -5.52807        -3.86991
LJ           -5.0797        -5.70456        -5.68621
LJ           3.27128         2.80943        0.533945
LJ           2.83711         1.73142       -0.478703
LJ           2.99674        -2.07316       -0.286478
LJ          -1.39357         2.18158         5.07668
LJ         -0.393397         5.82108         1.59298
LJ          -3.38704        0.590937        -1.59617
LJ           6.31741        0.994702         5.05508
LJ         -0.444794         -0.9239          1.4694
LJ          -2.78665        -3.94196         6.20266
LJ          -4.94962        -2.22484         2.02333
LJ           4.69072        -4.64797       -0.649694
LJ          -4.32227        -3.12547        -2.22933
LJ           4.27831        -2.95549         3.92595
LJ           5.94333         5.75685       -0.850869
LJ           5.40284         2.78843        0.755661
LJ          -4.80642       0.0610906         4.24107
LJ           3.63599       0.0206302        -2.99732
LJ          -4.15558         5.20427         4.30255
LJ          -1.88975         3.45131         4.00982
LJ          -5.37894        0.633598         -5.5391
LJ            3.5633        -6.20362         6.00375
LJ           2.50794         4.37698        -2.69179
LJ           4.90953        -3.95933        -3.33327
LJ           1.69985        -4.97831        -0.34649
LJ          -1.29794        -6.37014         5.86057
LJ           1.32713        -1.78894         -1.6697
LJ           -5.7212         2.51386        -1.40997
LJ           -1.1321         3.19671        -3.93853
LJ          -5.02718         5.45061        -2.03095
LJ           1.76502         5.78226        -2.27245
LJ          -5.13024         1.59347         6.45426
LJ           1.37702        -1.28236        -3.92125
LJ           2.49286        0.178921       -0.988594
LJ           2.58098        -3.43976        -5.92478
LJ           4.97595        -2.39603         2.76803
LJ           1.06561         1.56424         3.07183
LJ          -2.67991        -4.04813         2.23946
LJ            1.0657         3.20804         4.55628
LJ           2.70219     -0.00551984         3.84494
LJ           1.85653       0.0349875        -6.05608
LJ          -3.17238       -0.115744         5.95705
LJ           1.67127         1.94961         4.65831
LJ          0.121831         6.08415        -3.84263
LJ          -4.47134        -1.17981        -1.66216
LJ          -2.06274        -4.33346        0.566048
LJ           2.24324         -5.5227         6.34808
LJ          0.591927        0.473612         5.86622
LJ           1.83628        -2.23577        -4.79173
LJ          -2.63463         3.45915         2.45324
LJ          -1.05639         -1.6527        -4.33175
LJ           3.56438         1.74783        -4.59382
LJ           4.59223         4.96723         4.98723
LJ           5.99892         5.21095        -1.99805
LJ           -4.3352         4.15571         1.72719
LJ          -6.43687         5.45452        -4.08979
LJ           3.01717        -6.18277       0.0768838
LJ           3.59553        -1.60343        -4.26048
LJ           1.57828          1.4039        -2.57475
LJ          -5.83774       -0.548088         4.64157
LJ          0.797064         4.36191        0.560653
LJ           5.75612         5.33316        -5.40888
LJ          -0.65958          3.8707         4.28109
LJ           4.53323       0.0955327         2.18534
LJ           2.06838        -1.94605         5.11257
LJ         -0.253661        -5.00282        -0.70077
LJ           1.86485         4.93949        -3.33637
LJ          0.383824        -1.79501        -4.07962
LJ          -6.35878        -5.05241         3.17444
LJ           1.72757         3.71162        -1.64982
LJ          0.688372        -3.92359          6.1879
LJ          -4.75332        0.535063         2.34122
LJ          -4.53952         5.47892         0.88704
LJ           2.33395        -4.29181         5.75099
LJ        -0.0401285         4.56557        -1.23017
LJ          -6.18604        -2.15065         2.58334
LJ          -2.28554         1.20856         2.39629
LJ           3.72852        -5.23423         3.82806
LJ           5.50956        -2.28648         4.17507
LJ          -2.08176        -5.19408        -6.25698
LJ           5.97705        -5.32951         4.85036
LJ         -0.411862         6.31177        -6.17211
LJ           1.42739        -6.37549         4.62775
LJ           4.26317         2.18269         3.15344
LJ          -2.82441       0.0600434         3.49446
