108
#Comment!
LJ           2.58962         5.69631          1.8731
LJ           3.96859        -1.27955         2.85909
LJ           6.36347        -4.66644         2.75045
LJ          -2.47531       -0.100083         5.96462
LJ          -5.00093        -5.55096        -2.63064
LJ           3.80496        0.219059         2.97147
LJ           4.57756         5.15907        -4.56599
LJ           5.22802        -5.30767        0.449287
LJ           6.43583        -2.36361        -1.43537
LJ          -2.08005         4.83907         -4.0157
LJ           2.54751        -5.64646         -2.0665
LJ           0.57304        -2.90512        -2.64588
LJ          -1.28759        -4.05705        0.561879
LJ            5.3288       -0.752943         5.24381
LJ          -1.34445        -1.88529         -4.9987
LJ          -4.83802         -1.2193         2.14527
LJ           3.84755         5.94632        -1.71059
LJ          -4.85731         3.58689        -6.01897
LJ           4.53797         5.59843        0.646931
LJ          -5.37306         6.08874         5.73859
LJ           6.37659        0.600192        -5.95812
LJ          0.300598        -6.08701        -4.81025
LJ           0.31034         3.55567        -2.09906
LJ           3.51277        -3.48576         1.34751
LJ          0.791418        -4.32549      -0.0847865
LJ         0.0666691         4.90362        -6.13685
LJ          -3.12527        -2.94507         3.92808
LJ          -2.12196        -2.91844         5.52038
LJ          -5.13491         5.62368        -1.67448
LJ           3.92478        -1.27858        -5.36697
LJ          -5.38407         1.47421        -5.45006
LJ          -4.83754         4.29844        -4.03885
LJ          0.809851         3.89795        -3.07329
LJ           3.76674         3.99057         2.18549
LJ           6.33886         4.75934        -3.76968
LJ            6.1815         5.67854        -3.07089
LJ           1.43227         3.33598        -4.50449
LJ          -1.53714        0.407619         4.38525
LJ           3.12852         4.81211         3.94598
LJ           -5.2677         6.20211        -5.26188
LJ          -4.16896        -4.16993        -2.48719
LJ         -0.673031        -2.79215        -2.96789
LJ         -0.526847         1.18492         5.86327
LJ          -3.32562        0.657235         5.16776
LJ          -6.37207         5.01666         1.54552
LJ           1.23658         6.15017         4.93919
LJ           4.05641         5.61977        -5.81253
LJ           4.89163         6.18083         4.19797
LJ           1.96605        -3.02143           3.161
LJ          -5.24708         5.07771         1.27206
LJ           3.98121         4.81713         5.11399
LJ          -1.60271         5.80207        -5.09327
LJ          -3.11812        -5.45406         1.97155
LJ          -5.22117        -4.96823        -1.37244
LJ         -0.917101       0.0859163         5.38836
LJ          -3.48732         2.75677         3.03031
LJ          -5.18907        0.571195        -3.82112
LJ          -6.21581         5.27596        -5.53111
LJ          0.379042         1.79793        -3.53666
LJ          -3.53885        -5.85839       -0.836003
LJ          -1.50628          2.5257        -4.63969
LJ          -5.46462        -4.73958         2.22295
LJ          -3.00972        -4.82967       -0.940319
LJ           2.24349         -5.7537         3.61833
LJ          -3.65903        -5.94701         5.49159
LJ           4.16188        -3.57006         5.21649
LJ          0.997013        -5.14377         3.19796
LJ          -5.18783         -2.6549         3.80274
LJ          -5.23952        -4.56425         1.29635
LJ          0.191878        0.187907         3.34055
LJ           -2.0403         5.11313         5.95421
LJ          -1.56899         6.32367       -0.984907
LJ          -4.90023         -5.5024        -6.28198
LJ           1.14385         5.09387       -0.821427
LJ           4.30034          -3.099        -6.14136
LJ          -4.38065       -0.177399         5.41127
LJ          -6.16813       -0.671156        -3.59097
LJ           2.90318        -3.29698         3.92847
LJ           0.81286       0.0327291        -2.93267
LJ           2.48179       0.0884283        -1.31146
LJ           2.40709          4.5533         1.47335
LJ         -0.597646        -5.98108          4.8534
LJ          -1.23451         4.18901        -2.92434
LJ          -1.59057        -3.37708        -1.32148
LJ         -0.511709         -4.9767        -4.40934
LJ          -1.15086         1.30803         0.45589
LJ           5.59563         5.51727        -4.03574
LJ           4.32503          3.7484          5.8484
LJ          -4.63991        -3.92403         -5.0686
LJ         -0.577248        -2.19479         5.52064
LJ          -5.58821        -2.88468        -2.72339
LJ           3.13528        -2.91346        -3.44598
LJ          -5.72078         6.43051        -2.89016
LJ            4.4743         2.76794       -0.302385
LJ          -2.24983       -0.336457        -3.49521
LJ          -6.35071        -1.92204         1.27275
LJ           1.11686        -1.73079        -1.54392
LJ          -3.25738        -5.19691        -6.39862
LJ         -0.823123         4.04905        -4.20466
LJ          -6.33984         -3.0543         1.49293
LJ           3.62481       -0.869821        -1.70048
LJ          -4.33165         2.46723        -5.29488
LJ         -0.296347        0.829063        -2.78448
LJ          0.968553         3.54866       -0.283023
LJ           3.97212        -2.85559        0.143168
LJ          -4.53024        -2.75657         -1.3874
LJ         -0.524909         6.03664         2.19916
LJ           4.78292         6.19152         2.07102
