108
#Comment!
LJ          -5.85068         4.53125        0.147382
LJ           2.15822       -0.495324         5.07267
LJ           1.37196         5.96863         4.42517
LJ           3.55465      -0.0360805         4.55785
LJ           1.17161        -4.05054        0.717671
LJ            1.8702         2.40767        -5.67761
LJ          -2.68784          4.7233       -0.772846
LJ           3.33071        -2.20379         5.42555
LJ           -6.0139       -0.886289        -0.70136
LJ           5.28422        -1.22497          6.4441
LJ          0.579983        -2.59312        -2.16611
LJ           5.83294         6.25649         1.48594
LJ         -0.853263         2.44039         4.86226
LJ          -4.88337        -4.28144        -5.50416
LJ          0.209016         4.06213        -4.42655
LJ           4.72981         2.22837         -6.1625
LJ          -2.94993        -2.57139         5.20357
LJ           6.23212        -2.83096        -4.89179
LJ           5.56783         5.58494         2.24848
LJ             3.481        -5.81498          6.0104
LJ           1.47657         2.60595         3.51066
LJ          -4.56882        -4.09462        -4.42134
LJ            5.5032         2.60031          2.4151
LJ         -0.730619        -1.17435        0.657828
LJ          -1.78643         5.27968         5.50967
LJ          -5.81899         5.80263         3.15814
LJ           5.24437         4.19249        -6.08586
LJ          0.164422         1.68563         4.74428
LJ           4.05469        -6.08336        -5.84457
LJ          -5.02973        -5.46473         5.49828
LJ          -5.95464        -2.30616         1.40463
LJ          -6.20232        -4.69999        0.715289
LJ          0.555976        -3.45881         5.35594
LJ           3.24428         5.88047         2.93036
LJ           0.80328        -3.67302        -3.06901
LJ          -0.97644        -5.26049        -4.51621
LJ           1.12163       -0.148619        -4.74935
LJ           4.25056       -0.514207         4.06074
LJ          0.816187         -4.9855         2.34271
LJ           1.28417        -6.20379           2.326
LJ          -2.86548        0.938605         2.01853
LJ          -5.13835       -0.741338         3.87082
LJ          -5.83521        -1.11449        -4.65533
LJ           5.29303        -3.13174         2.77777
LJ          -3.51446        -4.96464         6.08989
LJ           5.37796         4.96667         1.11249
LJ           2.70434       -0.500064        -3.93157
LJ         0.0103882        -3.42307         4.42804
LJ             2.136         1.89092       -0.308648
LJ           1.07956         4.76855         4.00446
LJ        -0.0174914        0.146866        0.901483
LJ         -0.558909       -0.784125         2.20624
LJ          -1.38586         6.41079         5.34697
LJ           2.67013       -0.931669         3.36611
LJ          -1.02721        -3.61361          -3.116
LJ          -4.80995        -3.84373         6.02278
LJ           5.26677         4.16326        -4.19446
LJ          -1.48079         3.70995        0.776138
LJ          -2.46629     -0.00178353         6.08407
LJ           2.22683         3.44473          3.7188
LJ         -0.063479        -3.94123         3.11737
LJ          -6.05072         6.22327        -1.98977
LJ           2.12327        -6.08051         -6.0694
LJ           4.37663         3.33443        -2.53439
LJ           2.00483         -4.8225         1.92656
LJ         0.0575968        -4.24838           -6.08
LJ          -1.16686        -2.47936        -5.23165
LJ          -2.33394        -3.24805         3.13842
LJ          -3.97898       -0.843304          3.6566
LJ          -1.12979         5.61872         4.59496
LJ          -3.78682        -1.98061         5.12844
LJ          -2.74552        -3.53618         2.03103
LJ          -4.51371         3.73203        -5.87414
LJ           1.49543        -1.44867         5.07902
LJ           -5.3912          -1.358        -5.45968
LJ           1.34588        -6.18897         1.21693
LJ           3.01304        -1.24514        -5.55853
LJ          -0.14039        -6.04274          4.2658
LJ           5.92116        -4.09218        -3.78133
LJ          -4.88633         -2.7774        -4.96746
LJ            4.1267         6.19632        0.210858
LJ          0.728964         5.97928         2.31232
LJ            3.6332         2.41759         2.26168
LJ          -5.19177         2.89712        -5.95343
LJ          -5.81944       -0.108845        -2.50096
LJ           5.88371        -6.04354         3.80572
LJ           4.09617         4.67257         3.75121
LJ          -3.03762         4.58941        -2.43504
LJ           5.68752        -2.86906        -2.10046
LJ          -6.06136         2.41697        -2.82065
LJ           2.38959        -5.63295        -2.30762
LJ           5.02952        0.905867      0.00300349
LJ           5.91354         3.72698        -2.44446
LJ           2.17106        -3.48659         -4.0643
LJ           1.15158         -2.8841        -5.04681
LJ            1.5818         4.06148         1.36737
LJ           -5.6578          5.3056         1.47976
LJ          -4.45243        -1.97161        -5.46853
LJ          -2.60907        -6.18794          -2.577
LJ           1.51598        -1.74856         1.18915
LJ          -2.35313         4.90374         1.81698
LJ           3.12133        -2.66553         4.20565
LJ           -1.2648        -1.28904        -1.50573
LJ           2.72974        -5.75967         3.19416
LJ           3.57967        -3.94217         4.14308
LJ           5.15125        -4.30829         4.61483
LJ         -0.187205         5.50803         -0.2128
LJ           2.77345         -6.2646        -5.31168
