108
#Comment!
LJ          -2.33338         4.77077         2.20673
LJ           5.63256         5.82897         -4.0696
LJ          -4.28911        -1.65089        0.937748
LJ           4.60651        0.151327        -5.43664
LJ          0.228855        0.717856          -2.833
LJ          -4.86115         2.30608         4.62417
LJ         -0.936838        -2.72523      -0.0270034
LJ           4.81797        -3.92545        -6.38579
LJ          0.586989         -5.9573        0.117977
LJ         0.0835368          2.1341       -0.558324
LJ          -4.17759         3.91549       -0.464333
LJ           -4.8536         5.04515         1.11735
LJ          -2.06832         4.80983        -5.27448
LJ           -3.1519         6.11116         6.31597
LJ           4.75367         1.55541         3.28927
LJ          -4.65029         -2.5121          5.3872
LJ          -5.35648         1.06585        -6.10721
LJ          -1.35341         2.71548         6.09361
LJ          -5.45209         3.59493         5.81961
LJ          -2.17051         4.72503         5.66948
LJ           6.43754       0.0488636         1.60504
LJ          -4.06291         4.35037         5.60933
LJ          -4.23726        -4.01252         1.59103
LJ           2.88543        -1.19396         3.96044
LJ           -5.8446        -4.39827        -4.42724
LJ          -2.73597        -3.97646        -5.67332
LJ           1.60084          3.2067        -4.10353
LJ          0.379964         6.11822         5.37673
LJ          0.904116        -1.65141         0.71153
LJ          -1.24484       -0.146879        -5.70447
LJ           2.24312      -0.0359987       -0.866689
LJ         -0.191117         6.17524         3.21429
LJ         -0.928523         3.18096        -4.19858
LJ           4.47403        -5.84859        -1.08968
LJ         -0.636708         1.35511        -6.22377
LJ           4.21742        -5.28948        -5.12185
LJ          -2.00457        -0.71206         3.40847
LJ           5.04675         1.20263         4.61432
LJ          -3.51808        -2.44205        -6.30407
LJ          -1.47215         1.66532          2.0426
LJ          -4.83525           3.041        -1.77626
LJ          0.455428         4.84157         4.98449
LJ           -3.8002         6.09031        0.904806
LJ           6.07405        -2.30716         1.21471
LJ           4.82534        0.450193         1.04226
LJ          -5.12201        -3.20856         6.34849
LJ           1.55472        -2.37681         4.80705
LJ           2.96285        -2.40416        -4.62526
LJ           2.99611         3.85822         -5.6507
LJ          -6.26771         0.80976        0.813848
LJ           5.72252        -4.51197        -4.75958
LJ           0.05844         3.93728        -6.03625
LJ           4.17307         -3.4689        -2.12017
LJ          -6.22577         1.83679         3.65736
LJ           1.22942         4.98953        -6.00901
LJ          0.758857         5.01567        -2.63641
LJ          -4.90601         5.01496       -0.642942
LJ          -1.39705         1.44508        -3.32553
LJ             1.975        -2.69318         2.48256
LJ          -5.18425        -1.33442         4.90362
LJ           2.90263       0.0337377         3.07448
LJ          -5.57598        -5.00954         3.11804
LJ          -1.16083        -4.41407         1.52084
LJ           4.22824         5.82328         3.14579
LJ          -5.50256        -5.78936        -1.11174
LJ          -2.36137        -4.11751         1.71731
LJ           4.61684        -3.99321        -4.32281
LJ          0.804704        -3.90593        -6.44863
LJ          -5.36589         1.39558       0.0163449
LJ          -3.94578        -5.99112       -0.494078
LJ          -2.04337         2.70772         2.66445
LJ            -1.642        -2.85101          -1.771
LJ          -1.48064        -2.45403         1.06039
LJ          0.432564        0.741534         2.34224
LJ           3.16799        -3.01651         4.68145
LJ           -2.8681        -3.56603       -0.224152
LJ         -0.605108         1.84706        -2.36132
LJ          -5.21336         3.72477        -2.81593
LJ           4.81689        -6.10073         -6.3327
LJ          -5.57857         6.39849        -2.26162
LJ          -4.56405          1.2065        -2.98709
LJ           5.00307        -4.80658        0.683148
LJ           1.15336        -3.28943         5.43638
LJ           -3.1248         4.76503         1.48044
LJ          -4.48344        -0.29545        -0.60343
LJ         -0.949029        -3.83424        -5.03523
LJ            6.2828       -0.584635        -3.09203
LJ          -2.61004        -5.07666        0.588907
LJ          -1.21533         1.29694         4.08065
LJ           5.09826         4.76622        -6.03695
LJ          -3.16231         4.19433       -0.933544
LJ          -5.80277       -0.935568        -2.77235
LJ          0.598264         3.70615        -4.51692
LJ          -2.98502        -1.01033         1.76114
LJ           2.91389         1.10625       -0.287487
LJ           5.87775        -1.28365        -6.20655
LJ          -5.55029        -3.35857         -3.3819
LJ          -4.50074        -2.63414        0.245769
LJ            2.9148        0.233662        -3.46933
LJ          -3.71482       -0.168942         1.62307
LJ          0.138618         1.22682        -1.45513
LJ           4.67141        -6.17223         5.18794
LJ          -5.43746       -0.726755         4.07395
LJ         0.0875952        0.397164         -5.7739
LJ          -2.63211        -2.46029         0.90881
LJ           5.58359         2.18488         3.81144
LJ           4.00045         6.09012        -6.43223
LJ           1.10586         1.44736         3.53643
