108
#Comment!
LJ            3.6493         2.76071        -4.24872
LJ           4.03518        -5.00982         1.86648
LJ           2.09338         2.36791        -4.96452
LJ            4.2772        -6.25465        -3.38893
LJ          -5.42947       -0.777357        0.758256
LJ           2.16792        -2.52948        -2.21136
LJ           6.22613        -5.28358        -1.21433
LJ           -1.8971         1.09644         6.01539
LJ         -0.800754       -0.228903        -5.74426
LJ          -3.38377        -2.01644        -4.61317
LJ           2.43246         1.47776        -3.43729
LJ           1.14694          1.2555        -3.72427
LJ           -4.3746         1.96853        -4.80789
LJ         -0.814255         1.15225        -6.16064
LJ           3.13986         2.88995         5.93929
LJ          -2.04748         2.79215         5.88761
LJ          -3.51353        -4.56201         2.76798
LJ           2.34663        -6.36307         4.94307
LJ         -0.873624        0.146533        -3.27776
LJ           6.16181         1.00328        -4.26253
LJ          -4.41488        0.537813        -6.37726
LJ           5.96095         2.70628        -3.67634
LJ           1.89924          1.9055         3.47635
LJ           5.27386      -0.0307895        -6.11178
LJ          -0.28872         5.77893         3.65077
LJ          -2.48673        -5.44495         2.39731
LJ          -4.36207        -4.23906       -0.113128
LJ          -1.71631       -0.967358         1.62578
LJ           5.42061        -4.75545         4.59897
LJ          -3.90403         4.33444        -5.59579
LJ          -3.17855         3.19271        -4.26478
LJ           5.32749       -0.541604       -0.364259
LJ           -2.1828         2.51688         1.69139
LJ           -4.5505         -3.3081       -0.570791
LJ          0.990836        -6.37533        -2.43267
LJ          -5.59225        -4.13099        -4.22026
LJ           1.55486      -0.0182434          -6.333
LJ           2.19995         5.06727         3.15655
LJ            1.3389         6.31133         1.97235
LJ          -3.11996        -2.47337         4.19281
LJ           3.50902         2.48471         1.35538
LJ          -1.24498         4.00139         1.93384
LJ           1.53656         4.56501         5.19551
LJ          -3.84008        -6.44671         -3.4923
LJ          -2.19303        -4.50317      -0.0413934
LJ         -0.600834        -6.26691         4.73665
LJ           2.81356          2.9335        -5.76821
LJ           2.45705          3.0254         1.50864
LJ          -5.14365         2.89373        -6.02681
LJ           3.69961         3.77556         2.17036
LJ          -6.24835        -1.39427        -4.21791
LJ           1.67257          2.3086        -1.75622
LJ          -5.22755         3.74103        -3.06095
LJ           1.05501       -0.804622        0.788766
LJ          -5.68006        -2.22291       -0.151516
LJ          -3.02874        -0.24222         1.65359
LJ          -4.48194          3.8706         2.09119
LJ        -0.0943132         4.20681         3.14161
LJ           5.87724         4.05151         4.60406
LJ          -1.07907         4.50345        -4.10978
LJ          0.319938          1.1442          3.4699
LJ          -4.82115        -5.27047      -0.0515202
LJ          -3.22319         4.63749        -3.35794
LJ          -5.61034        -3.04665         4.43304
LJ           -3.7928       -0.555106         5.76692
LJ           5.40065        -5.50911        -2.91939
LJ          -4.69115        -5.24707          -1.182
LJ           3.10795        -6.02339        -1.68488
LJ           2.10678        -6.27903        -2.95717
LJ          -4.33481        0.784626        -4.51964
LJ           2.44489          5.0364         6.23883
LJ         -0.722243         -1.6164         4.49037
LJ         -0.767115         5.19422        -5.65681
LJ           1.23305        -1.68357        -1.62186
LJ          0.275289         6.07859        -6.00537
LJ           -6.1671         5.89749        -3.19717
LJ           2.58287       -0.718793        0.664256
LJ            1.6435        -4.13989      -0.0708188
LJ           3.42447         3.60793        0.506675
LJ           1.24043        0.688098        0.534382
LJ          0.244066         3.74944         1.66556
LJ          0.494037       -0.928162         4.25122
LJ           3.41131        -1.91292        -5.13554
LJ          -2.72767        -2.99749       -0.860471
LJ          0.611391        -2.68386       -0.257521
LJ         0.0700954         5.04246         6.28535
LJ          0.461872        -3.53587         5.61631
LJ          -4.59366         1.01945         4.55533
LJ          -4.09557        -1.92455        -2.77236
LJ          -2.88844         1.47678          5.9471
LJ          -4.56936        -1.63065         2.08464
LJ          -4.93882         2.86263         5.54953
LJ          0.434061          3.2281        -4.17638
LJ          -2.44046        -5.00861         1.23602
LJ          -5.35238        -3.45427         3.56285
LJ          -5.83908        -2.83347        0.808162
LJ           2.48483         4.37157       -0.200482
LJ          -5.61627        -1.72418         -2.2861
LJ          -1.17287         6.24273        -2.74285
LJ           3.41444         3.68179        -1.86447
LJ           -1.5979         2.34544         4.52773
LJ          -4.66835         3.77016        0.228561
LJ          -6.18037        -5.23915        -3.18133
LJ            3.2431        -5.03611        -1.05974
LJ          -5.27255       -0.751895        -2.26674
LJ          -4.66602        -4.25368          2.7095
LJ           1.19655         5.46331         6.39354
LJ          -5.56214         4.37656         3.31496
