108
#Comment!
LJ          -3.33042        -2.67178         2.69345
LJ          -5.70332         3.20292         1.52626
LJ           2.06227        -2.73932        -3.43918
LJ          -5.16046         3.37998        -3.60817
LJ           4.34615        -2.24318        0.602406
LJ          -4.52542       -0.440428         0.76844
LJ          -3.01066       -0.662369        -1.93399
LJ         -0.459118       -0.199089        -3.81096
LJ           3.23592         6.17954         -2.5251
LJ           3.25729         1.60647        -5.44681
LJ          -5.28031          -4.718        -5.13165
LJ           2.43003         2.34266         1.23622
LJ           0.89302          -1.641        -3.36404
LJ          -5.81419         6.31517        -4.32933
LJ           -6.1981         2.84648        -2.84238
LJ          -2.57098         1.07427        -4.42229
LJ          -2.09269        -4.84574         5.27385
LJ           4.40074         4.01761        -2.83384
LJ           2.15466         1.88726        -2.43217
LJ          -2.24366        -5.39865        0.663778
LJ          -4.42401        -4.20742        -3.22106
LJ        -0.0262913         4.36018        0.354934
LJ          -3.51189         1.58138         -2.5846
LJ           4.05997       -0.368396        -4.04648
LJ          -4.12941         4.32464         4.84071
LJ          -1.32824         1.53848        -3.65915
LJ          -1.83126         5.58218         5.43003
LJ           1.69931        -3.52329        -5.78273
LJ           -2.3613         5.98327        -2.78553
LJ          -6.04556         3.95676        -5.22237
LJ            -3.871        -3.15066       -0.657566
LJ          -1.25611        -5.11016        0.556089
LJ          -3.42316        -3.56539         -1.8227
LJ          -6.16478         3.26546        0.536793
LJ           1.21386        -6.42197         4.17098
LJ           3.46521        -4.41112        -6.06805
LJ           3.03642        -6.17317         1.10839
LJ            5.2147         2.47863         5.10425
LJ         -0.497551         2.48479         3.06784
LJ           1.97561         3.48313       -0.441315
LJ           2.17264       -0.608573         4.26731
LJ          -1.45941        0.367642        0.786212
LJ           3.28791        -2.18143        0.793542
LJ           -1.0393        -4.02613        -1.82282
LJ          -2.54827         4.42971       -0.826093
LJ          -3.69353         1.74044         4.59197
LJ          -3.10579         3.15668        -3.29571
LJ           2.98887         -4.4517          1.4539
LJ           3.06903         1.45644        -1.82577
LJ           5.05551        -2.98566         1.78075
LJ         -0.151362        -2.79239        -6.35795
LJ             1.181         4.88319        -5.32493
LJ            2.5725       -0.336615         2.99158
LJ          0.092224         3.27279         2.33882
LJ         -0.191205       -0.485336        0.251908
LJ           6.21938         5.25667        -5.09402
LJ          -3.09143         1.19857         3.69788
LJ          -3.89192       -0.165178         1.45316
LJ          -5.43463         1.35319        -3.44538
LJ         -0.436383         3.55417         4.87684
LJ         -0.332083         -4.3487       -0.598694
LJ           4.20684        0.746898        -5.30285
LJ          -2.83376         3.84051         4.82346
LJ           6.16211        -1.63266         4.89568
LJ          -3.86379          2.4312         3.23923
LJ           6.01344        -1.91114          -1.502
LJ          -5.90913         5.23917        -6.15179
LJ           6.17872         2.54461        -5.19492
LJ           4.39359        -4.25104         3.51199
LJ           1.08693         2.76914         2.55964
LJ          -4.15862        -1.22771        0.177682
LJ          -3.07455        -3.47607         3.34634
LJ           5.43911        -1.36399         6.08339
LJ          -5.80188       -0.621601        -4.22008
LJ          -1.67566        -4.23627       -0.717469
LJ            5.9078        0.676151         4.77562
LJ            3.7861         -1.0194         5.81605
LJ          -4.04293        0.818893        0.337806
LJ          -3.41453         2.09665         -6.2913
LJ          -2.40178        -1.62748         3.03523
LJ          -2.03159       -0.954949         5.22412
LJ          -1.15291         1.10063          2.2762
LJ           1.08846        -2.65473        -2.42373
LJ           3.59385        -5.17577        -4.34453
LJ         -0.196289        0.628025        -4.34615
LJ          0.422419        -6.14037        -5.69105
LJ          -2.69917         5.42519        -1.04173
LJ           4.68844        -1.16485         1.61666
LJ          -6.23009         1.96829         3.37853
LJ          -3.71028        -3.98064        -5.85956
LJ          -3.22973         4.81506        -2.20686
LJ           -2.0705        -6.16189         4.12563
LJ           6.41533        0.298037        -6.05907
LJ         -0.879292         3.35719      -0.0231575
LJ           4.03799         3.13847        0.979251
LJ           3.47622        -2.13712        -5.53042
LJ          -6.30359        -3.24888        -5.85578
LJ          -5.04844         5.04868        -3.49757
LJ          -3.84699         3.73677       -0.850649
LJ           3.49183         -5.2953        -1.71824
LJ          0.747694        -4.67154        0.645199
LJ          -1.91246         3.09112        0.514872
LJ          -2.30087         -2.4908         1.29472
LJ          -3.72075       -0.220541        -3.22498
LJ          -5.12441         4.37659        -5.63523
LJ          -1.44514       -0.304183        -3.37193
LJ          -0.25941        0.736901       -0.656837
LJ          0.644421         2.44644         4.88817
