108
#Comment!
LJ           6.41178       -0.138455        -3.50774
LJ          -5.18795         -4.0142        -2.92243
LJ          0.721218       0.0482845         -2.6025
LJ           6.32873         3.96196          2.4873
LJ           4.49142         -5.0775        -2.80398
LJ          -4.24882         -5.5329        -5.06527
LJ          -3.33466          2.6061        0.464818
LJ          -3.02928         3.70095         -2.0523
LJ          -1.06514       -0.408681        -6.40619
LJ           5.83467         3.97291        -4.05468
LJ          -4.75401       -0.308686         1.56804
LJ            4.2363         6.25299        0.173793
LJ           3.51803        0.252872           2.088
LJ          -6.12598        -1.34667        -2.87531
LJ           3.70154         4.77092         1.97811
LJ          -5.22823       -0.638586        0.465032
LJ          -5.99024        -4.25234         5.19709
LJ          -2.65117        -5.06444         5.46518
LJ           1.65775       -0.313307         5.92085
LJ          -3.90629         4.20797         4.43636
LJ          -2.00066       0.0131916          4.5906
LJ          -1.16065        -4.30088         3.89989
LJ          -1.50306          3.0061        -4.38721
LJ          -2.09353         1.88488        -3.54314
LJ          -2.57341         -5.8611        -1.17056
LJ           4.23155       -0.796945         2.06637
LJ           3.19927         1.19633        -4.10959
LJ           2.46368        -4.88681         5.21471
LJ           2.42534        -3.24184        0.723356
LJ          -5.29224         5.39629        -5.70653
LJ           5.31379         6.18689        0.383152
LJ          -5.29381        -5.07935        -4.56803
LJ          -5.55988      -0.0327829        -2.09557
LJ           2.13142         1.92345        -5.93591
LJ          -1.14209        -5.03934          5.4807
LJ          -4.41029         -2.4133         5.69034
LJ         -0.306903         -5.7888         5.03085
LJ          0.367986         2.38932        -4.88494
LJ           1.17367         3.41645        -4.12437
LJ           2.04624         5.06134        -5.20705
LJ          -2.11418         2.21786         5.22203
LJ           2.49718        -1.64073        -5.75683
LJ           2.41285       -0.749642         -4.9098
LJ           4.31063        -1.31885         5.94274
LJ           2.51838        -3.51665         6.43741
LJ           1.15062         5.95961       -0.525627
LJ            5.6477         2.39122        -3.70772
LJ          -6.41513       -0.101664       -0.104928
LJ         -0.333926        -5.73816         1.18148
LJ           3.15672         6.09529         1.89757
LJ          -3.97037        -6.23571        -2.79006
LJ          -3.24503         1.96105       -0.952393
LJ          -4.47114        -5.76942         5.88753
LJ           6.05219        -6.20442        -4.68141
LJ           -2.9994         3.30412         2.00294
LJ           5.27526       -0.102627        -3.09666
LJ           6.06556        -6.45122        -2.77526
LJ          -2.88906       -0.261043        -3.78263
LJ           2.84193          5.7545          4.8977
LJ            6.1292       -0.285545         3.45375
LJ          -5.55142         -6.0474      -0.0153551
LJ           4.81195        -4.08892        -6.24747
LJ           1.77622          1.1163         6.38251
LJ           5.10072       0.0288329         5.26712
LJ           5.18635        -5.59408         3.72942
LJ          -2.54237        -4.47603         4.44782
LJ          0.464584        -3.32756        0.827776
LJ           4.12113        0.987702          4.3277
LJ           6.21344         -2.6714        -1.12521
LJ            -6.282         2.98696         6.22293
LJ           5.88528        0.384114         4.15882
LJ            6.2529         -6.0828          3.8222
LJ          -3.67658        -1.92876        -6.33083
LJ         -0.435278         -2.5586        -5.62656
LJ          -2.05145        -2.83168         3.66287
LJ           1.27562        -1.22041        -4.20276
LJ           3.26154         -5.2209         1.57512
LJ           5.14541        -6.32113         5.06391
LJ          -4.05829        -1.00342         5.40465
LJ          -1.26817        -3.39394         5.47733
LJ          -6.14835         -5.4284         2.85873
LJ          -4.85152         -3.9743       -0.928178
LJ           2.35301         5.12312       -0.791408
LJ           4.20918         5.14188         1.11485
LJ          -5.69226        -2.26859       -0.289347
LJ           -2.7299         5.55806           6.088
LJ          -5.83004         1.25045        -5.29465
LJ          -2.00126        0.722992        -2.86079
LJ           6.31239        -6.38516         1.22612
LJ          -5.04719         5.32203        -4.57377
LJ          -6.15198        -5.64294        -2.65481
LJ           3.11625         5.31004        -5.65392
LJ          -2.49187         6.30872         4.62434
LJ           6.38869        -5.63548         5.80041
LJ          -1.60973        -5.58054        0.474567
LJ          -6.43636        -5.43138       -0.879819
LJ          -6.42852        -1.35725         2.77065
LJ          -2.51595        -2.32013        -4.41987
LJ           2.83105       -0.754447        -3.68643
LJ           0.52348         4.67765        -5.49646
LJ           5.66258         1.64007        -5.96336
LJ          -5.59877         2.06799        -1.90567
LJ           3.55993         1.69171         -5.3213
LJ           -5.5464       -0.111547         3.84018
LJ           3.93589         1.85609       -0.917121
LJ           3.23787         3.46028        0.766345
LJ          -1.17818         5.18126         5.25488
LJ            5.0709         2.36489         1.86171
