108
#Comment!
LJ          -1.83154        -3.47775        -3.01418
LJ           3.10551         5.63289         2.06409
LJ          -5.33227         6.40577         5.78728
LJ        -0.0132234          5.1186        -4.32457
LJ           1.87368         6.44648         -2.9878
LJ           -5.3871        -4.03725         2.04608
LJ            -6.121         6.46167        -4.77004
LJ          -0.99146        -4.32885        0.155637
LJ         -0.412385         5.25518         5.13949
LJ          -0.79259       -0.598582        -2.95691
LJ          0.661715         1.67547         5.63928
LJ          -1.53249          6.0118        -5.50962
LJ           3.03621        -3.76688         -1.5524
LJ         -0.105422        -1.17047         3.46638
LJ          -3.43402        -6.35741       -0.887294
LJ           -5.0043         5.44449        -1.17587
LJ           1.85174       -0.591085        -3.68239
LJ           5.49561        -4.71326        -1.62569
LJ          -5.95094        -5.14911        -2.88413
LJ         -0.914118         1.06692         5.33637
LJ           3.16742        -4.72456        -3.92505
LJ           5.05587         3.64593         5.68483
LJ           4.82218        -3.75152       -0.786866
LJ           -1.6746        -4.27079        -2.10316
LJ          -4.26888        -1.87971        -1.80992
LJ           2.68877         2.64018         6.10794
LJ          -6.06413         -2.1484         5.33515
LJ           5.30791         5.32262        -2.74585
LJ          -5.90494         2.40982        -3.75538
LJ           5.42833        0.765259        -5.18947
LJ          -6.17994        -4.93127         3.08285
LJ          -1.13094         3.22613        -2.53791
LJ          0.819346        0.258106         1.36217
LJ          0.720965       -0.350337        -6.30103
LJ          -2.07158        -6.25888         6.21399
LJ          0.601085       -0.788299        -3.63592
LJ          -2.65035         1.33915        0.496765
LJ          -3.75786         2.19056        -1.04875
LJ          -2.24934         3.39746         3.75863
LJ          -5.43568        -0.40195           1.004
LJ          -3.35266        -4.01698       -0.191604
LJ           3.65006        -1.27178        -3.77154
LJ          -5.18319         4.76125        -1.95192
LJ           5.69043        -2.44877         -5.7242
LJ          -5.85835        -3.03801        -1.43475
LJ         0.0326224        0.954002           1.031
LJ           3.17486       -0.578846        -5.01941
LJ          0.590941        -4.76793         1.51537
LJ         -0.612018        -5.03939        -2.31491
LJ          -2.48722         1.73099          3.2701
LJ            3.2747      -0.0366341        -6.13299
LJ           4.75907         2.67441        -5.83812
LJ           2.44185        -1.39106        -1.75144
LJ         -0.144121        0.355636       -0.945853
LJ          -1.99615        -5.26215         3.38418
LJ        -0.0286116        -3.17717         5.58397
LJ            0.9886         5.28372         5.26682
LJ          -6.42677         1.42892        -3.74843
LJ         -0.816108        -1.24239       -0.231794
LJ          0.501199        -2.64441        0.167372
LJ           3.36922         5.67326        0.419737
LJ           1.05976         3.24661        -6.38412
LJ         -0.344969         4.00231        -6.18536
LJ          -3.60147        -2.91218        -2.48432
LJ          -3.93233        -2.12569          4.2925
LJ          -1.23863        0.838219        -1.09605
LJ         -0.855272        -2.66016        -5.02027
LJ           1.04964         6.09699        -4.18615
LJ         0.0196166         3.04525        -2.70313
LJ          -1.73037         3.71721        -4.20461
LJ          0.527883         4.67293         4.67135
LJ           3.22214        -3.19452       -0.677531
LJ          -4.26483         5.36628          2.6464
LJ           -5.7125        -2.31701        -5.13758
LJ           6.31007         1.72825         1.28648
LJ          -5.18004         3.16228         3.92991
LJ           4.50821      -0.0891732         5.35131
LJ            -3.311        -4.02563         6.07876
LJ          -1.08003          4.7525         0.02917
LJ           3.83195        -3.82818           1.963
LJ          -3.33983         4.67405         0.53623
LJ           6.25653        -6.03198         0.14784
LJ            5.3405        -6.25094          3.3707
LJ           1.99061         4.79438         2.33041
LJ          -5.69827         -3.2501        -6.36181
LJ           4.09357        0.126813         2.43236
LJ          -2.21955         1.97468         4.86497
LJ           3.88903       -0.106742       -0.554162
LJ          -6.14379         3.03765        0.106136
LJ          -3.88456         5.59973         5.70082
LJ         -0.819487        -2.45671       -0.400198
LJ          -4.67408        -3.64335        -6.13837
LJ           5.57685        -4.79701        0.716681
LJ           1.72552         6.15249       -0.618947
LJ          -4.91083         4.92211         3.66587
LJ           4.78081         1.39198         1.65624
LJ           5.47096          2.8056         2.45614
LJ          -3.55931        -4.75559        0.470738
LJ          -2.73037        -1.57194        -3.31374
LJ           1.48543         1.83246       -0.854523
LJ          0.840408       -0.955147        -5.41679
LJ           1.64082         4.75394        -2.73741
LJ          -2.79103         3.75337        -4.52683
LJ          -5.26803        0.842681        -3.62991
LJ           -3.8127         3.85879         4.03799
LJ           4.74292         4.15358          2.0687
LJ           3.19159        -3.31399        -6.43415
LJ           3.77502         2.79792        0.423113
