108
#Comment!
LJ           3.40772       -0.337641        -1.23467
LJ           6.24504        -1.07934         5.62528
LJ           1.89309          3.2457         5.22959
LJ          -2.21079         1.94085         4.27511
LJ          -2.26982       0.0904619          2.0997
LJ           5.05293         3.98807         2.01803
LJ           4.62833        -3.40172        -5.81999
LJ           3.86106        -3.20248        -4.99045
LJ          0.572211        -5.33956        -4.84017
LJ           2.12755          4.3657       -0.788372
LJ            4.2495         4.91769        0.331269
LJ          -4.02643         4.60251        -4.85937
LJ          -5.20397         -1.8396          6.2401
LJ           5.97103        -1.09901         1.84773
LJ          -6.03164         6.15075        -1.86335
LJ           1.09239        -2.51359        -6.14788
LJ          -4.58837         -5.5223         2.69446
LJ           1.93838         5.61297         3.06404
LJ           -1.1489        -5.24382        0.396975
LJ           0.82119          4.3405        -5.36905
LJ          -4.81713         1.02305        -6.39906
LJ           4.24052         1.60748         1.21628
LJ          -1.34184        0.375624         3.06953
LJ          -6.27011         3.21164         4.51428
LJ           4.35203         4.29919         3.17593
LJ           3.72848          2.2427       -0.798882
LJ          -2.01068         4.81525        -3.51975
LJ           4.17338         -1.8018         4.67958
LJ          -5.10819         3.77681        -2.29233
LJ           3.65761        -4.79936        -2.31838
LJ           1.49547        -4.32396        0.583877
LJ           1.17719         2.10211         1.60803
LJ         -0.700529        -3.25387        -3.82469
LJ          -4.31708         0.98911        -4.58143
LJ           2.56917        -2.90072        0.567023
LJ          -1.47563         5.72849        -2.90993
LJ         -0.431238       -0.991622         -4.9222
LJ          -4.57376         3.59008         3.30881
LJ          -2.97885        -5.62832         3.24153
LJ          -5.10638         2.56463         3.60577
LJ          -1.76482         5.53248         4.99465
LJ           1.29829        0.677132          4.5233
LJ          -6.09261        0.153716        -3.18949
LJ          0.705505         4.86295         5.63003
LJ          -2.49051         2.84333         5.02048
LJ            -3.998        -2.74988        -4.38237
LJ          -2.78549       -0.051018       -0.122292
LJ         -0.506258         3.02616         5.11061
LJ           1.16955          4.4807        0.976549
LJ           -5.1967        -2.34165        -4.36097
LJ           5.39424          4.8617        -0.73495
LJ          -0.42436        -1.02767         6.23844
LJ           1.35779         1.29207        -5.01456
LJ           3.42973        -5.65756        0.123517
LJ           6.20542         4.43002        -4.13349
LJ           5.54152        0.191529        -2.94628
LJ           2.90281         2.06753        -6.44999
LJ          -2.59991       -0.525612        -4.16961
LJ          -1.62549        -1.26757        -2.90547
LJ          -1.26966         4.83867        -5.62763
LJ          -3.97686         5.67315         5.05211
LJ          -2.73909        -1.52266        -3.34542
LJ          -6.23866       -0.020026        -1.61684
LJ          -1.89079         1.16911         2.71422
LJ           5.13394         3.53781        -5.64112
LJ           2.47081        -3.94831        0.672677
LJ           4.52373         6.05225        -2.45802
LJ           4.39782        0.212607       -0.366809
LJ          -3.12265         2.93175         -2.8219
LJ           2.31867       -0.989245         3.61884
LJ            5.6363        -3.78001           5.905
LJ           5.78668        -1.57917        -2.18018
LJ           1.81215        -5.74009         1.49333
LJ          -6.01107        0.584202         2.91461
LJ         -0.852493        -2.35667        -3.27417
LJ           4.66289        -5.58771          4.6393
LJ           5.78271       -0.989736         3.92585
LJ           3.53125       0.0796765         4.37173
LJ          -4.48745        -5.99693         4.56968
LJ           2.09892         5.43697        0.527296
LJ          -1.81175        -1.05256         5.96927
LJ          -5.32794         4.86387        -2.30285
LJ          -1.75639         3.00152        -5.40203
LJ           4.92306         5.89709        0.723289
LJ          -5.45033         6.23713        -2.79199
LJ          -4.30525        0.940626         5.16839
LJ           2.30924        0.363059        -3.41183
LJ            2.0982        -1.01126        -4.11447
LJ           3.11469       -0.401451         5.89478
LJ          -6.18099         2.21474        -3.75563
LJ           -4.1241         1.85224         3.48895
LJ           4.95121         1.71647         3.52073
LJ          -6.26763        -5.17078         2.49448
LJ           1.93059        -5.11596         3.88383
LJ           1.87884         5.30879        -4.61422
LJ           2.96629         5.53623           5.095
LJ          -5.22518         2.47274         2.20383
LJ          -4.19127        -6.27257         5.91751
LJ           3.14449        -4.87299         4.69893
LJ          -2.64542         6.13542         5.78101
LJ           5.84675        -4.93263        -2.51357
LJ            2.1449         -5.9554        -6.34489
LJ          -5.11945         -2.1197         4.94527
LJ          -1.33294        -5.31576        -5.18534
LJ          -3.34615        -5.95371         1.74681
LJ          -5.02405        -1.09598         5.41326
LJ          -2.99607          5.1286        -4.22177
LJ           2.76148        -4.40677         3.36608
