108
#Comment!
LJ         -0.670061        -3.09059      -0.0182665
LJ          -5.43099         3.16145         5.18671
LJ           4.78272        -5.95286        -2.13583
LJ           5.29641        0.786408        -5.20094
LJ           5.15387          5.2283        -6.03628
LJ           1.71024        -1.04747        -1.43145
LJ           1.49617         4.87295        -1.25373
LJ           4.82552        -1.98211         4.92766
LJ          -4.91353       -0.413876         1.26082
LJ           0.08114        0.618433         1.21919
LJ          -6.18408        -4.84003       -0.140728
LJ            5.2712       -0.358798        -4.33144
LJ           3.50132        -4.76062        -2.63693
LJ          0.074442         -5.8862        -5.11176
LJ           5.49997         4.97275        -4.77586
LJ          0.787675        -4.13551        -5.64832
LJ          -2.95411         -3.9413         1.07344
LJ          -5.16455       -0.713097         5.06838
LJ          -6.32312        0.878251         1.68863
LJ         -0.604723         -6.0144        -6.08491
LJ          -3.41474         3.93401        0.141573
LJ          -5.76788         2.46294         4.05734
LJ           2.18917        -4.63294         2.95976
LJ          0.823988        -2.54315        -3.39992
LJ          0.120377        -6.18944         5.17252
LJ          -1.24081        -1.47407         4.56678
LJ           5.20335       -0.416531          -1.498
LJ           1.40753         4.15972       -0.350963
LJ          -1.04209        -6.05331         4.93121
LJ           3.74426         6.32393         4.47381
LJ            4.9546         2.76714        -2.48908
LJ           -1.3433         4.21918         2.34226
LJ          0.951832         -2.4629         1.20348
LJ           4.04282         5.53487        -2.26437
LJ           3.96516         4.11891        -2.81028
LJ          0.994767         1.05271        -5.00407
LJ          0.223176        0.152279        -2.43484
LJ            2.3267          4.0575        -6.34637
LJ           6.02912        -3.56363        -3.28694
LJ           1.99532        0.644462         4.17599
LJ            6.4273        -6.17952       -0.261715
LJ         -0.994062        -3.86738         2.05133
LJ          -4.35704         6.41043         3.79968
LJ           2.69859        -4.72344       -0.706679
LJ          -5.62574         2.54466         6.38965
LJ           3.36642         2.48541         5.45323
LJ          -2.09969        -5.06445        0.577036
LJ           1.52501        -4.48188        -2.52519
LJ           6.23086        -3.63805        -5.37808
LJ          -2.72998         4.80382        -4.32411
LJ           0.62621         2.88593         4.62549
LJ           2.46685        -3.52084        -3.87956
LJ          -1.03114        -4.20556         -1.5619
LJ           4.16105        -2.19112        -2.91409
LJ          -3.83656         2.94601         4.21684
LJ           2.32502         5.49942        -3.37841
LJ          0.226888         6.07677        -4.35938
LJ          -5.94685        -2.51762        -3.97376
LJ         -0.232818        -4.89126        -5.75955
LJ           5.41778        -2.60252        -1.57259
LJ          -6.16669         3.39743         4.54674
LJ          -5.59818        0.954758        -4.10843
LJ          -0.56691        -3.36303        -2.26108
LJ          0.292539         1.72741       -0.422906
LJ          -4.36992         3.47681         5.38323
LJ           2.79273        -3.28823        -2.07395
LJ           4.09718         4.86958        -4.00618
LJ         -0.913826        -1.23297         5.78759
LJ           4.16193        -2.30879         -1.6037
LJ           4.48048        -1.10499       -0.996251
LJ         -0.348261         4.04299        0.337761
LJ           3.35192        -3.36544       -0.539965
LJ           1.10185       -0.759041        0.646003
LJ           3.14753         2.03485         2.83541
LJ          -5.98532        -4.65705         1.75136
LJ           3.35464       -0.439879        -5.54762
LJ           3.29645        -6.42118         5.60174
LJ           -3.8997        -2.09253        -6.43878
LJ           3.02388         3.89084        -2.18839
LJ          0.304367         5.15704        -1.45571
LJ           6.44091       -0.282256       -0.537499
LJ         -0.964879         2.90334         5.35633
LJ           4.59362        0.186763          5.8109
LJ          -1.59175         3.73749        0.720297
LJ          -2.52044        0.996079         5.19845
LJ           3.31123       -0.678126         -3.7141
LJ          -5.03172        -3.65573         1.37781
LJ         -0.389995         4.53683         6.33588
LJ           1.54611        0.413457        -2.06031
LJ          0.212615       0.0899518        -5.73702
LJ           3.55368        -3.08253        -5.68072
LJ           1.20639        -6.10314         5.41293
LJ          -1.37829        -2.06193        -2.14347
LJ           1.99715         3.27024        -2.18056
LJ           -1.4556        -1.40722        -3.28405
LJ           1.74968        -5.60508        -1.08359
LJ          -5.74558        0.781287         3.59578
LJ           1.12251         -1.9449       -0.541683
LJ          -2.61904        -4.06542       -0.932569
LJ          -5.42265        -3.98829        -4.26335
LJ           2.31329        -1.77719         1.15939
LJ          -3.60372         3.10621        -1.50549
LJ           3.84872        -2.96022         5.05476
LJ          0.621181        -1.78571        -2.52213
LJ           1.12785        -4.31974         2.19821
LJ          0.339515         4.75745         4.58403
LJ           4.63855         3.34919        -3.51794
LJ           5.09018         3.83548        0.201266
