108
#Comment!
LJ           2.71106        -5.83176        -5.21501
LJ           5.16641        -4.19399       -0.883607
LJ          -6.27927         4.22828         -3.6236
LJ           5.75446         4.25163         -1.3471
LJ         -0.269741        -2.80107        -2.50362
LJ         -0.778145        -4.21166         1.71564
LJ          -1.57927        -5.31435         5.30281
LJ           1.31766       -0.193351        -5.32813
LJ          -3.12175        -1.29969          6.2432
LJ          -2.70712        -5.46291          6.3968
LJ          -2.73847         1.61746        -3.34584
LJ          0.232613         3.06127         3.48886
LJ          -6.07465         2.72609         5.93253
LJ           2.32989          3.8959         2.82813
LJ          -1.15414        0.964657         5.69113
LJ           4.80936        0.447934        -4.94935
LJ            5.6764        -4.07915         3.30736
LJ          0.456234        -4.11671         2.96865
LJ            1.3267       -0.910059        -1.77344
LJ           5.20013       -0.671972        -4.81604
LJ          -4.03046       -0.727676         6.31523
LJ          -4.96705        -1.29511        -1.68182
LJ           3.54327          3.9992         -5.1142
LJ           4.03905        -2.06322         3.12196
LJ           2.11976         5.21994         2.59628
LJ         -0.852519         5.14078         2.66734
LJ           5.81265        -4.24048          6.2072
LJ           2.40568         2.01522         4.08599
LJ           5.94555         5.52906         -4.1814
LJ           -6.2897         1.94609        -1.92373
LJ          -0.47033         3.90974       -0.909676
LJ           1.25131       -0.582406        -6.40636
LJ          -2.16981        -2.99748        0.979733
LJ          -3.25682       -0.965092        -2.73394
LJ           2.30445        -5.72591        -2.51515
LJ           2.70118        -5.56293         5.53023
LJ            4.9055       -0.197141          4.9575
LJ           1.09163         3.62904         3.48001
LJ          0.933799         1.87506         3.45443
LJ          -4.55423        -3.31532         5.15208
LJ          0.926945         1.33226         1.10436
LJ          -2.14201        -4.21219         2.07209
LJ          -4.91415         -1.2001        -2.63627
LJ          0.399762       -0.780325        -2.56633
LJ          0.292415         6.17952         0.74397
LJ           -4.4631        -4.26165         2.23229
LJ           3.56607         4.58126        -1.46739
LJ           1.56508         2.23035        0.828313
LJ           6.22426        -1.30567        -2.39806
LJ           2.15201        -4.04187         3.09946
LJ          0.413246        -1.17294        -4.58481
LJ          0.994077         2.59469       -0.579286
LJ          -6.17168         5.61977        -1.36404
LJ          -1.56522         3.39425         2.33286
LJ           5.04229         2.69825         4.21759
LJ           3.96498        0.324751        -1.09849
LJ          -6.24359         4.33008         4.90053
LJ         -0.349369         4.76761        -5.93192
LJ           4.84429         4.20985        -5.91648
LJ           2.59629        -3.56664        0.291967
LJ           6.39101         3.56508         -4.8676
LJ          -4.23518        -5.93645        -3.40242
LJ          0.253608       -0.245425         6.05473
LJ          -6.17107        -1.48702        -6.45482
LJ          -4.05569        -1.24991        -4.74545
LJ           2.32897          3.9327       -0.201759
LJ           5.27433        -3.08148         5.94532
LJ           5.99339         6.23284         3.54558
LJ           3.61109         4.87578        0.308364
LJ           -4.7761        -3.60193         2.92799
LJ           2.06302        -6.41337         5.89394
LJ          -3.45953         6.16945         4.22103
LJ           1.40649        -5.71054        -4.24121
LJ          -2.05451        -5.08582        0.809534
LJ           1.14695          5.9344         5.92169
LJ          -3.83057        0.375422        -5.32186
LJ           6.21352          -2.539        -3.72756
LJ           -3.2666         4.09681         2.78503
LJ           1.93923        -3.07994         3.55629
LJ          0.524228         6.42516         -2.9706
LJ          -3.52013         3.62624        0.756674
LJ          0.598249        -4.57977         4.28712
LJ           2.93556        -3.35387        -4.61909
LJ          -3.78188        -2.44616       -0.927161
LJ          -1.82901        -2.94383         4.51317
LJ            1.2065         4.56108        -3.00348
LJ          -4.08927         -1.2073         3.70646
LJ          -1.95811        0.822882         4.85733
LJ           3.18451       -0.429374       -0.347263
LJ         -0.666041        -1.92545        -6.29986
LJ          -5.31597         3.86942        -3.91342
LJ          -4.17455        -1.48288         2.57618
LJ        0.00543782         2.88619         -5.8751
LJ          -3.36138        -4.48897         1.32483
LJ          -2.27669       -0.541646        0.912129
LJ             -4.27        -3.84617        -1.70108
LJ           3.68005         2.46045       -0.164881
LJ           5.78124        -3.34342        -2.58972
LJ            2.6783         6.08544        -3.54075
LJ           2.74924         4.36832        -2.30601
LJ           0.60898        -1.00352          -5.715
LJ          0.968867         3.47691        -3.50189
LJ           4.08331         4.43229        -2.64523
LJ           3.09874        -1.51198        -1.38026
LJ           2.88479          -0.701         1.00016
LJ          -2.91594        -1.26787        -1.54978
LJ          0.102301         4.02707         6.31764
LJ           4.13693        -2.41639        -5.06147
