108
#Comment!
LJ         -0.585031        -2.99915        -0.16817
LJ          -5.37845          3.0555          5.4542
LJ           4.56844        -5.98268        -2.00068
LJ            5.2338        0.882996        -5.02908
LJ           5.03206         5.10971        -6.11173
LJ           1.56047        -1.03487         -1.5584
LJ           1.70848         5.06139        -1.07225
LJ           5.14639        -2.00475         4.90669
LJ          -5.06894       -0.445488         1.18994
LJ          0.047576        0.671897         1.04239
LJ           -6.1684        -4.84022       -0.199136
LJ           5.50104       -0.272001        -4.33151
LJ           3.22929        -4.84189        -2.78358
LJ          -0.12659        -5.97466        -5.08918
LJ           5.47793         5.00398        -4.90496
LJ           0.70142        -4.01988        -5.41095
LJ           -2.8664         -3.9873         1.21456
LJ          -5.06658       -0.821745         4.96583
LJ          -6.35237        0.865205         1.62741
LJ          -0.66483        -5.89684        -5.88833
LJ          -3.36134         3.71973        0.410257
LJ          -5.66121         2.47431          4.2745
LJ           2.32933        -4.58089         2.89137
LJ          0.912334        -2.59696        -3.36264
LJ         0.0214859        -6.40596         5.42726
LJ          -1.27658        -1.36134         4.83923
LJ           5.20432       -0.365613        -1.26291
LJ           1.59219         4.46913       -0.176468
LJ         -0.876966        -5.77075         4.96435
LJ           3.58686         6.18078          4.3849
LJ           4.91647         2.84822         -2.3774
LJ          -1.45658           4.336         2.20823
LJ          0.940275        -2.95644        0.790981
LJ           4.05677         5.42516        -2.50374
LJ           3.83096         4.06353        -3.14633
LJ           0.92607        0.941067        -5.07912
LJ          0.110401       -0.107197        -2.67223
LJ            2.3507          3.6873        -6.20181
LJ           6.06195        -3.56749        -3.43258
LJ           2.02502        0.710332         4.22041
LJ           6.23536        -6.03587       -0.224427
LJ          -1.14184        -3.97609         2.06264
LJ          -4.25937         6.37157         3.75352
LJ           2.65921        -4.77551       -0.887643
LJ          -5.76748         2.47698         6.23849
LJ           3.48453         2.38578          5.6011
LJ          -1.94019        -5.03331        0.663081
LJ           1.52373         -4.2579        -2.44672
LJ           6.12481        -3.90312         -5.5072
LJ          -3.03944         4.80558        -4.37621
LJ          0.603371         3.10614         4.67362
LJ           2.34543        -3.47319        -3.96096
LJ          -1.04493        -4.56198        -1.46684
LJ           4.08059        -2.40185        -2.85282
LJ          -3.75993         2.93557         4.31209
LJ           2.63189         5.25038        -3.25532
LJ         0.0357863         6.20011        -4.21468
LJ          -5.88002        -2.42408        -3.97395
LJ         -0.254587        -4.83918        -5.49507
LJ           5.44883        -2.59188        -1.82586
LJ          -6.21539         3.32903         4.37544
LJ          -5.59337        0.712194        -4.28966
LJ         -0.582389        -3.08635        -2.14836
LJ          0.468426         1.67825       -0.531119
LJ          -4.46597         3.50134         5.33016
LJ           2.89295        -3.42271        -2.09484
LJ            4.0199          4.8038        -3.83418
LJ         -0.789886       -0.963185         6.10756
LJ            4.1001        -2.21013           -1.69
LJ           4.37791        -1.20196        -1.12072
LJ         -0.234837         3.93837        0.378367
LJ           3.40367        -3.15426       -0.590228
LJ           0.87749       -0.785055        0.825467
LJ           3.16856         1.91997         2.76984
LJ          -6.18253        -4.58685         1.57649
LJ           3.38137       -0.520497        -5.46918
LJ            3.1825        -6.43777         5.60241
LJ          -3.92662        -2.27536        -6.42799
LJ           3.11957         3.84311        -2.18816
LJ          0.671728         4.89455        -1.26567
LJ          -6.37325       -0.268769       -0.401866
LJ          -1.04438          3.1578         5.31645
LJ           4.29573        0.180186         5.69984
LJ          -1.57043         3.69242        0.739703
LJ          -2.42356        0.945824         5.59481
LJ           3.26381       -0.668312        -3.59136
LJ           -4.9223        -3.51031         1.28126
LJ         -0.388953         4.36849        -6.43229
LJ            1.3904        0.303033        -1.86679
LJ         0.0868234       -0.128219        -5.93104
LJ           3.67197        -3.29418        -5.71418
LJ           1.15646        -6.25423         5.54983
LJ          -1.81257        -2.37143        -1.75523
LJ           1.97575         3.48461        -2.18565
LJ          -1.20111        -1.57142        -3.33064
LJ           1.70791        -5.37534        -1.02692
LJ          -5.78394        0.699928         3.51442
LJ           1.32956         -1.8513       -0.643508
LJ          -2.54053        -4.07661         -1.2627
LJ          -5.31022        -3.81119        -4.18741
LJ           2.31578        -1.91841         1.03166
LJ          -3.64287         3.18126        -1.52636
LJ           3.97392        -2.78275         5.14974
LJ          0.409016        -1.91342        -2.36217
LJ           1.24159        -4.31053         2.19629
LJ          0.429259         4.94937         4.66453
LJ           4.47574         3.42104        -3.47897
LJ           5.02644         3.86316        0.144827
