108
#Comment!
LJ          0.963884         1.61576        -5.85849
LJ          -2.85962        -3.18552         4.10235
LJ          0.232518      -0.0681081         4.55774
LJ          -4.31851          6.0354        -6.22814
LJ           6.10794        -5.87673        -5.98414
LJ          -2.70313       -0.750334         5.05413
LJ         -0.524701        -6.38372         2.24548
LJ            3.7238       -0.257837        -4.49763
LJ          0.311861         3.21962        0.820972
LJ           6.19986         1.12047       -0.887317
LJ          -2.01765         3.14298       -0.156341
LJ           1.01458         1.24236         2.81798
LJ           4.06165        -4.14023         1.86939
LJ           2.22664         3.49571         2.28666
LJ          -3.59878        -2.18345         3.97877
LJ          -4.24866      -0.0360111         4.00336
LJ          -5.68856       -0.250971        0.735306
LJ          -2.80863        0.781343         -5.5347
LJ          -1.30904         4.74105        -6.15184
LJ          -5.36988        -5.02401        -5.29823
LJ          -1.90013         4.52959        -5.08689
LJ           5.39031       -0.297751        0.395457
LJ          -1.09031         1.38591         3.45725
LJ           3.75773        -1.05193         2.82457
LJ           1.11376        -4.40918         2.85228
LJ          0.352195        -4.27231         5.74013
LJ           6.31415        -2.81926        -4.89954
LJ          -2.49852         3.18781         1.00136
LJ          -1.76249        -3.63128         2.24804
LJ          -5.88036         5.75427        -5.95705
LJ           5.53181         4.19187         2.04964
LJ          -2.66531        -3.88016         1.40005
LJ          -4.34592        -2.75541        0.155032
LJ           5.72992          2.2153         5.20592
LJ           1.32657         6.06852         1.32562
LJ          -6.11907        -1.84891        -3.15399
LJ           1.21799         -1.2096         1.42921
LJ          -3.52681        0.600159         2.15509
LJ           3.09293         1.81651     -0.00952365
LJ           2.53024        -5.78103        -2.65572
LJ           2.72617        -1.84198        -1.37882
LJ          -6.39352        -1.91901        -5.98804
LJ           3.17409        -6.13896         4.43057
LJ         -0.412356         1.01166         2.67978
LJ           1.59091        0.888867         5.06551
LJ           2.57404        0.586922       -0.300495
LJ           5.74728         6.03351        -6.37587
LJ           2.93227         2.87488       -0.817121
LJ          0.715835         -1.7547         5.03572
LJ           4.94108         2.34719         3.37853
LJ         -0.956061        -6.11412        0.268217
LJ           4.33532         3.05827        -4.55459
LJ          -5.20805          1.9508         2.69587
LJ           0.92439         -2.4916        -3.28915
LJ         -0.816542        -5.62869        -1.58722
LJ          -4.32183         -4.9575        0.321849
LJ           4.30078        -1.25112        -3.76138
LJ           -5.6442         0.52882         5.02015
LJ           4.13029        -1.74219         3.70488
LJ          0.435938         5.24257        -1.16488
LJ            2.5713        -2.92924         4.93323
LJ          -5.18041         0.30196        -4.96935
LJ            2.9324         5.74012         4.00178
LJ          -1.36626       0.0874651         6.41334
LJ           4.27752         1.56135       -0.735365
LJ          -3.22712         -5.5465         4.24568
LJ          -3.59761        0.484798        -4.09668
LJ         -0.765199         6.09512         4.90591
LJ          -6.31597        -1.66046         5.80119
LJ         -0.919438         5.17091         2.29805
LJ          -2.45555        -4.92147          1.6646
LJ         -0.436357         1.45669         1.82513
LJ          0.566916         5.33418        -3.16675
LJ         -0.699103        -5.14102         6.11948
LJ           4.73127         3.94358         6.44744
LJ           2.40933        -4.61879        -4.38568
LJ           5.39932        -1.05353         6.44093
LJ           4.21628         3.14634       -0.679319
LJ          -5.46425       -0.978743        -2.94841
LJ           4.73103         5.26533         4.90628
LJ          0.963841         4.13778          5.5097
LJ           5.15138         5.27963        -4.09829
LJ           5.91072        -5.55459         4.79736
LJ           6.02717         5.15142         1.86918
LJ           3.85912         3.32275        -5.72939
LJ           5.56515        0.581908         1.49373
LJ          -4.48478         2.47304         1.70596
LJ            1.3487        -6.09276         2.64806
LJ         -0.554025        -1.37074        -5.83762
LJ          -4.87987         1.15688         3.37826
LJ          -4.31785         -2.0985        -2.21276
LJ          0.273966         2.25777       -0.757296
LJ         -0.339892        -4.44223         2.25124
LJ          -3.58488          1.9795        -5.93481
LJ           5.29706        -1.80868        0.746957
LJ          -5.26686        -1.37599        -1.42641
LJ          -3.13414       -0.635607         1.73439
LJ           -2.8059         3.74817        -3.06414
LJ           2.83253         1.17027        -3.79421
LJ          -3.66229        -5.36886         6.42613
LJ         -0.147854          -5.244         4.95545
LJ          -4.15847        -5.44573        -4.58855
LJ         -0.549448          2.6901        -5.83422
LJ         -0.182647        -1.70631        -1.56587
LJ          -2.72271        -1.04426        0.593846
LJ          -4.46946         1.20551       -0.720264
LJ          -5.36452         1.46762        -1.18825
LJ          -1.46064         2.69648        -6.19957
