108
#Comment!
LJ           2.62453        -2.92953        -5.62377
LJ           3.94486          1.6869        -1.89895
LJ         0.0101568        -3.10034        -5.26272
LJ           6.42585        0.760332         2.69312
LJ           1.11921         1.97156         3.98911
LJ           3.30196        -3.35575        -2.02345
LJ           -5.1736       -0.701084        -5.76614
LJ           6.38458         4.81276         -5.2947
LJ         -0.471715        -2.68802       0.0509728
LJ          0.756812        -3.72265         -5.8271
LJ           -1.0585        -2.45934         1.54532
LJ           -1.9694          1.3638         6.19493
LJ          0.803701         2.12118          6.2173
LJ          0.954866        -3.26499       -0.900039
LJ         -0.513435        -1.47919        -0.31585
LJ           1.72435        -3.25818         5.51731
LJ          -1.92903         5.95257        -3.59223
LJ          -2.73599         3.42416       -0.187213
LJ          -1.39082         5.86218         3.14741
LJ          0.993833         4.63472        -6.19045
LJ           1.90698         -1.7192         3.57935
LJ           4.80151         5.29738        -3.38912
LJ           2.76129        -5.11932        -3.38911
LJ          -4.63217        -5.63839        -5.95812
LJ           3.45708         3.11155         1.37811
LJ           2.73123         2.93575       -0.234312
LJ           2.07553        -1.80373       0.0569018
LJ         -0.799647         2.03903         4.85661
LJ        -0.0204523         5.64055         2.54228
LJ          -4.41397        0.774814        -1.83219
LJ          -6.26994        0.735626         4.36046
LJ          0.446633        -1.97601         1.13593
LJ          -3.05607        -4.48922         6.13986
LJ          -5.14534        -3.12845         2.10373
LJ           5.10722        -3.65179       -0.806174
LJ          -4.20542        -2.28036        -2.29723
LJ           5.99552         -3.7528         3.07762
LJ           6.41835        -6.05325       -0.484717
LJ           4.21141         2.51933         1.76253
LJ          -4.99075        0.261225         3.62132
LJ            3.9707         1.11313        -3.15323
LJ          -3.91963         3.41649         4.71271
LJ          -2.77635         2.52671         4.12767
LJ          -5.85799         1.15995        -5.79645
LJ           4.57366        -6.38445         6.27377
LJ           1.60305         4.73392        -2.84498
LJ           4.66621        -3.77115        -3.49501
LJ           1.16029        -5.69307       0.0778924
LJ          -1.44146         6.08525         6.17375
LJ           1.94986        -2.59847       -0.959337
LJ          -5.49927         3.15338       -0.793105
LJ          -1.09283         3.43819         -2.9046
LJ          -4.52878         5.66995        -1.28554
LJ           2.77372         5.75086         -3.0817
LJ          -6.30541        0.863404         6.01289
LJ           2.14204        -1.48943        -4.16951
LJ            2.4398       -0.667966        -1.26702
LJ           2.77907        -3.96367        -5.74646
LJ           5.27204        -2.52213         2.96087
LJ           1.78918         2.79259         3.14297
LJ          -2.43065        -2.78557          2.8316
LJ           1.03005         3.05713         5.81946
LJ           2.92586       -0.559045         4.87284
LJ           2.83265       0.0138978        -6.22013
LJ          -2.86323      -0.0705886         4.62059
LJ          0.165683        0.494698         5.41617
LJ         -0.659985         6.26971        -3.17709
LJ          -5.28545        -1.28277        -2.45082
LJ          -1.92131        -4.71032        0.439785
LJ          0.669478        -4.86644        -5.83252
LJ         0.0800285         1.21232         6.39041
LJ           1.55938        -2.66566        -4.43191
LJ          -2.37553         3.53277         1.89162
LJ          -1.22673       -0.931036        -4.07642
LJ           3.00707         0.61436        -5.34995
LJ           4.94888         4.18281         4.56128
LJ          -6.36953         5.41847        -3.04012
LJ          -6.19812         5.18906         2.97796
LJ            -6.389         6.20799         -4.1454
LJ           1.24174         5.79812        0.534431
LJ           3.12311        -2.74271        -3.41079
LJ           1.37747         2.02015        -2.69951
LJ          -5.59678       -0.698455         3.98108
LJ             1.655          4.6745        0.643599
LJ           5.36244         6.10771        -4.13914
LJ         -0.931367         3.73373         4.18736
LJ           3.95942        0.527689         2.01757
LJ           2.22062        -2.37348         5.13888
LJ        -0.0949635        -5.50103      -0.0589783
LJ          0.392774         5.27613        -4.12681
LJ          0.334172        -1.75356        -4.89617
LJ          -4.86242         -5.4791         2.47573
LJ          0.997302          2.7062         -1.9291
LJ          0.503981        -3.24956          5.2247
LJ          -5.35155         0.88537         2.17348
LJ          -5.67406         5.33236         1.82248
LJ           2.00233        -4.40441         5.57498
LJ        -0.0380567         4.43057        -1.43199
LJ          -5.95647        -2.43527         2.91469
LJ          -0.48637        0.669284         2.35609
LJ           3.76373        -6.35093         5.04474
LJ           5.76572        -1.50663         3.91098
LJ          -1.38337        -5.63344         6.03535
LJ           5.17184        -5.31392          4.2525
LJ         -0.903245         4.77439        -5.59644
LJ           1.82321        -6.29596         4.49403
LJ            4.0815         1.95605         2.94942
LJ          -3.17047       0.0623363          3.3515
