108
#Comment!
LJ           3.61246         6.02704         4.00535
LJ           2.27357         4.76036         1.12036
LJ           1.36757         5.70838        -2.44481
LJ           -6.0315        -4.64095         6.03408
LJ          -2.53482        -4.90335        -5.35208
LJ           1.54278         4.28119        -5.19128
LJ           5.58362        -2.71208        -5.95008
LJ            5.0567        -1.86334         5.66538
LJ           5.76312         5.13199        -3.34835
LJ           -1.1876        -4.62003         -1.6756
LJ          -3.77586         4.21753         3.19868
LJ          -5.82176         5.21929        -2.66909
LJ           4.04164       -0.242993         2.18759
LJ          -5.96082        -1.42975         3.94576
LJ           3.11323        -2.93193        0.656396
LJ           3.00472        -2.59034        -3.42414
LJ          -2.55182         6.24831         4.19676
LJ           6.36915       -0.485345       -0.641552
LJ           4.41991       -0.568849         3.25004
LJ          -2.19174        -5.79402         3.37898
LJ           -2.0671         4.64732        -5.56674
LJ        -0.0403934         4.08955          3.3514
LJ          0.149973        -3.72138         -4.8449
LJ          -3.22038        -2.09529         1.80855
LJ           5.95699         5.46983        -1.87276
LJ          -4.70711        -2.69863         5.14344
LJ           5.15632         1.66835        -1.12105
LJ          -2.26621        -2.00144        -6.42097
LJ           1.44962        -2.90423         3.59371
LJ          -3.81181         3.06408         3.19881
LJ         -0.942927        -2.59055         1.17519
LJ          -1.95019        -3.81951       -0.362438
LJ          -5.18911         3.44031      -0.0320732
LJ          -4.09187         4.95404         4.46485
LJ           2.63397         3.59884         0.42984
LJ          -1.00053        -2.51407         2.16205
LJ          -3.18769        -6.18649        -2.00971
LJ          -4.31493         5.37401         5.67642
LJ          0.422315        0.735317        0.154048
LJ          -2.73942        -3.99675        -4.94127
LJ          -3.40102          1.9344        -3.94294
LJ          -1.96778        -3.60529        -3.18121
LJ          -1.71469        -5.23033        -1.05596
LJ           1.12961         3.76477         3.94657
LJ          -4.10767         6.06256          4.6589
LJ         -0.428441        0.139882        -4.36177
LJ            5.9382       -0.706329         5.39076
LJ           3.01169        -6.04208         6.15882
LJ         -0.214586         3.65154        -5.66708
LJ          0.849532       -0.320358        -2.21596
LJ           3.91467        -4.12028       -0.648547
LJ          -4.60614        -2.00753         3.87343
LJ           4.35256        -2.30616         -2.9087
LJ         -0.387965         2.38348        -5.10598
LJ          -4.46268         2.51228       0.0141552
LJ           6.09197        -1.33243        -5.89766
LJ           1.96192        -3.06312        -3.05619
LJ            4.9129       -0.519882        -5.77462
LJ           5.51142        -2.82837        -4.17412
LJ          -5.07483        -3.60616        -3.97816
LJ           5.38986        -1.64683        -4.04991
LJ           -3.6915         4.12241       0.0604416
LJ          0.556459        -1.36171       -0.598254
LJ          -2.51631         5.51993        -2.37958
LJ            5.5075      -0.0906392        -2.61821
LJ           6.35382       -0.175201        -1.86552
LJ          -5.64057         2.82012        -2.34008
LJ           5.15666         3.76489       0.0128453
LJ          -2.41688        -2.30682         2.86004
LJ          -2.02765         -3.8267        -1.49116
LJ            4.7609        -2.91691         4.19034
LJ          -3.42017         2.57613         -1.3398
LJ         -0.255111        -6.21053        -5.99769
LJ           5.12033        -1.33536        -5.04816
LJ          -4.75854         -6.2503        -3.24166
LJ          -1.30216         5.48918         5.78526
LJ          -4.38543       0.0726922        -3.92601
LJ           -6.0518         1.61933         4.92027
LJ          -3.43339         2.60296        -2.64141
LJ          0.127516         1.71613         4.80553
LJ           5.66228         5.51587         2.20204
LJ           5.75732         5.07381        -5.65228
LJ           5.34215        -5.30124         -6.0222
LJ           6.07548        -4.04011         6.42305
LJ           5.28313        -5.77874         5.04269
LJ           3.54878      -0.0670283        -4.85433
LJ           2.86391         1.66843        -1.68024
LJ          -6.39705        0.703865         -2.0997
LJ           1.88609         2.90775         2.72135
LJ           6.21568         1.53924        -5.44715
LJ         -0.597165          4.5211        -2.50052
LJ          -4.99495        0.148202        -2.51819
LJ           6.44253        -3.88895       -0.925328
LJ          -2.31536         1.48224        -2.97905
LJ          -5.62348        -3.47443        -3.05213
LJ          -4.74947        -5.69103          3.5186
LJ          -4.30299        -6.04005        -4.85633
LJ           5.68257        -6.10486         2.21648
LJ          -5.23738         1.66937        -2.05186
LJ           1.48499        -4.69705       -0.301394
LJ          -2.60321        0.727011         4.88953
LJ           4.25885        0.803242         2.58941
LJ          -4.74747        -1.54451        -1.78435
LJ         -0.150688       -0.825534        -6.34256
LJ          -3.91236        -1.10818      -0.0715073
LJ          -6.18866         4.65476         4.92484
LJ           3.41513         1.20143        0.727649
LJ           2.00799        -3.46022         1.23568
