108
#Comment!
LJ           3.90627          4.6609        -4.60643
LJ           3.21444         5.56271        -0.20086
LJ          0.959423        -5.58165        -1.57435
LJ         -0.757447        -3.92024        -5.89853
LJ            4.3192         4.83679         -1.7485
LJ           1.51458         2.05522         5.26542
LJ          -2.19779        -4.28836        0.580784
LJ           1.22653         4.05205         4.33521
LJ           5.66549        -0.30342        -1.86237
LJ          -3.96133         -5.3773         4.06245
LJ            1.3649        -3.06353         4.66468
LJ           -2.4043         6.41519         5.34887
LJ           3.16908         4.64511        -3.69774
LJ          -0.44427        0.116368         6.40257
LJ         -0.817558         2.45979        -6.13366
LJ          -0.61698         5.63997         4.48174
LJ          0.199066         5.79243        -1.90046
LJ           1.33684       -0.687301         -1.1078
LJ         0.0925792        -3.59512        -5.42489
LJ           -2.4106        -1.67606         2.61416
LJ           3.36836        -6.29873        -1.34613
LJ         -0.683937         1.82784        -4.31609
LJ          -4.03449        -4.32285         5.22575
LJ          -1.59905        -2.14634         4.69922
LJ           6.10754         0.28047          0.8733
LJ           2.71178         2.76345        -6.39131
LJ           1.88392         2.28645        -3.67715
LJ         -0.774805         2.85146         1.57178
LJ           1.79766        0.502517        -4.24259
LJ           3.28837         4.38864        -1.24815
LJ          -1.29051         6.06405         3.66265
LJ          -5.44861        -4.59041         6.20089
LJ           -3.0352         3.00249          2.1873
LJ           2.79556         5.18052         3.23769
LJ          -3.48312         6.26411       -0.927402
LJ          -2.50077        -5.84721         4.20433
LJ          -1.91325         5.72612        -5.37081
LJ          -2.53956         5.46379         2.31483
LJ          -2.59221         2.03267        -5.79373
LJ         -0.589024       -0.474149         1.67945
LJ           5.14997        -3.53187        0.678451
LJ          0.695416        0.386772        -3.19758
LJ            2.3274         2.26231        -5.49202
LJ          -1.93386         -3.0188        -1.70679
LJ          -1.15373        0.808917         2.82664
LJ          -4.33325       -0.956774        -5.23157
LJ            4.3723        -2.23087       -0.881366
LJ           4.26555        0.732533         4.55545
LJ           4.72703        -6.23546        -5.70248
LJ         -0.978966        -3.45935         2.81969
LJ           1.93585        -2.26036         4.38547
LJ          -5.62787         3.08297         5.35011
LJ            3.3496         2.91156        -0.79539
LJ           5.67437        -4.76285         4.52069
LJ           6.21502         4.80062        -4.74614
LJ          -6.21153        -4.85015         4.28277
LJ          -5.08096        -6.45191         3.10385
LJ          -1.15686        -5.60129          -6.192
LJ          -5.70825         5.79712        -4.30332
LJ          -5.91274         3.49288        -2.02265
LJ           1.90189        -4.27052         2.45928
LJ          -3.90582          1.3459        -3.97244
LJ         -0.436144        -6.44177        0.844257
LJ           4.48242        -5.35637         4.92373
LJ          -5.69262         2.86285         1.15165
LJ           3.58727        -6.01838        -3.17002
LJ           3.86797        0.264282         1.28028
LJ          -2.78236        0.549898        -5.24838
LJ           4.57046          2.7825         3.74006
LJ           3.38069         -3.6214       -0.313353
LJ           4.96475         5.02751        -4.51733
LJ          -2.54896        -1.05764        0.680492
LJ          -2.60944        -3.28401          2.3207
LJ         -0.994712       -0.865347        -4.87775
LJ          -1.87823         1.45376       0.0505737
LJ          0.399288         -0.8081       -0.437039
LJ         -0.109045          5.3455         1.38253
LJ           1.77245        -3.11086       -0.730486
LJ           2.08145         3.98295         5.64263
LJ          -5.51962        -3.00639        -4.65878
LJ          0.428601         2.71703        -3.46775
LJ           3.79348         4.84224        -2.64134
LJ           3.50926        -2.81032        -5.21926
LJ          -1.15949         5.66783         1.19925
LJ           1.00757        -1.47632        -1.96768
LJ           1.72555        0.671135        -2.64793
LJ           2.88575       -0.424567         2.62578
LJ          -2.56417         5.91905        -1.67809
LJ           1.95667         4.88977        -1.34818
LJ          -5.56666        -2.77963         1.41019
LJ          -4.89895        -2.52746        -1.74189
LJ           3.23681       -0.343417        -4.44147
LJ           5.28099        -5.41523        -3.84906
LJ          -3.09268        -4.73305         4.67849
LJ         -0.514746        0.759614         3.68859
LJ           6.20545        -5.58839         1.25507
LJ           3.21207        -4.55192         2.00502
LJ          -1.43187       -0.322449        -6.21451
LJ           2.54572         5.71226        -1.14689
LJ           6.28753         5.93408         6.45253
LJ           3.49144         -0.8888         5.91012
LJ            5.0476        -2.64377        -5.02551
LJ           2.06438      -0.0960919          4.5893
LJ          -2.85783         3.94527        0.871033
LJ          -1.54539        -2.90279        -3.33576
LJ            4.0523       -0.303224         3.79446
LJ           3.45613         5.12897         4.86718
LJ           5.38709        -4.42373         6.11805
