108
#Comment!
LJ           2.69474        -3.76418       -0.335651
LJ          -1.45967        -4.54996        -1.69365
LJ           5.40428        -6.02257         5.59169
LJ          -1.27651         2.15473         5.39215
LJ           3.71146        -4.96964        0.168837
LJ           1.41404         4.84328        -2.66841
LJ           3.56859         3.72516         5.44733
LJ           2.97828         3.57084        -6.35108
LJ           5.03675         3.32382         1.02712
LJ           4.21205         -5.8101         3.74412
LJ           -3.1315         5.50491         -5.9573
LJ           5.97271        -3.55018         6.22007
LJ           2.99245         4.54423         4.27829
LJ          -5.21425        -2.27631         1.12634
LJ           4.76588         6.22569         4.40578
LJ           2.00198         5.56552         4.74101
LJ           -4.0571        -2.61129        -2.32912
LJ           1.69633         3.07567        -5.68043
LJ         -0.525221            -4.8         5.28658
LJ           5.18253         1.12345         3.93362
LJ           4.73228        -3.43818        -1.11646
LJ          -2.47141        -1.38057        -1.67033
LJ          -1.79422         1.02103       -0.921416
LJ          -3.33191       -0.163514         4.50022
LJ          -2.70538           -5.92         5.44954
LJ           2.47957         5.33081        -5.62856
LJ           6.41585        -1.74505        -2.35248
LJ           3.02949        -5.15809        -5.10867
LJ          -2.66643         5.94703         5.89312
LJ           5.99073        -4.41502         5.00563
LJ          -6.17806        -2.56449      -0.0676164
LJ           6.06675        -5.06262         5.76181
LJ          -1.82649         4.49154          6.0694
LJ           -4.0589        -1.51825        -4.37425
LJ          -4.35376         2.01481         2.92252
LJ          0.464523         4.99275         5.84264
LJ           6.37523       -0.853349        0.769315
LJ          -5.33169        0.824684         3.34593
LJ          -2.18041         5.82413        0.299844
LJ          -2.22373         -2.5777        -5.22897
LJ          -5.22632        -1.86019        -5.52493
LJ          0.838122         5.31389        -1.91539
LJ           1.74697         2.32298         1.07305
LJ           3.38631        -2.72079         2.29532
LJ           3.91336       0.0828368         -3.0161
LJ          -2.40216         -4.5819       -0.753328
LJ           2.51695         3.67751        -1.60876
LJ          -1.24248       -0.178115         1.45478
LJ          -5.77761         -2.3014         5.46277
LJ         -0.971606        -1.03797        -3.62009
LJ         -0.697313         4.20269         2.67714
LJ          -1.99584        -2.36572        -3.89384
LJ          -5.40025         4.35751         5.69722
LJ           3.86709         5.06096        -5.23073
LJ         -0.821572         4.63117         5.89094
LJ          -1.36449         2.06135        -2.16814
LJ           6.26556       -0.514852        -0.79275
LJ           5.21202         2.33931         2.05866
LJ           4.49921         2.09469         5.93176
LJ          -2.23567         3.87988         1.52986
LJ          -3.23469        -2.67372       -0.926106
LJ           -3.8048        -6.22113          5.9595
LJ          -1.44103        -4.34311         5.76261
LJ           2.08945         1.16215        -6.06566
LJ          -3.08955        -5.07464        -3.44647
LJ           -1.1454        -2.94113         5.36226
LJ          -6.08915        -4.97539        -2.32264
LJ           4.26435        -3.19285         5.63984
LJ           3.24127        -4.30536         4.63359
LJ           5.58232        -5.43319        -2.24775
LJ           2.48401         -3.0446         5.80471
LJ          -2.57412        -5.91419         -2.9345
LJ         -0.604823         5.94508        -5.05668
LJ           6.01848           2.725         3.34241
LJ            4.3379        -1.88071       -0.562691
LJ          0.679693         2.11216        -0.23355
LJ           2.95884         2.53442        -3.45585
LJ           4.16765         5.53766        -3.22021
LJ          -5.91007        -5.19151         6.11879
LJ          -6.20377         -3.4207        -3.79998
LJ          -3.52078         3.02828         4.29376
LJ           -2.2725        -4.31173        -5.95288
LJ         -0.774719        -4.23391          3.3438
LJ           2.53739        -6.06949         2.33023
LJ            -2.647         3.69036         5.28893
LJ         -0.903184         5.45269         5.16964
LJ           4.66885        -4.56399        -4.80443
LJ          0.667653        -1.22692         -2.1796
LJ          -3.62011        0.486281        0.912469
LJ          -3.49639        -5.51147         4.38174
LJ         -0.867327         5.24989        -2.50076
LJ          -3.24329          0.4247        -4.94076
LJ           1.90764        -1.38209        -6.28718
LJ          -3.40787       -0.185931         2.67342
LJ           -5.2966          3.3364          1.8598
LJ          -3.15753         1.46056       -0.858404
LJ           3.76212         6.08169        -4.85747
LJ          -4.72446        0.997361       -0.344928
LJ            1.8702        -5.90604        -6.32467
LJ           1.12555         -2.0688         5.12002
LJ           4.00072        0.251309         2.38664
LJ          -2.58683        -6.32939        -6.08446
LJ           5.78814        -4.31444        -4.17891
LJ          -1.48622        0.705205         5.92222
LJ           1.90801        -5.70394         5.45401
LJ         -0.187637         -1.8247        -6.15074
LJ          -6.13513        -5.86245        -5.21813
LJ           4.57803        -3.52996        -4.61634
