108
#Comment!
LJ            1.9107         1.34824        -2.66914
LJ           3.46411         3.53524       0.0879071
LJ          -2.37912        -2.42747         5.32682
LJ          -2.67098        -3.69163        -2.17042
LJ           3.50817         4.49846        -3.81587
LJ           3.37728         2.68446        -5.90894
LJ           5.37125       -0.768509         3.44273
LJ           2.02171         4.89923          5.5103
LJ           4.36459        -2.16416        -2.04079
LJ          -1.65182         3.40056        -5.61027
LJ         -0.945743        -3.46523         2.88835
LJ           -5.4569        -6.44301        -5.32475
LJ           4.85987         3.00823        -6.23935
LJ         -0.914508        -1.12732        -5.79857
LJ           2.52488         5.73065        -5.79445
LJ           0.49366         2.78038         4.58998
LJ           1.89227        -6.18295        -2.54833
LJ           4.35483         4.94191         -5.1719
LJ           5.78081        -5.88566         6.09976
LJ          -5.19766        -2.58192         3.15224
LJ           3.96062         2.88029         2.34777
LJ           1.06808        -1.07871        -2.20108
LJ          -6.33512        -5.24588        -2.51997
LJ          -5.13561        -2.52455        -2.56147
LJ           3.20493        0.187695          2.7763
LJ           3.48115        0.328581        -3.60793
LJ         -0.493412         2.65446        -4.07293
LJ           3.17252       -0.204139       -0.674369
LJ            4.0317        -1.12871        -5.31115
LJ           3.22582         2.86596        0.868585
LJ         0.0399759          5.7177         6.13387
LJ           3.01235        -1.72831         -4.6562
LJ           5.51524         3.01276         5.34449
LJ           1.86217          5.7314          3.4978
LJ           1.29372          4.6036        -1.09352
LJ          -6.20945         4.82876         3.64994
LJ           2.20747        -6.11569        -6.26601
LJ          -2.90158         6.21234         5.36315
LJ          -5.40976        0.917399         4.24641
LJ          -1.87251         3.00753         4.33036
LJ           5.59883         2.63628         0.50472
LJ           2.50783       -0.911245        -1.07491
LJ         -0.549878         2.74665        -1.73079
LJ          -6.22172        -3.67116        -1.26789
LJ          -1.19396        0.127667          1.4136
LJ          -2.89021         5.43294         6.26074
LJ           5.80221        -2.93731        -2.76802
LJ           4.96039        0.679018          5.6688
LJ           1.05569        -3.53858        -2.82716
LJ          -3.05033        -5.44737          1.6568
LJ           2.04757         6.41766         4.37603
LJ          -2.09769         2.97605         5.33953
LJ           4.70597        0.661501          1.5183
LJ           5.40738         5.16171          4.6987
LJ          -2.61617         2.90249        -2.98541
LJ          -3.66315        -1.87002        -6.10564
LJ          -5.39092         6.11401         6.03312
LJ           1.35346         4.05838        -6.13018
LJ          -5.10147         5.60456        -5.99605
LJ            2.8889        -3.32451         4.60146
LJ           4.37754        -3.42319        0.532618
LJ           -4.8341         -2.8483        0.712213
LJ           3.47892         6.03691       -0.961989
LJ          -2.16593         5.89532        0.880059
LJ          -5.98718         1.74715        0.622372
LJ          0.561617        -4.25592        -6.12165
LJ           3.42717         1.19995         3.14199
LJ          -4.45311       -0.142227        -4.38943
LJ          0.677762         2.87792         6.24874
LJ           6.42634        -1.67833         2.49368
LJ           4.81402         0.85317        -4.77949
LJ          -4.43671        -1.35983         0.74864
LJ          -6.16292         1.90721          3.3435
LJ          -3.58008        -1.16652          -1.441
LJ          -1.70016         5.56905         3.27512
LJ          -1.92291        -1.96747         1.36244
LJ          -1.32509         6.29416         2.35533
LJ           1.57947         4.81194         -2.1231
LJ           3.80912        -6.33757        -6.36593
LJ           5.81187        -4.14569        -2.84323
LJ           1.13389        -4.47649        -2.41033
LJ          0.877284         3.38167       -0.609227
LJ           5.74285        0.041544      -0.0293625
LJ          -1.40134         5.46043         5.70371
LJ        -0.0947172        -2.00183       -0.462633
LJ         -0.904644        -1.01413        -1.89019
LJ          -3.79363        -3.56843         1.07048
LJ           6.39674         4.10352         -4.7795
LJ          0.247236         5.25839         1.90049
LJ          -3.42256        -2.30344        0.734572
LJ          -2.72283        -1.94855        -1.10746
LJ           2.60438        -5.34861         -2.9116
LJ          -5.02013         4.16971         4.24916
LJ          -4.65409         6.15485         5.39308
LJ           4.03837         2.25661         3.90966
LJ          -6.21175         -3.1418         2.59969
LJ          -5.70589        -2.39149         4.05207
LJ         -0.555316       -0.244121         6.27559
LJ            3.9781         5.59013        -1.75859
LJ          -4.32601           4.778         4.84537
LJ           3.71768        -2.51013         3.03658
LJ           6.43396         3.35861        -1.80981
LJ          0.991449        -6.23919         4.85197
LJ          0.721614         2.55568         1.65403
LJ          -2.30232        -3.43205       -0.932975
LJ           5.50287        -1.74141        -2.82475
LJ           3.75958         5.11726         4.52497
LJ           5.35154         4.02297           5.064
