108
#Comment!
LJ           5.48119         5.58777        0.306598
LJ           6.08958          6.1806         3.07204
LJ          -1.68152        -1.18465         4.46507
LJ          -2.13504        -4.40081         3.43545
LJ           1.29381        -2.90785       -0.867145
LJ          -4.04365        -5.76115         4.25855
LJ          -0.59132        -3.92454          6.0527
LJ           6.01306        -3.87678          -6.033
LJ            1.4567         4.04903         0.38195
LJ           3.45053         -5.8271        0.298903
LJ            5.4561         1.47346         3.73695
LJ          -3.65208        -5.41027         3.25869
LJ           1.51324         3.12385         4.76979
LJ          -3.29759        -4.37506         1.67599
LJ          -6.15529         6.39006        -5.95654
LJ         -0.573642         2.53328         2.27219
LJ          0.988513         5.99681        0.783977
LJ          -3.54151         5.27849        -1.92436
LJ          -5.35106        -2.31316        -6.43533
LJ           5.00092         6.27826        -4.48515
LJ           -1.4335         3.26836      -0.0644731
LJ           3.27676        -5.28392         2.33121
LJ          -5.37197       -0.407135        -1.24795
LJ           0.93263         6.08714         1.99849
LJ          -5.74125         5.84753         6.15038
LJ          -1.28843         4.13363         4.42372
LJ           2.43985        0.426795        -5.34245
LJ           4.38894         1.92657        -1.47007
LJ           2.19894        -1.37444          1.6642
LJ           3.26709         2.81325        -2.43488
LJ           1.45417        -1.01476        -2.69166
LJ          -4.19062         1.65114        -1.50296
LJ          -1.02031        0.133566         3.75234
LJ          0.486751         3.48818        0.998388
LJ           1.68226        -2.63073        -2.32948
LJ          -4.39158        -1.13721         6.05125
LJ           2.26977         5.58573          3.0742
LJ         -0.527319        -1.73937       0.0387333
LJ          0.532184         1.49466         5.33032
LJ           5.55854         6.24357         6.23766
LJ          -3.42443         4.98165        0.187743
LJ           4.42484         -2.3033          1.8592
LJ          -3.63778        -4.49195        -3.86734
LJ           4.61378         2.07518         1.51943
LJ           5.94224        -6.09777       -0.624207
LJ          -2.32338         1.72154          1.8059
LJ          -4.69205         5.87714        0.293241
LJ           6.26238         1.82851         2.46177
LJ           4.11419         3.78058         1.93704
LJ           4.90731         5.18812         2.65783
LJ          -4.85768         3.55618         3.02181
LJ           1.10943         -3.9991         2.71624
LJ          -4.53198        -1.59389         4.23464
LJ           5.48945       -0.560958         2.24996
LJ           4.50827         5.98827         2.04763
LJ          -5.04903         1.40335         4.03304
LJ             2.332      -0.0968283         4.77692
LJ          -6.42798        -4.23689       -0.700214
LJ           1.51877        -1.77702        0.733375
LJ           2.35906         4.73798         2.38761
LJ           2.86376        -4.64216        -5.49644
LJ          -1.90869        -5.78688         4.74172
LJ           3.42463        -1.99854        -1.28056
LJ          -4.41464         3.96833         1.66384
LJ           2.14362        -3.02748         6.31379
LJ          0.439832        -2.68605         5.62418
LJ          -4.47574       -0.060431        -1.54019
LJ          -3.87549        -3.92766        -5.49094
LJ           6.33898        -2.47742        -6.27712
LJ           0.87825        -4.12291        0.439179
LJ           -5.7478        -5.04575        0.641592
LJ           -5.2212        0.786161        -3.18534
LJ          -6.31634         5.98024       -0.772491
LJ           1.04588         3.46273         3.53548
LJ           3.00382         -1.4568          4.3471
LJ           1.81508       0.0921983        -1.43323
LJ           4.89982         2.00501         -4.6809
LJ           -1.2575         4.07299        -3.50823
LJ           -1.5657         6.30316        -6.45649
LJ          -4.99996         5.83429       -0.937383
LJ           4.73274        -3.17679       -0.569247
LJ         -0.566789        0.275397        -1.02791
LJ           -1.7534          5.1324         6.30939
LJ          -5.26277        0.594135         2.30502
LJ           5.75683        -1.40878         5.07462
LJ         -0.262785        -2.45421         4.02001
LJ           3.62235         2.57906         1.55916
LJ           2.49317         1.30761        0.793862
LJ          -6.40722         2.04307          4.1468
LJ          0.396928       -0.614581        -3.24873
LJ         -0.942068         3.32738         5.46503
LJ           3.14923          4.5063        -1.95865
LJ        -0.0449867        0.878685        -4.87481
LJ          -5.27509         2.85172         1.27019
LJ           2.78783         4.06202        -4.74095
LJ           1.17917        -6.43132        -5.62306
LJ           3.70121         4.11456        0.729108
LJ           5.14345        -2.24322        -6.44997
LJ           1.49077       -0.735429        0.273464
LJ           2.42198          2.4881         -4.2106
LJ           4.88504         2.63314         5.77482
LJ          -0.54432        -3.57666         2.88666
LJ          -2.38365         3.97669        -3.28215
LJ           2.29762       -0.429786         1.40503
LJ           5.49125        0.403368         1.67256
LJ           6.04524         3.25893         6.24686
LJ          -5.82521         3.38315        -1.81364
LJ          0.642646        -2.57949        -2.72514
