108
#Comment!
LJ            5.1994        -6.35182        -1.29056
LJ           -1.3683         5.15103         1.15662
LJ         -0.151618         1.74397         2.30589
LJ          0.372966         4.04119         6.27321
LJ          0.922459        -5.53668        -6.20833
LJ           2.82417       -0.271418         4.52357
LJ          -4.07609          -5.448         2.72261
LJ          -1.79404       0.0463149         6.32354
LJ           1.00059         5.04623         4.46333
LJ          -2.60331        -2.15222       -0.971044
LJ          -2.42228         4.34858        -1.14152
LJ           2.65577        0.774657         4.81709
LJ          -2.86137        -2.30301         5.31567
LJ          0.813225       -0.985464         -5.1432
LJ         0.0668092          3.1941       -0.590224
LJ          -4.36659         4.21101       -0.697605
LJ           4.65407        -1.43858        -1.81897
LJ           6.39119        -1.52697         2.10476
LJ          0.132319         3.06511        -1.71025
LJ           3.78821        -1.94204        -1.22747
LJ         -0.402797         4.51158        -5.59915
LJ          -1.64043        -2.81926        0.264062
LJ           1.18491         3.00442        -4.40865
LJ          -4.09479        -3.93788        -3.99198
LJ          -4.49516         3.11876        -3.90498
LJ           -1.3655       -0.966445        0.143938
LJ          -3.69468         2.01394         3.96165
LJ          -1.89805         5.98378        -5.69966
LJ          -2.27287        -0.44757         2.32749
LJ           3.80342         4.11569        -4.98945
LJ           5.95202         5.81758        -4.04721
LJ          0.746623        -5.22412         5.46928
LJ            5.9617         2.20796         3.60054
LJ           5.09772        -5.93624         1.67581
LJ          -1.44613         -1.6408        -4.98126
LJ           1.70914         4.60433          6.0182
LJ           6.45978        -1.97699        0.215144
LJ          -3.79215        -1.81266         1.98778
LJ          -5.97888        -4.26165        -2.46388
LJ           3.35823        -5.43538        -1.36363
LJ           3.43373         -2.4797        -5.06602
LJ         -0.633511         3.90902         2.73253
LJ          -1.47032        -2.61031         3.19202
LJ          0.876366        -6.44678         2.67046
LJ           3.84831         6.40925       -0.810223
LJ           4.40661         4.92614      -0.0830931
LJ           -5.6873        -2.40847         3.98554
LJ           -2.3582        -2.19816        -5.85398
LJ           3.94791        -3.87625         4.37349
LJ          0.774435         2.24691       -0.252637
LJ            5.3952         6.19916        0.759568
LJ           3.95117         5.44251         -4.1525
LJ           1.46428        -5.65571         2.45632
LJ            1.3558          2.7116         1.95997
LJ          -3.83527        0.807798         3.28643
LJ           1.03253       -0.034905        -4.53012
LJ          -1.81655        -4.09626         2.80648
LJ          -3.32316       -0.815248         5.08687
LJ          -5.94416         4.66227         5.73761
LJ          -3.73823         3.39172         -1.8757
LJ          -1.10894        -3.59135        -5.09568
LJ          -1.15534         1.51667        -3.22699
LJ         -0.749875        -3.34344        -1.35946
LJ           3.90267        -4.30004        -4.70896
LJ          -1.66372         2.50082          -6.463
LJ           4.56939        -2.22171         5.75094
LJ         -0.107248         0.64191       -0.487852
LJ          -2.14784         4.48577         5.48157
LJ           1.41519        -3.67813        -6.37252
LJ          -3.17032        -2.79578         4.33853
LJ          -4.39277        -1.56854         3.71237
LJ           1.70873         1.57487         -4.1448
LJ           -2.2232         5.09228        -6.18788
LJ          -3.58595        -4.65968        -2.90206
LJ          -4.35596        0.447537         -5.8998
LJ          -1.17971        -6.00893        -4.81985
LJ           -3.0055        -6.15476         -4.3107
LJ          -4.05806         2.82745         5.13285
LJ          -2.70557         4.34419         1.25698
LJ          -2.74348        -1.91375        -2.22614
LJ        -0.0899635         4.61716        0.442784
LJ           5.75596        0.786983        -6.36473
LJ          -4.06699        -2.55265         3.15239
LJ          -1.67017         0.96893        -4.83196
LJ           1.81334        -2.20975       -0.655592
LJ         -0.613482        0.568276        -3.28924
LJ          0.677123         4.60912         1.50536
LJ          -1.18432       -0.306951         4.40993
LJ         -0.814822        -4.19098        0.627145
LJ         -0.761432         2.39677        -4.26963
LJ          -6.02484         5.38227         2.72004
LJ           1.09178        0.551946         5.94601
LJ           3.54993        0.359562          5.8062
LJ           4.32032         1.27578         1.42049
LJ           1.54606         -4.9814        0.102496
LJ          0.542734        -5.75506        -5.21612
LJ          -6.16214         3.88366         -5.9854
LJ          -4.16078         5.24434        0.693591
LJ            1.7934         5.59126        -4.68991
LJ          -1.47369         2.19162        -1.10984
LJ          -5.46931        0.232169         2.98185
LJ          -3.21233          -5.364        -2.27821
LJ         -0.840903        -4.15966         3.96871
LJ           3.45318         6.06748         5.77715
LJ            -2.489        -3.87121        -3.07052
LJ         -0.965521       -0.288656         2.68741
LJ           1.78145         4.05731        0.406174
LJ          0.529348      -0.0427584        -1.12493
