108
#Comment!
LJ          -1.83142        -3.74262        -5.36362
LJ          -4.94463         1.06506         2.84008
LJ           3.37001        -1.16693          5.6328
LJ           -1.9754        -5.02805        -3.29072
LJ           1.29418        -4.35863          -1.192
LJ           4.69496       -0.667153          2.6661
LJ           5.47363       -0.404316        0.383637
LJ          -1.36182       -0.588222         4.70848
LJ           2.22242         6.16218        -5.93523
LJ           4.21379         1.64072          4.9014
LJ           3.59554         2.99584        -2.61511
LJ          -6.30108         2.23636          2.7189
LJ           5.46286         6.15655        -3.49002
LJ           4.14835       -0.186026         1.70372
LJ          -2.31882       -0.386416        -1.32801
LJ          -5.63475       -0.211693        -2.78396
LJ          0.981524         -1.4097        -3.36915
LJ            -2.574        -3.17403         4.97965
LJ           1.92165         5.27123        0.966097
LJ           6.26283        -5.66115         5.04904
LJ           4.95488         3.98199         5.84665
LJ          -6.42553        -2.89482         4.12505
LJ          -4.76986         3.70053        -2.71463
LJ           3.88485         3.05585         1.32452
LJ           -2.8782         5.17496         1.16186
LJ           3.09285        -2.61296        -5.58795
LJ           5.47359         3.16028         5.57245
LJ            3.1143        -3.77288        -1.86623
LJ           -2.7673        -4.09055         5.69853
LJ          -4.45217        -4.40578        -5.12949
LJ           -6.0046         3.46155        -2.85838
LJ          -6.01377         3.73933        -3.85485
LJ          -5.29002         1.21175        -3.07859
LJ          -4.61024       -0.314949         2.56191
LJ          -6.46196         2.92099        0.509278
LJ          -2.23537        -2.82631         1.11791
LJ          -5.07122        -2.90226        -2.99491
LJ           3.43457        -1.23284        -1.77443
LJ         -0.376296      -0.0662125         3.61696
LJ          -4.50606        -1.01926        -5.48514
LJ           1.42298         1.36085        -3.64651
LJ           4.70533         -4.7704         5.37241
LJ           2.57873        -5.19876        -5.80141
LJ           -1.9999          -2.477        -4.50159
LJ          -6.41014        0.480379         3.22964
LJ         -0.486924        -1.12256         2.90206
LJ          -2.18173         2.10565        -5.01229
LJ          -4.41189        -3.07268        -1.71714
LJ          -3.05061        -6.05477         2.15934
LJ          -4.72906        0.837488        -5.02706
LJ          -5.96125       -0.772378         5.21321
LJ           4.52523         4.19369        -2.52937
LJ         -0.737549          3.9709         2.44799
LJ           4.39632         5.99584         4.93118
LJ           1.71443        -4.98487        -3.65201
LJ           5.87969         4.55066         4.22201
LJ          0.101525        -4.19127          1.2826
LJ           3.24983         2.68661        -6.06025
LJ          -3.01978         2.26206         5.30634
LJ         -0.983661       -0.871772        -2.01879
LJ         -0.691791         3.40078       -0.498254
LJ           3.19287        0.444904          6.2638
LJ          -5.23089         1.29134         1.74112
LJ         -0.739335         1.12707         4.74702
LJ          -3.14957        -1.54351         1.50924
LJ          -6.16671         1.06408          2.3602
LJ           -6.3752       -0.153304        -6.16367
LJ          -1.61798         2.98474        -6.42155
LJ          0.861396        0.935661         1.35095
LJ            5.2583        -5.48597         4.60056
LJ          -6.42296         1.58369        -3.62383
LJ           3.40867        -4.55233         4.50554
LJ           6.07925          6.0971         -4.9325
LJ          -2.79147        -4.59517        -1.48588
LJ          0.768029         2.67616        -2.48785
LJ           4.51239          5.6451        -3.09298
LJ         -0.708251         3.13323        -2.14926
LJ          -3.71861         4.09835        0.577933
LJ           6.38689         5.11342        -4.38942
LJ           2.91825        -2.78566         2.78195
LJ             3.104         3.84687        -2.16051
LJ           1.53559         5.61391        -2.62899
LJ           4.53187        -1.06568        -5.93361
LJ           2.31226        -3.97642         5.49961
LJ          -2.26651        -3.44302         2.13776
LJ           5.54013         -4.2294          4.6556
LJ          0.821595        0.261348         4.27686
LJ           5.56752         1.99051         6.31912
LJ           -4.2769          2.6646         4.32033
LJ           2.10471         1.28044         3.43361
LJ          -3.85623        -1.89632         -5.1965
LJ          -2.30167        -5.23581         3.43099
LJ          -2.02517         5.31924         2.80932
LJ          -5.32889        -4.31462        -3.11414
LJ          -1.04722        -6.30974        0.966589
LJ         -0.201245         6.10245         -1.9068
LJ            5.7594        0.434286         4.89311
LJ          -0.81041         1.88961       -0.527133
LJ         -0.126922         3.71612        0.394962
LJ          -4.51204         5.91685         1.81977
LJ           3.98767         4.84225         5.12829
LJ           6.02078         5.83541        -1.11945
LJ          -1.68246        -4.12116        -1.32932
LJ           3.49741         5.08413        -1.93183
LJ           3.21813       -0.551761        -6.13819
LJ           5.45061        -2.17093      -0.0867543
LJ           3.43358        -1.28693       -0.373052
LJ           3.58394        -6.16055         4.28325
