108
#Comment!
LJ         0.0633938         2.49929        -3.43647
LJ          -3.29483        -3.00054          3.3372
LJ          0.283916         1.19744         5.11454
LJ          -5.26338        -6.44991         6.27264
LJ          -5.98515         6.32624        -5.92857
LJ          -2.69351        -1.32708        -6.19999
LJ          -1.32839         6.43819         3.39412
LJ           3.08594        -1.16285        -3.42521
LJ         -0.338656         2.99956        0.124598
LJ           6.11087         1.06973       -0.116958
LJ          -2.44404         2.32984        0.671406
LJ           2.72542         2.49573         4.62181
LJ           1.57573        -3.94167         1.44798
LJ          0.788195         2.52178         4.32561
LJ          -4.57842        -2.60061         2.92431
LJ          -4.21086       -0.447771         4.12164
LJ          -6.40848        0.367532         1.14724
LJ          -3.19832        0.713771        -5.71926
LJ          -1.49875         4.61121        -5.85931
LJ           5.95916        -6.12448        -4.94137
LJ          -2.58794         4.55502        -5.43357
LJ           5.32827        0.873014        -1.75027
LJ          0.237239         1.92274         3.10343
LJ           3.19054       -0.496936         2.82881
LJ           3.08452        -2.77415         2.24229
LJ          0.736404        -4.54122         6.40746
LJ           -6.4522        -2.66728        -4.85883
LJ          -3.66986         3.65135        0.768444
LJ          -2.00598        -4.34793         2.00064
LJ          -4.95231         5.60506        -5.25144
LJ           5.05904         4.92754        0.863134
LJ          -1.83133        -4.91255       -0.488387
LJ          -4.70505         -3.9923        0.484406
LJ           4.73004        0.511809         4.59686
LJ          0.964653        -5.94035        0.909682
LJ          -4.89876        -2.42853        -2.24164
LJ           2.11611        -0.92315         1.57772
LJ           -5.1239      -0.0914264         2.46845
LJ            2.5657         1.37501        -1.31625
LJ           1.63713          6.2494        -4.84915
LJ           3.43918       -0.880946        -1.29499
LJ          -6.16244        -1.61532         6.38653
LJ           5.24796         5.68033         5.80491
LJ           0.39425         -1.0756         2.74027
LJ          0.577731         1.61434         3.94372
LJ           2.83007      0.00497842        -1.15013
LJ          -5.34173         5.34545         -6.1979
LJ           3.68369          2.9117       -0.207258
LJ           1.37429        -1.18346         4.33504
LJ           5.15837         1.51039         3.37347
LJ         -0.722226        -4.72032       -0.278689
LJ           4.89791         1.52619        -3.70342
LJ          -4.99436         2.88729         2.53567
LJ           1.86606        -4.39104        -3.52576
LJ         -0.641711        -5.96197        -0.56661
LJ          -4.06902        -3.69378         1.58128
LJ           3.99533        -1.45071        -2.15578
LJ           5.85717        -2.61768          4.3803
LJ           4.02448        -1.30411         4.60644
LJ            0.6543         4.52627       -0.327249
LJ           2.59321        -3.29995         5.41831
LJ          -5.61681       -0.223074        -5.02426
LJ           3.72544         5.66083          5.5512
LJ          -2.63196       -0.244214         5.75408
LJ           4.87451         2.29339        0.484229
LJ           -3.1391        -5.44444         3.73791
LJ          -2.96216       0.0930297        -3.13321
LJ         0.0364384         5.29685         5.06356
LJ          -5.74006        -1.83455          5.3118
LJ          0.187717         6.21342         2.36693
LJ          -1.50809        -6.32163         2.37313
LJ         -0.604141           2.215         1.32107
LJ           2.29645         4.89271        -1.80665
LJ         -0.754803        -5.34653        -6.13906
LJ           3.53765         4.35557        -6.26318
LJ         -0.602927         5.30032        -4.93672
LJ           4.32423        -1.75445         6.44641
LJ           5.90295         1.87753        -1.11399
LJ            5.7974       -0.398646        -2.34942
LJ           5.60081         6.01424         3.30881
LJ         -0.123128         3.47493         4.27891
LJ           4.42264         5.31114         6.39907
LJ          -6.06964        -3.91536          4.6541
LJ            6.1459         5.23625         0.98453
LJ            4.4314         2.03367        -5.26336
LJ           5.66583        0.463599         1.91804
LJ          -5.00269         2.68006        0.397088
LJ           1.17907         6.35353         2.11726
LJ         -0.355444        -0.66619         5.49294
LJ          -4.66239         2.95319         3.64382
LJ          -4.55377        -2.49266        -1.02913
LJ         -0.426755         2.68261        -1.03783
LJ         -0.458386         -5.3945         2.99407
LJ           -4.8635         2.59527         6.05454
LJ           5.11869        -1.90583         0.47885
LJ          -4.79889        -1.27057        -2.30836
LJ          -4.18138       -0.929964         2.74772
LJ          -2.61338         2.65962        -3.84696
LJ           3.23556        0.621755        -3.51146
LJ          -4.67952         -5.2773        -5.72785
LJ           -1.7383        -5.56825         6.09624
LJ          -3.68267         6.43701        -2.64865
LJ         -0.599764         4.30773        -3.95793
LJ          0.594774        -1.11676       -0.866128
LJ          -2.88048        0.060337         1.49777
LJ          -3.40427         1.74692        0.302243
LJ          -5.68377        0.033984        -1.94184
LJ          -2.17766          3.8367        -6.11077
