108
#Comment!
LJ          -3.87967         -2.8108        -6.44976
LJ           4.22782        -0.92113          -4.969
LJ          0.585917        -3.00491         -2.5649
LJ         -0.078728        -4.52985        -5.83939
LJ           6.08795        -4.44889         -1.2266
LJ           1.49678          3.1644         3.04449
LJ         0.0841493         2.19341        0.505026
LJ          -6.03172         5.65914        0.874242
LJ           2.57763       -0.990143        -3.97154
LJ           -1.6146        -1.98433        -3.39313
LJ           -5.5601         5.75786         5.45337
LJ           6.19831         6.37895         2.74579
LJ           3.42075       -0.070329       0.0404891
LJ           5.20692         5.97752         3.69664
LJ          -4.42312         0.24883         5.53823
LJ          -2.80529         2.59634         3.88407
LJ          0.502537         2.21925        -3.75035
LJ         -0.153982         1.40254         1.79282
LJ          -6.29915          4.8939        -3.84955
LJ          -1.31788          1.9693        -1.85597
LJ          -4.29038        -1.22717        -6.12485
LJ           2.81396        0.220106        -2.53042
LJ          -5.87227          4.4628         1.82942
LJ           2.24059       -0.738102        -6.32549
LJ           -5.2665        -4.25818        -6.35474
LJ           1.15617         -2.2505      -0.0324276
LJ           4.36499         3.04915       -0.024579
LJ           5.71571          3.7809        -3.98217
LJ          -4.68238        -3.21915        -3.35757
LJ          0.323775         2.50334         3.17766
LJ          -5.62483        -6.25533        0.831568
LJ          -5.41155         5.21969         1.45394
LJ           6.39403        -3.84973          6.3036
LJ           6.15383        -2.38314         4.33042
LJ           3.97267        -4.89995         1.96371
LJ          0.696678        -3.23447         3.31266
LJ          -6.04592         3.58063        -5.99724
LJ           2.88484         3.78532         3.47458
LJ          -1.77335         4.90763        -2.77759
LJ            5.9304        -2.30746        -1.58803
LJ         -0.147196          3.4036         2.66598
LJ           -1.1803        -3.59175        -2.38914
LJ          -1.71082         3.22941        0.470493
LJ           3.13262        -1.75793        -3.50686
LJ           6.39443        0.234875        -3.15925
LJ           1.98947        -5.17108         1.71548
LJ          -4.88644         2.28502        -6.39627
LJ           -6.0125        -3.68569       -0.513484
LJ          -4.72156       -0.523046        -1.10469
LJ           5.23253         1.64062        -6.38378
LJ           5.68487         2.59389         1.91437
LJ           1.58508        -4.30006         5.15107
LJ           2.40744         1.57237        -3.02757
LJ          -5.89647        -3.65657        -3.29529
LJ          -4.14051       -0.868427         3.19609
LJ          -1.80017        -1.66563      -0.0675212
LJ         0.0631791         5.20293          3.3195
LJ           1.72867         1.45354       -0.128425
LJ           1.46349         5.58633         4.72095
LJ          -3.50425          -5.181        -1.07199
LJ         -0.163847         2.87128        -2.89406
LJ          -1.49064         3.53039        -3.69058
LJ         -0.516681        -3.77125         0.20319
LJ          -1.56869        -2.19316          1.6403
LJ          -2.02404        -4.14275         4.61884
LJ          -3.70333         4.75819        -1.02285
LJ          -4.56933        -1.84575        -1.66685
LJ          -4.32443        0.616898        -3.82855
LJ           6.40295        0.394208        -1.75386
LJ          -3.85977         2.74168         3.56532
LJ          -5.02267        -2.19816         6.15574
LJ           3.75176        -5.25582        -0.82237
LJ           2.54727         3.89574          1.2596
LJ          -4.38427        -6.37235        -5.30001
LJ           1.57904         5.06851        -0.11042
LJ          0.204299        -4.30772        -3.69678
LJ          -2.82894        -2.84965        -4.36115
LJ          -6.41656         2.83188         5.92571
LJ           4.62109        -2.28096         2.62269
LJ          0.968738         6.27987         5.19443
LJ           4.42491        -6.29813       -0.373269
LJ          -4.43588        -5.17526         1.52888
LJ          0.502908        0.185751        -0.66132
LJ           6.27938       -0.229951         4.36483
LJ          -3.44686        -5.18432         1.73745
LJ          -3.46477      -0.0218877        -3.79258
LJ          -3.45462         1.36392        -1.62285
LJ           1.71264         6.21252         1.23002
LJ        -0.0501552          3.9369        -3.50939
LJ           5.35068         -5.4577         1.85243
LJ          -1.94592        -5.84288        -3.96777
LJ          -5.21458        0.147537     -0.00446659
LJ           1.50791        -5.97425        -6.13536
LJ          -4.11123        -2.66502        0.968883
LJ          -3.66493        -2.16404        -3.96673
LJ          -2.86578         3.53772          -6.075
LJ           6.36944         3.07892        -4.80641
LJ           1.19912        -5.66331        -4.62399
LJ          -5.59987        0.628997        -1.29544
LJ           4.68216         2.15845        -5.53772
LJ          -2.63566         -3.2723         3.26749
LJ           5.62404        -6.03874         4.29396
LJ         -0.706284         1.18417         3.86562
LJ           5.80425         5.57777         5.83535
LJ           6.10565         1.61899         2.59863
LJ           5.62099         2.56443         4.67247
LJ          -3.89029        -2.07807        -3.01419
LJ           5.27357         5.15521        -4.07376
