108
#Comment!
LJ           2.59996          4.3312         -6.1981
LJ           5.58195        -3.86105        -2.03479
LJ          -5.98167         4.00513        -2.47287
LJ           5.72093         3.61608       -0.897349
LJ          0.816533        -3.53782        -3.76871
LJ          0.336945        -4.88614         2.68536
LJ         -0.187186        -4.78687         3.58485
LJ           2.69533        -1.01786        -4.41698
LJ          -2.83745        -1.78073         5.84896
LJ          -2.10526         5.82639         5.37183
LJ          -3.61589         3.07845        -4.46723
LJ         -0.879101         2.66161         1.46596
LJ            6.1691         2.83299         5.20451
LJ           2.07314         5.54893         1.31806
LJ          -1.71312      -0.0299611         5.98532
LJ           2.81936        0.329902         -4.1386
LJ           4.52992        -4.50214         3.21469
LJ         -0.393653        -2.62884         1.91238
LJ           1.96235        -1.42626       -0.640496
LJ            5.0701        -1.53764        -4.86682
LJ          -4.65024       -0.739887        -5.97947
LJ          -4.61362        -3.51954         2.30893
LJ           4.51973         5.29281        -3.71786
LJ           3.44744        -2.87387         2.36563
LJ           2.27805         5.14828         4.32762
LJ          -0.13888         4.24304         1.99729
LJ           4.91063        -3.42219        -4.80658
LJ           4.22471         3.02366         5.08538
LJ           4.93017         6.35218        -3.64238
LJ           6.41547          1.5344        -1.27308
LJ           1.14107          4.1621        0.160632
LJ           0.29539       -0.179818        -5.44949
LJ          -2.19541        -5.20292         1.27674
LJ          -3.85542       -0.846696        -3.61757
LJ            3.6234        -4.34743        -2.76204
LJ           1.74082        -4.94998         3.59849
LJ           6.32008        -1.02582         4.72037
LJ           1.28068          2.7473         3.04559
LJ          0.686451         1.08078         3.72337
LJ          -4.51886        -2.84707        -6.35922
LJ          0.324057          1.4786         1.19782
LJ          -1.27962        -3.94726         1.81388
LJ          -4.79578        -1.85931        -2.07572
LJ           1.93911        -3.57885        -1.75143
LJ           1.06297         5.33835         1.13435
LJ           5.57577        -4.97077         1.34616
LJ           2.97065         4.79292     -0.00640727
LJ           0.83073         1.41553         0.19369
LJ            5.9268        -2.79054        -1.14754
LJ           2.01465        -1.84355         3.33927
LJ          -2.62665       -0.753748        -4.09531
LJ          0.605074         2.74612        0.111997
LJ          -6.26693        -6.37044       -0.732993
LJ          -2.50468         4.95633         3.01613
LJ           4.41609         4.32626         5.67724
LJ           1.90525        0.745414        -2.20325
LJ           6.03237         4.33979         5.89021
LJ           -1.1663          3.6224        -4.71053
LJ           4.13561         4.52384        -4.82772
LJ           4.44318        -1.70503         1.26989
LJ          -4.42668         4.60846        -3.13613
LJ          -4.04778        -6.13453        -4.53792
LJ           1.93545       -0.920186         4.87743
LJ           5.00636        -2.11192         5.39571
LJ          -4.69982        -1.17516         -4.1207
LJ           2.56343          2.6868        -1.47979
LJ           -3.9888         -2.5245         4.60436
LJ          -5.98133         6.04077         5.25384
LJ           3.75692           3.527         1.24643
LJ          -5.70618        -4.57136         5.63052
LJ           2.33048        -6.13541        -6.11142
LJ          -4.90916         5.13316          4.4885
LJ           2.16643        -5.04227        -3.56509
LJ          -1.23788        -6.14345         1.41311
LJ           1.68844         5.08597         5.46706
LJ          -3.42822        -1.88159        -5.60641
LJ          -4.60608        -2.88242        -3.98381
LJ          -4.99755          2.6955         3.76201
LJ           1.22373         -1.8387          4.6115
LJ          0.715816        -5.10227        -4.43575
LJ          -4.75974         3.66407        0.548407
LJ          0.575937        -4.41086          4.1529
LJ           1.30955        -4.35266        -4.44705
LJ          -4.48231        -2.06195       -0.930721
LJ          -2.72009        -2.99463         6.12919
LJ          0.919544         3.33539        -3.15786
LJ          -5.71885       -0.612806         2.41267
LJ          -2.40623        0.881111         3.80977
LJ           1.27968       -0.105645        0.635997
LJ           0.13406        -4.01803         6.39076
LJ          -4.21967         5.35328        -6.14408
LJ          -3.75345        -2.88935         2.23564
LJ          0.213407         2.15566        -5.80226
LJ          -4.65719        -4.50174         2.38205
LJ          -1.18371        0.415929       0.0349503
LJ          -4.11919        -3.64212        -3.44441
LJ           4.19715         2.33362       -0.135449
LJ           5.20749        -3.44349        -2.88852
LJ           2.91201        -6.26278        -3.57296
LJ           3.13873         3.73785       -0.534847
LJ          0.912739        -2.48321        -4.99257
LJ           2.67032         3.83528         -4.5109
LJ           3.96345         3.04677        -2.84884
LJ            3.1594       -0.136847        -0.84789
LJ           1.08613       -0.855792         1.48375
LJ          -2.67602       -0.816444        -2.83937
LJ         -0.836759          3.8675        -6.44895
LJ           3.74243       -0.583711         5.19252
