108
#Comment!
LJ          -4.07984       -0.981492           -5.77
LJ           3.86631        0.929259         3.22834
LJ          -3.36595         4.31708        0.374086
LJ          -3.49858         2.13525         2.43856
LJ          -3.87602        -3.58158       -0.911469
LJ          -4.10633         2.64013        0.254162
LJ         -0.795635         3.60709        -5.00966
LJ        -0.0589926         1.57194        -3.89182
LJ          -1.24277        -4.28346        -1.12307
LJ          -3.95329         4.91647       -0.137832
LJ          0.318354      -0.0378778        -4.29342
LJ           2.59199        -5.36371        -2.31465
LJ          -5.66209       -0.497276        -4.98258
LJ          -3.69487        -1.63952         5.46334
LJ          -3.54782        -3.34965        -5.88953
LJ          0.597452        -3.91364        -6.02442
LJ          -5.56786         3.95328         5.81608
LJ          -6.43362        -1.36568         4.72695
LJ          -2.48697        -3.82503       -0.118756
LJ           -1.8564        -1.03746        -3.69464
LJ          -2.75575       -0.307476        -3.97574
LJ         0.0321256        0.463989        -1.56884
LJ         -0.724103        -3.43535        0.896503
LJ          0.758573         2.37922          4.4582
LJ          -2.87519         5.16244         0.88793
LJ           4.77212         5.41193        -1.43219
LJ           2.43009        -5.70122        -4.05498
LJ           5.45127        -1.84157        -2.46062
LJ           4.48055        -5.17769        -5.62689
LJ            6.2857         1.22529        -2.85921
LJ           2.27329        -5.26417         0.31852
LJ           3.74036        0.658546         5.43941
LJ           3.21377         5.91565        -3.88062
LJ          -3.34264        -3.08019        -2.80834
LJ           2.70071       -0.428097        0.570942
LJ          -1.41082        -1.31554        -2.74966
LJ          -1.91099         5.14214       0.0930652
LJ           1.34679        -5.41948         4.80356
LJ          0.971678        -3.90602         2.57752
LJ            -5.904        0.136928         2.81404
LJ           5.67332        -5.43113        -3.54133
LJ           -4.0228          4.5171         2.97116
LJ          -5.60424        0.458111       -0.856214
LJ           1.71877        -4.54633         5.87254
LJ          -2.72949        0.139754         2.82345
LJ          -2.20441        -3.88616        -6.22481
LJ           5.89063       -0.367352         2.26685
LJ           4.98953         1.19988        -2.42195
LJ           3.13658         -3.1442        0.519746
LJ            4.6268        -2.69822          1.1454
LJ         -0.420248         2.21647        -2.29335
LJ          0.537732         3.63599         1.76134
LJ            5.1595       -0.423595        0.424812
LJ            1.7981        -0.20614      0.00636847
LJ         -0.164127         3.21465         4.58179
LJ         -0.302107        -6.01786        -4.97373
LJ          0.559113         4.55613        -4.59669
LJ          -5.87576         3.17253         -2.3928
LJ           3.12388        -5.44042         3.14932
LJ          0.472112         3.41532        -5.84303
LJ           5.68526         5.80032         -5.8239
LJ           3.52693         4.82373         6.17797
LJ          -3.75041         3.68763       -0.495313
LJ           1.95211        0.717262         4.84968
LJ           4.06635         1.91043        -3.46116
LJ           5.44054         4.54862         1.34738
LJ           1.44479         1.96559        -6.01636
LJ          0.913093        -2.22027        -1.02899
LJ          -5.95474        0.697715        -1.92928
LJ           5.70377         0.61724        -4.55073
LJ          -5.60708        0.195525        -4.18781
LJ          -4.62114         -2.0249        -1.55595
LJ          -3.25494         5.44897         2.13208
LJ          -3.58653        0.474232         3.36559
LJ          -2.05962         -3.1337        -4.42101
LJ          -5.96152         5.88718         3.57429
LJ          -2.03396          -1.749        -6.05493
LJ           2.04137        -4.21946        -1.81902
LJ            1.1801        -5.54747        -1.17213
LJ          0.382419       -0.650925        -1.37431
LJ           6.45441         1.48113        -5.13817
LJ          -4.48189        -3.34637         6.24697
LJ          -6.37874          4.9855        -2.47914
LJ          -4.47259         -6.1222         5.32739
LJ            2.0986         3.26905        -1.73867
LJ          -5.05024        -6.12831        0.928692
LJ          -2.41458       -0.752386         5.44867
LJ          0.955294         -5.6407        0.667882
LJ           1.43924         2.30011         5.80419
LJ          -2.13311         5.37833         -3.7189
LJ           6.29177        0.989776          2.5346
LJ            5.8237         3.63564        -3.84287
LJ          -2.47388         3.36192        -4.39504
LJ          -1.24787         4.87655         3.78317
LJ           1.78897         4.32478         4.84012
LJ            3.6851         3.70479          5.1731
LJ            2.9104       -0.488117         3.98508
LJ          -3.62567        -4.09974         5.91778
LJ         -0.790473         5.84723        0.757906
LJ          -3.35029        -5.95929         5.38653
LJ         -0.119567        -4.83115         1.40376
LJ          -5.81798        -4.57006        -5.25033
LJ          0.892886        -5.16352         1.68425
LJ           2.52823        -3.73158        -6.31821
LJ         0.0307607        -2.57499         1.31449
LJ           3.80955         2.10488         5.28022
LJ          0.121033         4.63787         5.31183
LJ           2.79647       -0.403053        -5.86858
