108
#Comment!
LJ          -5.34208        -5.87392        -6.15501
LJ          -2.05619        0.647149        -4.59813
LJ          -1.14595        -2.30589        -3.28677
LJ          -0.58177        -6.00794        -2.02143
LJ           4.24012         4.39014       -0.401393
LJ          0.523367         2.17966        -0.12309
LJ          0.696856        -5.53755        -2.93014
LJ           3.30909        -3.21894         3.60034
LJ           4.71582        -4.19426        -2.91264
LJ           -6.3272        -2.29956         5.96296
LJ           3.26748         -2.4897        -3.87781
LJ          -5.47642         2.40123          5.1623
LJ          0.402411         2.68625        -1.95031
LJ          0.982901         4.28122         4.59435
LJ          -4.73824         2.07628       -0.180969
LJ           1.55587         3.47489         4.32939
LJ          -2.55411         3.80103        -2.98084
LJ           2.83719        0.193071        -2.97947
LJ            -4.465        -3.75185        -1.58883
LJ          -5.76004         5.39187        -2.61432
LJ           2.65417       -0.273845        0.414929
LJ          -2.14113         3.66245         5.80815
LJ           5.54968         1.88947         4.34264
LJ          -3.50205         5.59327        -2.51332
LJ           3.83389        -5.46735        -1.30303
LJ           3.65007        -3.63489        -3.92522
LJ        -0.0832647        -6.18402         6.06454
LJ           2.40954        -3.54653        -3.59246
LJ          -2.16502       -0.809032        -4.89798
LJ          -1.21011         1.09932         -5.3167
LJ            3.7883         1.20208        -6.24495
LJ          0.492355         0.94751       -0.318624
LJ           1.81038         6.07962        -2.39408
LJ          0.142145        -2.53386        -5.80216
LJ          -2.37643        -4.98864        -3.74526
LJ           4.93762        -3.42415         5.42959
LJ          0.201507         1.16519        -5.50079
LJ          -1.51014        0.733648         1.76369
LJ          0.825851        -2.46331         5.79095
LJ           5.31886         3.06257         5.16462
LJ           4.53652        -2.98911         1.09819
LJ           2.76635        -0.28188        -1.44891
LJ           3.61941        -2.63371         2.64862
LJ           2.58142         1.06848         1.08385
LJ          -4.34557         5.60675        0.303168
LJ          -4.05962         2.88195        0.903141
LJ          -3.93024        -1.15042        -1.43931
LJ        -0.0085836        -3.71518         -1.4674
LJ          -1.08749        -4.52817        -4.35965
LJ           2.21332        -6.38312        -3.99869
LJ            2.8146         1.01131        -6.32898
LJ          -5.63451        -2.73422          5.3357
LJ          -5.39985        -2.80836         1.85016
LJ           0.94539          6.2091         1.88613
LJ           -1.4704         1.99394         1.05615
LJ         -0.800462        -4.27111         6.19585
LJ         -0.747644        -2.73509           1.153
LJ          -1.51826        -2.70655         4.85446
LJ           3.92851        -4.61326        -3.58199
LJ          -5.92606         -1.3428        -2.28104
LJ           4.62969         3.14028       -0.531146
LJ           6.41661         6.38863        -3.16321
LJ          -4.32602         6.29473         3.27548
LJ          -2.57596         1.37927         1.35675
LJ           5.03599       -0.458031        -5.16843
LJ          -4.06975         1.30235         2.88784
LJ          0.915224         2.14482        0.876586
LJ           1.69343        0.429455        -5.52207
LJ          -3.91487         1.83462         1.85089
LJ           -5.5639         1.44181        -1.63731
LJ          -4.37642         4.96879         1.42375
LJ           -6.4079         6.01275         1.20216
LJ           4.46433        -3.17946        -2.97431
LJ           2.64131        0.215521         -5.6594
LJ          -4.96683        -6.08398        -2.05412
LJ          -4.24995        -3.27684        -5.57943
LJ         -0.591893         3.41586         3.22492
LJ          -2.93219        0.116974         3.59625
LJ         -0.292908         2.72007         5.90678
LJ          -3.14468         1.57385         4.04705
LJ          -2.33114         3.53138        0.304173
LJ          0.378938        0.920374         1.85864
LJ          0.576789       -0.218554       -0.140249
LJ          -1.19709        -2.95637        -6.45135
LJ           1.17081       -0.361636         2.45531
LJ          -2.50371        -6.18813         2.30727
LJ          0.855208         3.05222       -0.346717
LJ          -4.28872         2.33424         5.28708
LJ         -0.632438        -3.21687        -2.99658
LJ           1.60088         1.21454        -4.03019
LJ          -3.82504        -3.42076        -3.38378
LJ          -5.65217        -1.33855         2.98874
LJ          -5.41859         5.30588          5.8599
LJ           4.36108        -5.53601        -3.25059
LJ         -0.705117        -1.21959         1.76134
LJ         -0.285449         6.04343          5.0856
LJ           3.32612        -3.31827         1.98837
LJ          -2.74959         5.25778         3.04871
LJ           1.26261       -0.380011         3.51716
LJ          0.933407         6.10333         5.62332
LJ          -4.09768         0.78779        -3.97897
LJ           3.02077        -5.14403        -4.20972
LJ           3.24504        0.235428        -4.77588
LJ            4.8876         3.97682         3.66819
LJ          -4.20997         4.41974        -3.41531
LJ        -0.0409195         3.65023        -1.38822
LJ          -5.88061        -5.65947       -0.376011
LJ           5.42382        -2.93734        -0.85707
