108
#Comment!
LJ           3.06172         5.14726        -3.73399
LJ           1.19361         5.04583         1.48996
LJ            3.8775         1.07707         2.71558
LJ          -4.95244         3.84729         4.80208
LJ           5.55326         2.03596        -4.57995
LJ          -2.58236       0.0557167         5.71939
LJ         -0.352231        -3.91163        -3.65576
LJ           1.15862       -0.906588         4.64821
LJ          -1.32814         3.79059         5.56443
LJ          -5.60981        -2.31519         1.30261
LJ           6.41919        -5.73354        -1.28981
LJ           3.99917          2.0872        -1.33807
LJ          -6.05457        -4.19113         5.99723
LJ           -3.0169        -1.32636         2.88848
LJ          0.185278         3.11232        -1.92905
LJ          -2.20417         4.58477        -6.01895
LJ           2.92418         1.93421       -0.362058
LJ           1.43652          2.7454         -4.7699
LJ          -2.65555          4.5618        0.692347
LJ          -3.98523         3.20256        0.953865
LJ          -5.11632         5.41526        -3.08752
LJ          -3.27655          6.2286          1.5887
LJ           4.55704        -2.42677         2.37231
LJ           0.68534        -3.25785        -4.41954
LJ          -6.04446       -0.346282        -3.77187
LJ           1.77422        -6.43271        -1.54858
LJ          -6.36577        -5.95228         4.50343
LJ          0.807119         2.48184           -2.38
LJ           5.29734          3.4672         4.85608
LJ         -0.492367        0.612642         5.88276
LJ           5.12375         -6.1052         3.79759
LJ           -2.9085          1.9244       -0.900168
LJ         -0.843946        -2.11861         5.48129
LJ           3.59857       -0.188624         3.56779
LJ          -1.46432        -5.03555        -4.13813
LJ          -3.88217          5.8895        -6.28561
LJ           3.86296         4.07699        -4.29314
LJ          -3.81356         1.69881         4.82494
LJ           5.01097         6.28122         2.38051
LJ           5.18115        -1.07118         2.17242
LJ           1.62568       -0.726622         5.63501
LJ          -1.87324         4.52471         2.73172
LJ          -3.21071         -5.5684        -4.74598
LJ         -0.226804       -0.567917       -0.469504
LJ         -0.832295         2.94611        -4.67998
LJ           1.35226        0.477929         4.19835
LJ          -1.19963        -2.85417         6.16194
LJ          -2.82419         3.46481        -5.03856
LJ           3.85153        -4.34666         2.36134
LJ           6.43039         5.58782        -2.21286
LJ          0.295335         1.54499        -1.79759
LJ           4.64866         2.46483       -0.243853
LJ          -1.57142        -2.15604        -2.73523
LJ          0.632869        0.397562        0.748997
LJ          -1.24588        -4.53538         5.28002
LJ           3.72702        -3.21646         2.23738
LJ           5.27662        -2.43119         -5.2857
LJ         -0.446807         0.21379         -4.1887
LJ          -2.48052        -6.22112         0.84093
LJ            2.8251         1.89227        -1.45335
LJ          -2.67984        -2.18075        -3.54219
LJ          -2.72807        -4.98627         0.13468
LJ          -1.88901        -3.68098        -1.24669
LJ          -4.79641        -1.96163        -3.24965
LJ          0.564713       -0.505908         -4.3331
LJ           1.97404      -0.0195245        -4.69928
LJ          -5.49217        -3.93438         2.31292
LJ           5.77537       -0.499478         6.14749
LJ         -0.192604        -2.06946        -5.90424
LJ         -0.855263        -1.71113        -3.38776
LJ          -3.37539        0.981536         -3.5634
LJ           5.08975           2.739         2.18925
LJ           3.01323        -2.33936       -0.570912
LJ          -4.74343        -5.18186        -5.08085
LJ           4.98207         4.59379      -0.0986067
LJ         -0.207789         5.87312        -3.14874
LJ           1.09013        -5.72178        -2.51567
LJ           3.82036       -0.395658        -5.28122
LJ          -5.40841         6.38876        -4.65086
LJ           4.46499        -3.67336         2.71436
LJ          -2.23174         5.86198        -0.02155
LJ          -4.51311         1.46348         5.72404
LJ          -2.40916       -0.804424        -2.86239
LJ           -3.6559         1.15983         -6.2136
LJ           1.23505         1.00075         -3.2605
LJ           -4.8562         4.94793         2.90642
LJ            2.0769         4.64754        -4.37561
LJ          -6.06506        -3.40168         3.54127
LJ         -0.259609        -5.58142        -1.63564
LJ          -3.34071        -1.05168         1.80451
LJ           1.79708        -4.92781        -1.19235
LJ           2.20713           2.072          4.3434
LJ           6.20842        -4.70496         4.51452
LJ           4.81375         6.28328         5.20941
LJ           -3.7098         6.25241         4.80242
LJ          -2.47006        -4.37029        -4.09062
LJ           3.78059        -4.12375         3.28807
LJ          -3.31726         4.35709         2.68065
LJ          -5.97727         3.12208         6.39252
LJ          -3.06433        -4.87149        -6.16061
LJ          -4.21894         1.74633         3.70194
LJ         0.0547913        -1.49179        -4.02393
LJ          -4.15865        -5.16853        -4.18956
LJ           4.62861         3.72868         5.64977
LJ          -4.29565        0.171252        -3.51377
LJ           -3.7341        -3.04146        0.796345
LJ           6.03794        -1.21914        -3.81327
LJ           4.59228        -4.64673        -2.19834
