108
#Comment!
LJ          -4.49494         3.55243        -5.53189
LJ           6.25329         4.85254        -5.65158
LJ           2.49474        -1.25022         -3.2785
LJ          -6.16658         3.96186        -5.37705
LJ           3.82042       -0.095273       -0.408716
LJ          -6.38421      -0.0145601        -2.16599
LJ          -5.36655         5.90756         4.60421
LJ             -3.45         -3.4027        -2.88205
LJ           -3.1266        -1.83741        -3.32121
LJ          -5.77696        -2.03379         1.50948
LJ          -3.63913        -3.39542         5.22797
LJ          -1.04785       -0.676472        -2.45118
LJ          -4.80646        -3.54673         2.48029
LJ         -0.192393         4.13795         5.86978
LJ           5.55943         4.40099        -4.94148
LJ          -1.90658        -4.38349        0.803158
LJ           6.29683       -0.253216       -0.578209
LJ          -3.00761         5.30199        0.440287
LJ           0.39579         4.98065         4.17186
LJ         -0.592376        -3.72228         5.34251
LJ           6.41222        -6.34693         -4.1201
LJ          -5.74151       -0.541497        -2.90617
LJ           4.47924        -2.00034         5.86463
LJ          -2.81612        -3.05263         6.11199
LJ           6.22947       -0.829815         4.75989
LJ          -6.39092        -5.69912        -5.28982
LJ          -2.75723        -2.35467          5.2647
LJ          -3.86693        -3.50095        -5.74397
LJ            5.5557           1.956        -5.94712
LJ          -3.90869        -5.03765         6.20567
LJ          -2.22544        -3.38707        0.401143
LJ            5.8513        -2.29965        -3.84508
LJ           4.42962        -4.22871         -5.0139
LJ           -6.0978          3.1941         5.65364
LJ          -5.24178        -6.02113        -6.04535
LJ         -0.929271        -6.05263        -5.91377
LJ           2.41171         5.41269         2.15511
LJ          -4.99039         2.12019        -5.85575
LJ           4.79799         4.57824        -2.19527
LJ            1.6678         4.51794        -4.60412
LJ           3.24814        -1.91408       -0.198875
LJ          -3.27404         1.91838         1.49925
LJ           4.08227         4.47677       -0.949388
LJ          0.305238         2.30739          4.7596
LJ           -3.9156          5.6047         4.69205
LJ           5.68049          4.5758         5.07803
LJ          -5.98062        -2.65815         4.44751
LJ          -5.53934         5.10019        -6.12338
LJ          -4.45136        -5.35801        -4.70022
LJ          0.579299        -2.75802        -0.28142
LJ             3.945        -4.24528        -2.62164
LJ           5.83205        -5.29267        -3.46937
LJ           -6.1154         4.97225        -2.16861
LJ           -6.2733        0.332034         2.98626
LJ          -2.98571         2.45919        -3.76724
LJ            2.0355         -2.0538       0.0365736
LJ           5.20998         2.89584        -3.82872
LJ           1.38637        -3.07144        -3.88121
LJ         -0.260094          1.1315        -1.61645
LJ          -5.57141        -1.21659       -0.839565
LJ           3.17763         1.75244         3.73157
LJ          -6.23635         -1.1093        0.153742
LJ           1.67535         1.19858        -4.03051
LJ           2.32679        -2.45442         2.61313
LJ          -4.80513        -5.48676        -2.39161
LJ           -6.2147         5.67063        -3.58576
LJ           1.48563       -0.483047         -1.9273
LJ          -2.57286         4.42939        -2.93842
LJ          -2.85078        -3.00231        -4.39255
LJ          -5.29682         2.77212       -0.956039
LJ          -5.85042         6.27104         6.14217
LJ          -6.13306         1.04841         -1.8658
LJ          -1.41635          4.2543        0.311467
LJ          -6.27418         6.15879        -2.49265
LJ           5.24263        -5.36902         3.15618
LJ          -6.13077        -3.32931        -4.89405
LJ           3.04714       -0.454014           5.105
LJ          -6.35177          2.3729        -5.93893
LJ           2.21748         5.19792         4.80421
LJ           2.06922        -5.07748        -3.14977
LJ            5.9473         3.45978        -4.95327
LJ          0.804259         5.60003         2.56094
LJ          -3.16914       -0.267531         2.50905
LJ          -1.31077         4.12014        -4.06849
LJ           3.01511        0.463079        -1.23818
LJ          -5.46744        -1.43214        -6.23973
LJ          -1.24253      -0.0588772        -4.80359
LJ          -2.97256        -5.46896         1.26711
LJ           4.02363        0.830779         -4.6552
LJ          -5.59506        -1.31089         -4.8867
LJ          -1.05104        -5.79519        -1.10747
LJ          -3.64547         1.81721         4.28229
LJ           2.81825        -4.45093         2.16984
LJ            3.4137        0.590341         1.48536
LJ         -0.194297        -5.50631        -1.39513
LJ        -0.0904654        -0.87184        -4.29681
LJ          -2.52932         1.45984         4.50928
LJ           3.15424        0.104215         3.96249
LJ           3.58262       -0.440783         6.34879
LJ           2.63391        -1.23327      -0.0127378
LJ          0.797316          -2.105        -5.11773
LJ           3.33951         5.71776        -3.20111
LJ            2.5918         1.70633        0.169535
LJ           3.02844        0.858886        -2.17928
LJ          -4.35431         1.17592         2.07048
LJ          0.135441        -1.73382        -5.74314
LJ           5.89877         5.77546        -1.78057
LJ          -5.81024          4.6955         1.27257
