108
#Comment!
LJ            3.0044         4.58701        -5.15711
LJ            3.0944        -5.67062         1.93387
LJ           2.60972         4.88229         2.25161
LJ         -0.602711        -5.37888         5.38216
LJ           5.56334         4.75701         -1.1959
LJ          0.406705       -0.216258         3.69755
LJ           1.84112        -4.95805        -2.11541
LJ           1.38747         2.73419         3.36516
LJ          -5.66161         1.69459       -0.863321
LJ          -2.70593        -3.19194         1.99299
LJ           3.43359         -3.4345        -6.41983
LJ          -1.00115         -6.3905         3.81098
LJ           2.85828         3.43729        -5.75614
LJ          -1.56722         1.51543         5.82064
LJ           2.48844        0.414168        -5.17219
LJ          -2.71261         6.34795        -6.19648
LJ          -3.23248         6.21057        -1.60493
LJ           1.01231        -3.95536       -0.960831
LJ         -0.533963         -2.7308        -6.01308
LJ          -1.55643        -1.90727          1.6294
LJ           1.95334        -6.40661        -3.38065
LJ          -1.34453         2.81561        -4.89332
LJ          -4.22251        -1.38638         -2.0989
LJ            0.6758        -2.22011        0.745062
LJ          -4.67595         0.42114        0.542907
LJ           2.19416         3.30994         5.16736
LJ           5.01012         1.19581        -4.38107
LJ          -6.16085         4.97546         5.57211
LJ          0.288072       -0.161548        -6.01114
LJ           3.75912         5.53203        -2.80955
LJ           1.15098          5.4548         2.89041
LJ          -4.05525        -5.57746            4.32
LJ         -0.482744         1.19019        0.488801
LJ           2.99242         4.75925         3.31227
LJ           5.95859        -5.13035        0.746233
LJ          -1.70014        -4.48749         5.15265
LJ          -5.18605         5.51155        -5.58527
LJ       -0.00514536        -4.27382        0.716467
LJ          -3.26272         2.48082         2.57551
LJ          -3.32606         1.03523        -2.15601
LJ           4.18969         5.64951         1.20467
LJ           1.67001         2.09537        -1.94429
LJ           4.36409         1.39731         4.09464
LJ          0.772444        -2.49219        -3.31353
LJ          -3.04848        -0.83227           2.346
LJ          -4.97323         4.32099        -4.41372
LJ           3.01926        -1.97736        0.567701
LJ           4.40197         3.40037        -5.28055
LJ           5.92195        -4.14253         3.89303
LJ         -0.268804        -2.63439           4.713
LJ            5.4782        -2.59993        -6.39007
LJ            4.9025         3.01247         5.42157
LJ           4.03527         5.19371        -1.38267
LJ            6.1333        -2.21304         5.54711
LJ          -5.56639         4.26118         6.45081
LJ          -6.19926         5.46268         2.02142
LJ          -5.11951        -6.18792         1.68528
LJ           -2.0286        -2.83581         -5.3448
LJ           4.36086         6.11531     -0.00871736
LJ           -2.6777        -4.63095         1.95399
LJ           1.19597        -4.72992         3.03138
LJ          -6.31221        -3.55943       -0.745305
LJ         0.0206758        -6.35602        0.475671
LJ           4.45917        -6.11689         4.84577
LJ          -6.08138         4.28065       -0.446605
LJ           4.89627        -3.88448         -1.2422
LJ           3.89729       -0.489383       -0.348831
LJ         -0.945224       -0.352618        -5.72476
LJ          -6.43448         4.36582         2.11779
LJ           1.28718        -3.54681       0.0265237
LJ           5.73643         3.22979        -2.10147
LJ         -0.949287       -0.328765         1.31942
LJ          0.722973        -6.38285         1.34906
LJ           1.26321        -1.43844        -4.38483
LJ          -3.90949        0.262861        -4.07267
LJ         0.0533052        0.645816       -0.412198
LJ           1.74829        -5.97109        -1.63281
LJ           3.09359        -0.27563        0.409242
LJ           1.24577         4.44037         5.19421
LJ           -4.5291        -2.35004        -5.93486
LJ          -2.29673        0.761113        -4.59488
LJ           4.21117        -5.99195         -3.4065
LJ           2.91743         -5.9745        -2.54185
LJ         -0.244585         4.29518        -1.69763
LJ           2.13994        -1.02751        -3.89117
LJ           2.64242         1.64664        -2.16872
LJ          -5.26534         1.88694         4.80712
LJ          -1.93568          4.4327        -1.62717
LJ           2.81015         3.93871        -3.38497
LJ           6.16953        -3.11626         2.10758
LJ          -6.13088        -2.96349        -2.46526
LJ           2.05344         2.31826        -5.50069
LJ           2.64776       -0.723957        -2.20959
LJ          -5.13704        -2.74809         6.08244
LJ         -0.114924       -0.713553         4.90421
LJ           5.62685         5.45751       -0.155948
LJ           1.62241        -6.00836        0.705716
LJ          -2.27435        0.607436         4.87992
LJ           3.17685        -6.33549        -1.46962
LJ           3.69576        -6.30654        -5.68028
LJ           3.73178        0.149035        -4.89948
LJ          -6.34766        -4.79654         5.03743
LJ           2.92643          3.8449         3.44245
LJ          -4.59854         2.95655        -2.35991
LJ          -3.51359        -0.90903        -3.41988
LJ           2.28345        -2.58885         3.79618
LJ           2.96079         4.77036         5.44379
LJ          -4.41677       -0.304884        -3.50912
