108
#Comment!
LJ           5.53759       -0.258039         0.10051
LJ         -0.861193        -4.71517         3.41659
LJ           3.95045      -0.0559096        -4.59557
LJ           1.80602         6.16391        -2.77529
LJ           5.11507         -4.8609        -5.66239
LJ           1.04251        -5.50805         3.35126
LJ          -1.30706          -2.777        -4.65231
LJ          -1.51301         3.79605       -0.550392
LJ           3.89323         1.23226        -6.20838
LJ           4.20387        -5.37062          1.9187
LJ          -3.60259        0.321256         2.01333
LJ          -6.43836        0.754322         2.76913
LJ           4.62341        -2.17384        -4.30667
LJ          -3.54109         1.68573        -3.42666
LJ          -3.61816          1.8407        -6.27438
LJ          -1.48936        -1.22747          1.1497
LJ          -4.89724         1.03565        -3.69183
LJ           3.61573        0.201256           1.415
LJ          -3.20635        -5.23908        -1.19871
LJ          -6.36405        -3.44216         1.68596
LJ          -6.34163           -3.43        -1.48555
LJ           4.74824         -1.3009        -2.83821
LJ           6.43695         1.46247       0.0764668
LJ        -0.0608614        -2.34743         2.78718
LJ           3.69293         6.16442         5.66691
LJ          -4.26487         2.78655        -1.35804
LJ          -4.30437         1.61667         4.91828
LJ          -2.40724         -2.9656         -1.9118
LJ          -4.49068        -1.60939        -2.04347
LJ          -1.34317         5.05113         4.77578
LJ           3.83593        -1.22733        -4.89059
LJ           0.67279        -4.41014        -4.04634
LJ          -1.57548        -5.80712         6.26001
LJ          0.116316         1.71886        -1.27414
LJ           5.41174       -0.427564         1.20481
LJ          -2.54549        -2.23126         5.92507
LJ          -2.92364         3.15278         3.04418
LJ           3.34819         5.34592        -6.27286
LJ           5.69793        -4.11948        -4.03782
LJ          -2.78953        -1.12746         5.74256
LJ           5.01124          6.0315         1.93837
LJ          -2.19277        -3.39823        -5.92422
LJ           -2.7616        -5.66002        -5.92635
LJ           3.27132         3.07975        -3.31557
LJ          0.205685         6.05089         3.13932
LJ           4.28718         6.12163        -1.83687
LJ           1.49304         4.02229        -3.70107
LJ          -1.55943         3.66346        -3.90877
LJ          -2.70306         5.12844         1.22959
LJ           5.72188        -5.40913         3.20633
LJ          -4.18091        -3.01281        -1.04747
LJ          -1.87746         5.47862        -4.42633
LJ           4.86834         5.97935        -5.69633
LJ           2.96384         1.70587         4.88182
LJ          -2.76671        -3.46784         3.19032
LJ           1.06101        -1.56841         3.66327
LJ           5.27906        -5.71759            1.48
LJ          -1.63196        -4.85551         5.71933
LJ          -5.87043        0.262012        -5.39881
LJ          -2.33041        -4.00094        -2.22482
LJ            4.9387       -0.294332         2.49706
LJ          -5.13659        -2.35595        -1.67647
LJ           2.80331         5.93825        0.790482
LJ          -5.03965        0.167932        -2.33016
LJ           4.95571         5.24194       -0.065683
LJ          0.104192        -3.02128         1.31234
LJ            5.9211         2.37226        -1.60464
LJ           -1.3064        -1.59347        -5.51063
LJ          -3.43052        -2.42104         -1.9119
LJ          0.822188         3.09572        -2.89865
LJ          -2.38058        -5.10884         3.78641
LJ          -4.20665        -6.10499        -2.35891
LJ           5.22626        -2.44142        -5.03271
LJ          -6.36944        0.187353       -0.776969
LJ          -4.04074        -5.13862         1.99607
LJ          -2.32516         1.22764        -3.66212
LJ          -5.28101         2.85877         -2.0735
LJ           4.33684        -1.31813         4.56853
LJ          0.483752        -5.20517         1.25355
LJ           6.04023       -0.273075        -2.12135
LJ           4.47284        -4.29849         -2.3984
LJ           1.86329        -6.22703        -5.05724
LJ          -4.40424          0.3344        -4.79611
LJ           1.61889         4.37143        -2.26449
LJ          0.221415        -1.44338       -0.889231
LJ          -3.39373         1.15646       -0.316355
LJ         -0.996094        -2.34496       -0.927073
LJ           4.00101        -6.25374        -5.24437
LJ          -5.41648        -5.77113         4.85757
LJ           3.45558         -2.8916        -1.41447
LJ           6.44777       -0.996103         -4.2673
LJ          -3.14205        -4.09519        -6.34172
LJ           1.09626          2.1079        -2.73832
LJ          0.245063        -1.45724         4.30307
LJ          -4.91895         6.22955         4.10197
LJ           3.58362        -5.87734         -2.7381
LJ          -2.46284         -4.0678         2.04051
LJ           2.95549        -5.09673         2.20124
LJ          -4.38904       -0.604682        -5.86496
LJ          -1.51894        -0.54238        -5.99349
LJ          -0.55108        -3.24309        -1.08108
LJ         -0.916262        0.632165        -6.10865
LJ            4.1576         4.92976        -5.72599
LJ          -6.17476        -2.36371        -5.29978
LJ           -3.8948        -5.77277         6.23113
LJ           3.30172        -3.14801         4.09985
LJ           3.75032         2.88499        -1.62654
LJ           4.56064      -0.0177323         6.02757
