108
#Comment!
LJ          -4.31111       -0.258778        0.185546
LJ           3.61139        -3.94833         6.06652
LJ          -1.21258         -4.1691        -6.09254
LJ         -0.143647        -3.77618         5.52262
LJ           -2.4474         5.03865       -0.529924
LJ           3.41147         5.16834        -5.74038
LJ          -3.04515         3.78958         1.00615
LJ         -0.415366         3.71883         1.83578
LJ           2.29653         4.12877        -2.51588
LJ          -5.69427        -4.51981         2.58898
LJ          -3.20642        -2.65565         5.85076
LJ           5.91791         3.53768         2.97281
LJ           2.08625        0.359506         1.04178
LJ           6.02586        -5.42777         3.10376
LJ          -5.04731         0.54114         3.57936
LJ          -1.08531         1.17947         3.41926
LJ          -3.41998         3.43451        -6.10673
LJ         -0.972513          0.1142       -0.224578
LJ          -5.55927         -5.9923        -4.06929
LJ          -2.69133         2.54517        -3.59775
LJ           1.19783        -1.90633        -2.34752
LJ           3.67538       -0.419213        -1.54144
LJ           5.40995         4.98582        -1.34965
LJ           3.13177        -1.32392         5.10146
LJ           -5.9627        -4.48869        -2.77288
LJ          -3.17197        -5.01118        -3.46753
LJ           3.87975         3.31775          1.4148
LJ          -5.50186         4.29926         -3.7214
LJ           1.52381       -0.758058        -2.38795
LJ          -1.19258         3.13666         5.19781
LJ           5.15485         4.41325        -3.46788
LJ          -4.31632        -4.47872         2.54616
LJ          -6.14295        -2.98684          3.1282
LJ          -5.78169        -4.01558         4.15575
LJ           3.46643         6.28063         2.72597
LJ          -3.59848        -2.16603        0.461879
LJ          -2.96811        -4.38703        -4.54112
LJ           3.66242         6.03895         6.46063
LJ          -2.64554         3.49401          -1.528
LJ           4.37559        -1.82601        0.944568
LJ          -2.66327        0.590846        0.982611
LJ             1.262       -0.753204        0.231185
LJ           -5.6906         3.85209       -0.510488
LJ          -6.32552       -0.237413         5.23726
LJ          -6.29851       -0.289171        -5.70277
LJ          -1.34148        -6.01548          2.1003
LJ          -2.08806         4.76555         6.09238
LJ           0.64732         5.43912       -0.990322
LJ           6.37033        -3.28224        0.624101
LJ           6.21835         1.03997          6.2069
LJ           5.05887         5.31578         3.18617
LJ            4.7442         5.58117         4.73022
LJ            1.6325         3.03458         6.30203
LJ           1.05564         6.43648        -3.60708
LJ          -3.28306        -3.11985         1.29603
LJ           1.93562        0.624027        -2.10125
LJ          -4.02198         5.18073       -0.381725
LJ           3.56856         4.05187        -4.50425
LJ           4.74346         5.93269        -6.37484
LJ           6.34584        -5.30805         2.13643
LJ          -2.71501        -6.35916        0.147317
LJ          -2.27102        -6.08252        -5.83274
LJ          -2.82299         3.89848         4.85285
LJ           1.60919        -5.51614         6.13537
LJ          -4.90732        -6.36213         2.70863
LJ          -2.16583        -3.96354        -1.39228
LJ          -6.24395        -0.26029        -4.44411
LJ          -5.12861        -1.42312        -2.56232
LJ           2.78295          1.6559         5.86215
LJ           4.78541          3.9073         3.50201
LJ           -1.9173        -1.83778        -2.13701
LJ          -1.06747        -5.87699          5.7163
LJ           3.78086         1.05634         2.74371
LJ           2.22388        -6.36347        -3.84613
LJ           4.53728         6.08604        0.811148
LJ          -5.03762        -2.22646        -4.80792
LJ          -4.31457       -0.812283        -3.05566
LJ          -5.33746        -4.18123        -4.84467
LJ          -4.58758        -2.85301         1.36182
LJ          -2.05793        -4.96582         6.15179
LJ           3.27794        -2.12564       -0.402788
LJ           5.68125        -2.76543         3.51721
LJ           5.18006        -0.10079         2.27793
LJ           -4.6893         3.74329          2.4726
LJ          0.591434       -0.417733        -1.97892
LJ          -2.85729         1.72753        -2.84366
LJ           1.34316         1.63853        -2.40736
LJ           4.57934        -4.11671         2.95408
LJ         -0.682381         1.10932          5.6242
LJ           3.44306        -6.27052          1.3284
LJ          -4.92854        -5.18368        -5.52687
LJ          -5.88972         2.77622        -2.22227
LJ           3.82888        -2.33056         5.56337
LJ           1.27466       -0.397936          1.6928
LJ         -0.777993         2.49277        -2.57226
LJ           2.28507         -1.1569        -4.07639
LJ          -1.73035         -6.3717        -2.39863
LJ           1.99975         -4.7224        -3.56701
LJ        -0.0935811        0.761586        0.988552
LJ          -5.14729         1.28124         4.80649
LJ          -1.39992        -3.52295         5.56538
LJ          -3.67437         6.27467        -5.55893
LJ          -1.24137         1.88184         2.57143
LJ          -3.54682        -6.07292        0.900126
LJ           6.45055         1.76841         3.13977
LJ           2.76618         2.48292         3.67663
LJ           1.13268         3.23245        -2.49234
LJ           -6.3448         3.92939        -5.96082
