108
#Comment!
LJ           3.56683        -5.24367        -5.56057
LJ          -3.06967        -6.40409         5.02338
LJ           2.90062        -3.75204        0.653992
LJ          -2.54454        0.371155         6.41244
LJ        -0.0289202        -4.76446        -4.13955
LJ           5.48276        -2.55494        -1.02708
LJ          -5.00641         2.20963         4.40823
LJ           3.70537        -2.04194        -6.16051
LJ           1.12287        -2.76043         5.11432
LJ           1.93462       -0.620947         2.18797
LJ               4.2        0.220687        -2.47192
LJ           2.96552        0.340962        -6.45135
LJ          -5.07167        -5.09271         2.00282
LJ         -0.781034         3.84707        -3.64983
LJ          -3.81651         5.58385        -5.33798
LJ          0.727618        -1.93544         2.68037
LJ          -4.18693        -2.54886         5.63806
LJ           -5.3397        -2.35639         5.74722
LJ           3.11348        -5.25116         1.17695
LJ          -2.37003       -0.482091         6.00537
LJ           -3.8204         2.45159        0.933064
LJ           2.75031        -2.31756         2.31023
LJ           1.36812         2.23778         3.72073
LJ           4.85682        -3.62943         6.02546
LJ           3.99882        -5.61991         1.28233
LJ          -4.76869          3.7063        -6.23949
LJ          -4.44257        -5.65763         5.13552
LJ          -5.40772        -1.59311         -4.9446
LJ           5.56263         3.19286        -4.82676
LJ          0.239824       -0.823656         2.52577
LJ           1.82897         3.74769          1.1756
LJ           5.34436        -6.04267          4.2718
LJ           5.88832         4.97825       -0.465189
LJ           1.88002        -1.36989        -3.05285
LJ           3.76155         4.96601         2.56746
LJ           4.64623         5.51725        -4.15934
LJ         0.0734522        -3.38035         3.76405
LJ          -4.38523        -6.12506         2.04033
LJ          -4.43246        0.115534        0.883071
LJ           -4.0501         6.15871         4.66803
LJ          -3.88426        0.247498         1.74537
LJ          -3.56038         3.05319         4.77268
LJ           1.29212         6.21485         2.29436
LJ           4.24731         1.19357         -5.0291
LJ         -0.178863         4.23852          3.9055
LJ           2.24093         2.79181         6.34285
LJ           2.21554         2.15538        -4.33193
LJ           3.38262        -3.73841         5.29204
LJ           -5.8579        -6.32199          5.8599
LJ          -3.22649        -2.88202        0.124478
LJ           2.10137         3.26514         5.25554
LJ          -3.42066         1.31262         6.05431
LJ          -2.49673        -5.14367         -5.5962
LJ           4.30323         -2.5058        -1.20947
LJ          -3.70307        0.959194        -1.62706
LJ           -5.4312       -0.824832         -1.0022
LJ           3.62332        -6.11811        -2.93075
LJ           4.55935         2.13938        -1.33069
LJ          -1.96877         5.63241        -5.43738
LJ           2.93927         4.28646         4.01071
LJ          -6.15812         -1.3598        -3.99034
LJ          0.670496        -5.70849        0.268065
LJ           1.47933         5.46712        -1.16801
LJ          -2.27538        -5.05617         6.45571
LJ          -4.91761         2.63852        0.637135
LJ           4.72953        -1.30452          4.2669
LJ           4.02853        -4.67878      -0.0329878
LJ          -1.47218       -0.456433         1.41851
LJ           3.77909         1.58145        -1.64576
LJ           3.67045        -3.74432         2.73518
LJ           3.92266         2.85005         2.02706
LJ         -0.709182         4.21184        0.870402
LJ          -2.75135          4.1321        -4.34753
LJ          -2.59137         2.00217        -2.12981
LJ           3.50793        -4.99272        -2.94229
LJ          -4.50688        -3.03577        -4.44129
LJ          -4.14605       -0.897085         4.48201
LJ           2.34242        -6.07588        -3.36521
LJ          -4.30882         5.27655         3.52181
LJ          -4.65606        -2.12603        -1.88805
LJ           2.67114         -4.7237         5.88144
LJ          0.121194          3.1617        -2.74698
LJ           -5.3182        -1.42928         2.30369
LJ           -5.0989       -0.620848         1.71984
LJ           2.06671         -1.3479         -4.0189
LJ           3.34389         5.77035         5.51459
LJ           5.68929         -5.5579         2.48775
LJ          0.888627        -1.68654         5.58555
LJ           5.09096         0.89956          1.6672
LJ             2.865        -5.91968         4.56704
LJ          -3.99606         1.10132         1.15403
LJ           6.28619        -2.67622        -6.08923
LJ           3.35789        -1.40684          3.6611
LJ          -2.90711        0.794049        -2.28017
LJ          -6.13501        0.246121         2.58583
LJ           1.23247        -4.08166        -5.32734
LJ         -0.837398        0.502663         6.06424
LJ           2.86541        -2.23356        0.661535
LJ           1.98062         -1.7653         1.65416
LJ          -4.22766         5.35807         5.38023
LJ          0.927078         2.27635        -4.90318
LJ           1.90083         4.32019         6.33921
LJ           -5.6681        0.672149        -4.37266
LJ           -5.0902        0.343373        -2.99207
LJ           3.55056        0.447815        -4.67359
LJ          0.167708        -4.00563         5.90674
LJ          -6.36248        -1.91704         3.93928
LJ          -5.76383       -0.708056         3.98468
