108
#Comment!
LJ            -5.934        0.433941        -5.85755
LJ           3.40849         -5.8705         -2.4074
LJ          -0.50345         -2.0203        -3.61731
LJ          -5.00857         4.31255         5.71394
LJ           2.67619         5.28731        -2.49202
LJ          -1.38208         -4.9438         5.91798
LJ          -5.52375         3.36997         2.41406
LJ          -5.34662         6.37164        0.916667
LJ         -0.720633        0.228807         5.53607
LJ           4.69365         1.29281        -3.86838
LJ          -1.40947        0.860137        0.142731
LJ           4.20262        -3.75396         2.54953
LJ           4.33156       -0.641419         2.37933
LJ           2.04269        -2.63405         0.18241
LJ           4.88555         6.23866         3.41666
LJ          -3.83943        -2.58506        -3.17835
LJ           -6.3057        -5.21206        -3.63643
LJ          -1.47734        -1.34863         6.09802
LJ           1.41937       -0.354146        -5.98457
LJ          -2.28467         1.95406         3.89768
LJ         -0.302329         3.49295         4.79523
LJ          -2.61122         -2.4177      -0.0108909
LJ          -3.30022         1.63515       -0.975444
LJ          -2.93051        0.516165        -4.39448
LJ          -1.09715         -4.8892        -1.48508
LJ           4.98339         1.68121        0.710339
LJ            4.9626        -3.15132        -4.43487
LJ            1.7776        -2.36307        -2.78548
LJ          -1.49595        -4.15878        -2.83848
LJ          -4.41713          5.3639        -5.43678
LJ          -6.21005        -1.70533          3.3296
LJ          -2.08192         -5.9405         6.22696
LJ           6.36819        -1.01214        -1.00245
LJ           2.44044         2.69712        0.865954
LJ          0.518783        -6.24716         5.52875
LJ          -3.81831        -2.44685         4.83445
LJ         -0.495626        -5.27261        -6.38983
LJ          -1.53173         2.32658        -4.40257
LJ          0.996143         1.15396        -4.89866
LJ         -0.830659        -5.96324        -4.90687
LJ          -2.73869         1.28849         4.49149
LJ           4.25835        -1.21577        -3.23143
LJ             2.576       -0.312312         -5.2227
LJ          -4.13281        -1.58552         5.35652
LJ           1.47215        -3.63217         5.56204
LJ           1.16363        -4.03171        0.187857
LJ           2.79569         2.36411        -2.50149
LJ          -5.49113       -0.100857      -0.0919879
LJ          0.344671        -6.08643        0.396133
LJ            1.3097         2.62702       -0.456567
LJ          -4.39564         3.23947        -5.40797
LJ          -2.05467         3.44225         3.34935
LJ          -5.25108        -4.04456         4.32895
LJ           3.27281         6.37307        -6.16153
LJ          -4.68776         3.52937         1.57539
LJ           4.75526        -4.35456        -4.70055
LJ           5.42144        -4.50416        -6.40134
LJ          -2.30501       -0.515771        -3.07012
LJ           1.73397         4.74491        -5.37726
LJ           5.14805        -4.28359         3.55544
LJ          -5.41253         5.69655       -0.754404
LJ           4.46441        -3.61915         5.08614
LJ         -0.252641         1.20152          5.2767
LJ           -6.4444        -1.23756         6.33753
LJ            5.9518        -3.84682        -4.83344
LJ          -2.60486        -4.78605         1.48097
LJ          -2.11666        -3.89117         1.30574
LJ           4.08287         2.34079         3.50936
LJ           6.33499         -3.0767       -0.352498
LJ          -4.10405         2.81241          5.8355
LJ            3.1895        0.441391         4.76306
LJ          -5.75194         5.27071         2.89065
LJ          -2.87174       -0.955132         4.50701
LJ          -2.47577        -2.54161        -3.22572
LJ           -2.5408        -2.33312         2.81337
LJ          0.633963        0.243579        -4.78035
LJ          -1.38576         4.85097        0.142148
LJ           3.60106        -5.75854         5.61016
LJ           6.42168        0.835363         5.86483
LJ           3.82281        -2.97141         5.45051
LJ           5.33839        -3.77239         1.80671
LJ          -4.94599       0.0267924         1.94942
LJ           5.89443         4.89051        -3.02609
LJ           3.08481         4.32457         2.28792
LJ          -4.30496        -4.19156        -1.49205
LJ          -3.22049         3.93461         -5.3194
LJ           2.87661        -1.11018        -6.07268
LJ         -0.412005       -0.902839        -3.86664
LJ           6.20698        0.153032        -2.93418
LJ          -4.99577         3.60243        -4.07316
LJ          -5.79663        -6.02245        0.245782
LJ           4.72545         2.95711        -6.07535
LJ          -1.63229          4.5557         6.01097
LJ           4.35109         6.15352         5.21452
LJ           2.07598         4.87116         2.20491
LJ           5.35882        -3.91909       -0.261083
LJ          -5.09079         1.24955         3.02005
LJ          -5.01145        -5.83507        -5.72414
LJ         -0.179324        -4.13365        -3.32966
LJ           1.40968         3.59604        -1.14528
LJ           6.19926          2.1689        -3.66779
LJ          -5.31781         2.48785        -4.57491
LJ           1.49354         1.09611        -6.37501
LJ          -3.07251        0.164832         4.86887
LJ           6.09896         1.51027       -0.839709
LJ          -1.79322          1.7182         2.90159
LJ          0.985891         3.39031        -5.04881
LJ          -4.51048         1.93693         4.76264
