108
#Comment!
LJ           4.15985         2.21139         2.68603
LJ          -5.84815         2.55593       -0.557602
LJ           6.06981        -2.96933         4.87244
LJ           3.37677         5.92879        -1.09432
LJ           4.74855        -3.01019        -2.00077
LJ          -5.76312         1.70154        -1.26713
LJ           4.63483        -2.48238       -0.776898
LJ          -5.83264         3.05329        -4.97813
LJ           1.00318        0.305287        0.665297
LJ           3.16502       -0.995173         3.42384
LJ          -4.69117         5.44768          3.2213
LJ           2.47654        -4.30633        -3.68289
LJ          -2.13622        -3.36184         2.05381
LJ          -2.80932        -3.30528         4.41629
LJ             2.919         3.14655       -0.276728
LJ          -2.38826         1.30494        -3.58625
LJ           4.20329         3.20897        -4.14305
LJ         -0.571511        0.729098       -0.444656
LJ         -0.651415          3.8925        0.720999
LJ          -2.30963        -6.12815        -5.69256
LJ          -4.23113         4.16893         2.63115
LJ            5.9995        -5.42681       -0.975424
LJ           -1.6402        -4.50996       -0.893442
LJ          -1.33285        -2.93008         5.80931
LJ          -5.01966         3.63548         -4.4382
LJ          -3.12006         1.77925        0.215941
LJ           6.36279         4.04247        -3.06624
LJ           1.23002         5.79017         3.59167
LJ           2.00425        -5.25597        0.404648
LJ          0.291929       -0.654499       -0.594216
LJ           6.00172        -1.08013        -1.19567
LJ          -3.95538        -5.01417        -4.13145
LJ          -2.35691         2.56885         2.05287
LJ           2.14656        -2.84596        -3.96799
LJ          -3.06361        -4.68801         4.08027
LJ           3.36911        0.413169         3.68471
LJ          -2.65245        -5.78178         4.30287
LJ          -2.82895        -3.85414        -5.20519
LJ            2.7806        -2.72486        -6.05088
LJ          -2.22332         1.93074        -1.74529
LJ           2.65494        -6.10407         2.34975
LJ          -5.72301        -4.11661         1.35426
LJ           6.20343         3.09866         1.65404
LJ           3.31914         2.69282          4.9729
LJ           4.03535        -3.65055        -3.68908
LJ          -4.29884         -6.4457       -0.187815
LJ           1.96511        -2.86829        0.468973
LJ           1.17047        -3.05438        -5.92485
LJ           2.28047        -2.25312          6.0304
LJ           1.12897        -2.43559        0.797965
LJ          -4.03258        -3.82629         2.77289
LJ          -1.40839        -1.84837         4.35279
LJ           3.06405        -5.95326        -2.54448
LJ         -0.152145        -2.00502        -3.31939
LJ          0.245941         5.05475         4.41087
LJ          -1.08258       -0.813676         -5.8635
LJ           5.03134        -2.75458         6.11234
LJ           3.49404       -0.207358        -5.26684
LJ          -1.11928        0.534091         -3.4217
LJ          -6.01814         1.50882        -5.07699
LJ          -4.86299        -0.97765      -0.0863629
LJ           1.76242        -1.31355         1.64152
LJ          -5.65117        -3.60135         2.12164
LJ           3.59153        -3.83743         2.06347
LJ          -4.56296         2.56817          1.8098
LJ          -1.27455          2.7634         2.18161
LJ           5.03948       -0.741457         0.45879
LJ          -4.95798         2.61276        -6.04166
LJ           4.39455        -5.01919       -0.913676
LJ          -5.59697         0.40199         4.93052
LJ          -4.65991        -1.43478        -1.48513
LJ           1.23588        0.229171       -0.454474
LJ          0.851763         1.74067       -0.893273
LJ          -6.29801         5.76066         5.82276
LJ          -3.20515         3.69958         4.75935
LJ           6.15737        -1.26706      0.00675597
LJ          -5.13799        -6.11916        0.330786
LJ           5.87368       -0.363247         3.37134
LJ          -6.42452        -3.12046        0.693393
LJ          -2.99159        -4.19349        0.525786
LJ            5.3004         1.97402         6.12468
LJ           4.72597         4.91347         3.37902
LJ            6.2902        -5.96415        -6.15398
LJ          -2.42245        -3.76844        -3.80255
LJ           4.94008        -5.84576        -2.95085
LJ          0.739205          6.2022         5.63152
LJ          -4.43367         1.56103         2.02395
LJ          -4.14062        0.338418         1.45697
LJ           4.80462        -1.60033         6.19248
LJ           3.29024         -5.2387         2.29812
LJ             5.216         3.32844         4.90318
LJ           3.03027        -2.31292        0.655993
LJ           3.19262         2.24764       -0.978752
LJ          -4.61675         2.35555       -0.612781
LJ          -2.85912        0.884349         2.63258
LJ           3.29827         3.19199         1.42841
LJ          -4.60713        -4.50875         5.49646
LJ          -3.18711         2.97708      -0.0343807
LJ          -2.99985        -3.14528        -4.61624
LJ           -2.7284         3.71505         2.04505
LJ           3.08605         2.40257        -4.28584
LJ           4.45849        -5.03418         3.46196
LJ          -2.43446        -4.26306       -0.429678
LJ          -5.82756         5.18087         4.73819
LJ         -0.441568        -4.92439         4.96501
LJ           -2.5339         5.06167         2.54337
LJ           2.21113        -3.31994         -2.6984
LJ           -1.7528         3.36862         3.73737
