108
#Comment!
LJ          -6.36889         6.46323        -4.95548
LJ          -4.30784        -4.30724          4.8663
LJ          -4.86883        -4.31156        -4.30893
LJ          -4.30798         4.86578        -4.31889
LJ          -2.15613        -4.86518         6.46053
LJ        -0.0987908        -4.30839        -4.95029
LJ          -2.24786        -2.80595        -4.29976
LJ           1.59781        -6.45233        -4.31338
LJ           0.55682        -6.46071        -6.45907
LJ           4.31056        -4.31108        -4.86653
LJ          0.748461        -4.31989        -4.30785
LJ           5.81403        -6.46188        -4.21855
LJ          -6.45317        -2.24817         4.95645
LJ          -4.31041         1.40533        -6.46258
LJ           -6.3837         1.45164        -4.22452
LJ          -4.40252        -2.15811        -5.82234
LJ          -3.55969        -2.15652         6.45923
LJ        0.00175705     -0.00262742        -4.86656
LJ          -2.15186       0.0069522        -2.71057
LJ           -1.5012        -2.06349        -4.30961
LJ           0.55524        -2.15477        -6.46324
LJ           2.71029      0.00367449        -6.45613
LJ           3.75315      0.00262179        -4.30748
LJ           4.30801        -2.15121        -2.90178
LJ          -6.36639         2.15523         -5.1123
LJ          -4.30748         5.82071        -6.36766
LJ          -6.38383         2.86027        -4.22794
LJ          -4.32057          2.2523        -5.82325
LJ          -2.15087         3.65807         6.37159
LJ        -0.0053862          2.7109         6.46279
LJ          -2.15843          4.4015        -5.81244
LJ       0.000123971         2.25032        -2.79357
LJ           2.15486         2.15421        -4.85334
LJ           4.40301         4.30721        -4.95369
LJ           3.65697         4.30644        -4.21693
LJ           5.66256         2.15488        -4.22903
LJ           6.45339        -4.86505        -2.15847
LJ          -2.80247         -4.3998        -2.15656
LJ           6.37093        -2.80356      0.00121598
LJ          -4.30721        -6.45556         1.59948
LJ          -2.15428        -6.46194        -3.75094
LJ         -0.101031         -4.3052        -3.67209
LJ         -0.647438        -4.30613      -0.0922681
LJ        0.00262942        -6.45429         1.59852
LJ           2.14853         4.86387        -2.14737
LJ           4.31764        -5.90673        -2.15544
LJ           2.15162        -5.92165       0.0101834
LJ           4.21861         5.11049      0.00017475
LJ            4.9464        -2.15552        -2.05715
LJ           -4.3075         -1.5953        -2.15373
LJ           4.86683      0.00636355    -0.000284188
LJ          -5.81204        -2.06207      0.00107174
LJ          -2.05746        -3.66133        -2.16486
LJ       -0.00238642         1.40105        -2.15442
LJ         -0.540554      0.00299093      0.00713364
LJ       -0.00327644        -2.15386        -1.59465
LJ           3.67366        -2.14417        -2.04986
LJ           2.71028      -0.0103922        -2.16412
LJ          0.541543    -0.000301233      -0.0046232
LJ           2.71487        -2.15463      -0.0073627
LJ          -4.96067         2.06322        -2.15751
LJ          -4.21605         2.80176         -2.1566
LJ           5.10789          4.2188      -0.0031016
LJ          -4.31039        0.560623    -0.000354452
LJ          -2.14518         2.14604         -3.7517
LJ        0.00869163         5.90743        -2.15628
LJ          -2.15158         2.71237      0.00204401
LJ       -0.00299593         2.24865        -1.51119
LJ           2.14583         2.15096        -3.76655
LJ           4.22556         4.22905       -0.706704
LJ            2.1657         5.92315     -0.00861424
LJ            5.9079         2.15945    -0.000279449
LJ           4.86649         6.45911         2.15436
LJ          -4.31147        -4.31445         0.55434
LJ          -6.46107        -5.90445         4.30955
LJ          -4.30943         -6.3695         5.82234
LJ          -2.23803          5.0324         2.07077
LJ         0.0935902        -4.32119         0.64769
LJ         -0.746181         -4.3119         4.31109
LJ          0.102024        -4.94168         4.31041
LJ            2.1517        -4.86443         2.15416
LJ           4.21456        -2.80144         2.16308
LJ           2.05413        -5.81801         4.30061
LJ           2.80166         6.37422         4.30782
LJ           4.95892        -2.06131         2.15466
LJ          -4.30729        -1.59628         2.15422
LJ           6.46065        -1.50558          4.2141
LJ          -4.41051        -2.16035         5.82806
LJ          -2.15214        -2.24791         3.65733
LJ          -1.50651      -0.0952535         2.14802
LJ          -2.15688        -1.50333         4.40236
LJ          0.095104        -3.66778         4.30795
LJ           2.15698        -2.15566         3.75253
LJ            4.3118      -0.0947844         3.65977
LJ          0.559912      0.00844406         4.30706
LJ           4.31103        -3.74909           4.297
LJ          -4.86722         2.15762         2.15354
LJ          -4.30758         4.30894          3.7525
LJ          -6.45398          4.3093         2.70817
LJ          -4.30712         2.25159         5.82542
LJ          -2.24623        0.651054          2.1521
LJ           -1.4373         4.22726         2.07559
LJ          -2.24109          4.2266         2.86903
LJ           1.50535         2.14844         4.40438
LJ           2.24874         2.15139         3.66122
LJ           4.22802         4.22969        0.710582
LJ           2.15177          4.3089         5.90613
LJ           4.30468        0.648313         4.39999
