108
#Comment!
LJ           -1.7697        -3.84793        -6.06333
LJ          -3.00442         0.59065        -1.09315
LJ          -1.24534        -3.59947         1.41803
LJ           2.01864         1.90461       -0.835369
LJ           4.74287         2.84785         -2.8233
LJ           4.02004        -4.56382        0.639777
LJ           6.29089        -3.94324        -6.32496
LJ          -5.09245         4.61386         5.20223
LJ           6.07283         5.11458         1.63855
LJ          -1.04253         5.94264        -5.88613
LJ          0.376065        -2.43216          2.5102
LJ           6.21018         4.89921        -2.59125
LJ            2.8555        0.236282        -1.98834
LJ          -1.02395         5.44514       0.0910015
LJ          -2.79188        -2.25859         1.53797
LJ          -2.68862        -6.12913        -5.32961
LJ         -0.390665        -3.77795        -5.52362
LJ           4.30218         0.17606        0.887994
LJ          0.820875         1.59501         2.37844
LJ           3.81093         4.92641         2.72696
LJ           1.21225          4.2277        -1.50682
LJ          0.404743        -6.23011        0.521663
LJ          -1.45258         6.12807         5.54885
LJ          -6.28333        -3.83308         5.10394
LJ            -1.706        0.346135         5.40338
LJ          -3.81475        -4.85595         3.75761
LJ          -5.16435         3.69353        -5.97737
LJ           6.19878        -1.13842        -2.66997
LJ            5.4204        -2.31869         4.36398
LJ           3.48905       -0.596901         1.85037
LJ           5.12137         5.70978        -0.40513
LJ          -3.87262       -0.629627        -1.02634
LJ           0.85928          1.2471        -3.68391
LJ           6.15991         1.28467          -2.936
LJ          -6.14926          4.0001        -3.24502
LJ          -1.62719         3.47743        -4.23367
LJ          -1.55585          -1.781         1.39404
LJ           5.03357        -4.06531        -1.02158
LJ           1.90252       -0.730228       -0.106274
LJ           5.47237         1.05644         3.16873
LJ           4.86262        -3.10033        -3.25505
LJ           1.52801         4.33659         6.33957
LJ          -4.86641         1.02302         3.45338
LJ          -2.37839       -0.193608        -5.90942
LJ          -3.60633        -4.25374       -0.519635
LJ           2.87981        -5.18534        -5.52854
LJ          -5.19578        -3.99547         1.51871
LJ           0.20309        0.659985        -1.95149
LJ           2.26174         2.37438         2.63601
LJ           4.18438         2.35378          -1.643
LJ        -0.0926585        -3.59479        -1.83648
LJ            3.4211      -0.0293303        0.152147
LJ          -1.39806         4.60668        0.616686
LJ            2.2258        0.826414         6.43836
LJ          -4.12145        0.372434         5.19573
LJ           4.82589         3.29165        0.979633
LJ           3.27581        -3.86325       -0.128958
LJ          -2.49927        -1.24945        0.179149
LJ           3.55377        -1.93698        -4.43435
LJ           6.15105         3.31041        -1.72994
LJ           5.98906         -5.3664         0.55943
LJ            5.4442        -3.47626         1.97425
LJ         -0.308276        -3.46904         5.31488
LJ          0.549241        -5.36185        -5.09428
LJ           3.79253          2.5801         5.22054
LJ          0.691686         3.24618         2.03805
LJ           3.91188          0.5416        -3.67592
LJ           4.78705        -1.72898       -0.742245
LJ          -6.04407         5.37077        -3.51253
LJ          0.972921         1.41894         5.35645
LJ           2.74409       -0.867594       -0.754491
LJ          -1.04412         3.82971       -0.917949
LJ          -5.18245        -5.94791        0.291249
LJ           2.55025        -4.50511        -4.13919
LJ          0.348197        0.446342         2.86789
LJ           3.89158        -3.38723         3.83465
LJ          -5.49937         6.34621         1.61835
LJ          -5.41664         1.23345         1.24175
LJ          -5.25244        -3.94766        -3.65939
LJ           6.34939        -4.07145        -3.32833
LJ          0.682562        0.318464        -5.50216
LJ           -0.8911         3.85734         1.06996
LJ          -6.36059          1.4476        0.437962
LJ           -1.8016        -2.00566        -5.77893
LJ           3.44578         6.43389        -3.36386
LJ           3.65186        -2.73201         1.40037
LJ          -4.90646         -1.1616         3.17841
LJ           -6.3413         -4.9186         -1.9097
LJ            5.3339         1.54699         -6.1922
LJ           3.56172         1.20082         -1.0168
LJ           2.08466        -5.82344         1.78395
LJ          -3.01608        -5.19925        -4.60734
LJ           1.88502         4.91188         2.06124
LJ           5.55182         1.34663         2.18278
LJ          -1.90155       0.0642735        0.220391
LJ          -1.33234        -5.03231        -2.90091
LJ          -2.97298        -3.98534         -5.3679
LJ           1.29229        -2.13705        -1.66802
LJ          0.879056         3.00745        0.825856
LJ          0.193701         2.22255        -2.81414
LJ          -6.01024      -0.0243848      -0.0440117
LJ         -0.499874        -2.12198        -1.06455
LJ          -2.52249       -0.759361         6.24673
LJ          -4.18649         1.17077         1.91228
LJ           1.28411         6.06962         1.68041
LJ           -2.7633        -5.48603          2.6795
LJ          -5.54943         3.10142         4.63922
LJ          -1.00201        -0.37175         3.15626
