108
#Comment!
LJ           4.71462         -2.6484        -1.67617
LJ          -5.24616        -5.20295         2.67927
LJ          -1.62154      -0.0903899        -3.56954
LJ         -0.530645        -4.63075        -2.49607
LJ          -5.35671        -5.40951        -2.66073
LJ          -5.93998          5.5032        -5.20277
LJ          -1.32388        -2.96969         2.62922
LJ          -4.97219         5.18008        -6.21172
LJ           4.97875         1.09885        -1.73284
LJ           5.17468         2.36244           5.738
LJ           2.34515         6.44953         1.75907
LJ         -0.541598         4.43972        -5.86355
LJ           0.32997         2.28881        -0.52802
LJ          -4.60411        -3.76854         1.50216
LJ           6.17611         2.55167         -6.3813
LJ          0.417216        -4.31913         2.97639
LJ           2.32523         -3.7824        -1.03239
LJ          -2.12342        -4.09183        -4.20314
LJ          -5.80047        -5.92421         4.94237
LJ          -2.58247        0.424002         2.63296
LJ           5.80022        -5.09914         1.91502
LJ          -1.54317        -4.97514          3.2501
LJ           3.70709      -0.0615762         1.18641
LJ          -4.49421       -0.155656         3.88155
LJ           2.26738       -0.410514        -1.49258
LJ           3.24929        -4.29475        -6.35412
LJ           3.84669        0.961472        -1.61117
LJ           4.65313         1.60925         3.19839
LJ           2.32161         6.33914         4.94186
LJ          -3.93754        0.471495        -4.45063
LJ           -4.9315         3.11388        -4.08585
LJ          -1.74987        0.724132          4.6826
LJ          -6.39236        -4.43009         3.62052
LJ          -5.74048         4.02249        0.366044
LJ           5.79627         4.97066          3.7196
LJ           2.76115         4.56052        -4.52741
LJ         -0.822946        -1.22712        -6.20585
LJ            2.7686         6.20453         3.65076
LJ           5.48185       -0.858649       -0.578098
LJ          -1.27235        -6.33908         5.02596
LJ           4.20074         1.68779         5.62147
LJ         -0.356612        -4.81715         5.74782
LJ          0.171704         -6.3716        -5.78237
LJ           4.68776        -4.44546        0.667506
LJ           3.12154        -2.35964        -5.44837
LJ           4.21578        -3.40358        -5.24172
LJ          -5.88568         4.02194         2.84133
LJ           6.29477         4.91671         5.95621
LJ           1.66882        -0.40969        -4.09967
LJ          -4.19209         -5.5061         2.64025
LJ          -3.56196         4.85745        -5.63203
LJ          -1.15151          5.2883         1.34918
LJ           4.09556         4.48154         2.51239
LJ          -4.61232         3.91537        0.134012
LJ           4.22614        -5.74442         1.45334
LJ         -0.834249         3.34487        -2.92385
LJ          0.116044         -1.1674         5.62625
LJ          -4.26414         3.13669       -0.587425
LJ          -2.08043        -6.07821        -6.41539
LJ           5.13838         4.35108        -3.66175
LJ           1.28744         5.47137         2.28721
LJ          -2.64691         4.89861        -1.18401
LJ         -0.340943        -0.88936         2.95361
LJ           5.59798       0.0671628        0.203865
LJ           0.80763        -1.43687        -1.82012
LJ          -5.19556         1.12466         4.86517
LJ          0.777236        0.461675        -3.09471
LJ           1.23097        -4.74882         1.84138
LJ          -4.58189         1.53364         6.32218
LJ          -5.02187         3.03498         -1.3729
LJ          0.551539         4.37516        -4.94385
LJ          -4.23243        -1.38192        -5.21566
LJ          -5.89588         6.32576        -5.75176
LJ           -5.0629        -5.05839         4.75924
LJ           4.90646         3.23327        -2.05537
LJ          -6.26554         1.49912        -1.34258
LJ          -6.04416       -0.277134        -2.56012
LJ           5.48787         1.02244         4.33338
LJ           6.16309        -1.32265        -3.80588
LJ          -4.60993         5.05908         5.57713
LJ           3.56217         2.05091        -3.94928
LJ          -1.49398          3.4788       -0.761266
LJ          -4.71653        -1.01833         1.81512
LJ          -5.99342         5.34062          4.7479
LJ          -4.14913         2.21275        -5.10498
LJ          -5.70062         2.77763        0.919224
LJ         -0.373654         1.17575         4.70343
LJ           1.15094         3.28179         5.81367
LJ           3.41565        0.390942        -4.08436
LJ          -3.99614       -0.426515         4.93228
LJ           5.19633         5.09607         1.56153
LJ          -1.67032         2.48382       -0.222693
LJ          -6.00525         6.34706        -2.93285
LJ           2.63615        -2.11023        -2.34929
LJ          -3.04033        -5.18724         -3.4109
LJ         -0.639778         6.32676         2.48668
LJ          -2.31554         3.71988         4.10832
LJ           -2.4591        -5.13991        -6.36557
LJ           1.28126        -3.61145         1.86327
LJ          -6.23852         5.67159         3.28232
LJ           -4.8787        0.201781         1.54606
LJ           4.28725        -2.92922         -4.0306
LJ           2.89209        -5.39868         1.30961
LJ          -4.25585         3.11369        -5.71924
LJ           1.74246        -5.65618         2.16522
LJ           4.64604         3.11699         0.84569
LJ           1.01251         4.27181         4.03734
LJ          -1.22709        0.742012         2.72252
