108
#Comment!
LJ          -3.12836          3.4105        -6.44495
LJ           4.66776         5.17478        -4.35344
LJ         -0.222166         4.80645        -6.33855
LJ          -5.19227        0.550114         4.58991
LJ           3.74807        -1.58801       -0.817076
LJ          -6.04031         3.03947        -3.09645
LJ          -0.75624          2.6304       -0.184076
LJ          -5.66643        -4.08535        -2.18504
LJ          -5.93945        -4.00851         3.73126
LJ         -0.608485         4.84569        -3.74208
LJ           4.90758       -0.189791         6.08287
LJ            -4.962         1.93298       -0.388906
LJ           1.81074         4.44493        -4.09695
LJ         -0.231904         1.69096         5.23341
LJ          0.709948         4.29351        -2.29988
LJ            -5.111        -6.33349        -4.16032
LJ           5.32622         5.45185        -3.06741
LJ           -1.5709        -4.35538        -4.66673
LJ          -5.48792        -4.02926         2.87999
LJ            -4.282         0.28375         1.50404
LJ           4.43019         5.77968         2.15365
LJ           4.53519        -1.13679         5.76201
LJ          0.686316         4.35445         1.80332
LJ          -1.84961        -3.23992       -0.783422
LJ          -4.41742         3.04903        -4.01112
LJ         -0.319661         1.57322         2.17649
LJ           3.34427        -1.25746        -4.75991
LJ          0.878546         2.64395         3.76084
LJ           2.45762        -4.53613         5.89362
LJ          0.214042        -2.10839         3.96642
LJ           2.25033        -5.10149        0.648847
LJ          -3.89444         5.83665         2.92309
LJ            5.8822        -3.62421        -1.58681
LJ           4.99077        0.386725        -2.12043
LJ          0.735978        -4.78375         4.54631
LJ          -4.91318         4.00358        -4.24918
LJ          0.976942         5.27183        -1.60622
LJ           5.24778        -5.09126        -4.84677
LJ          0.167104         4.72031        -1.10013
LJ          -5.72336        0.870017       -0.195244
LJ           3.19182         -1.8268         4.19299
LJ           5.13519        -2.50328        -6.14506
LJ           5.60585        -2.28899         -2.5172
LJ           4.07646        -0.44633          4.4537
LJ           2.56706         1.58977         3.32983
LJ         -0.800177        -3.47729         6.02224
LJ          -2.97963        -4.85253        -2.20128
LJ            6.0781         -2.2387         6.29082
LJ           5.81618         5.16079        -3.87886
LJ          -5.57733         -3.3788        -6.09083
LJ          0.312307        0.346348        -6.27096
LJ         -0.680867        -1.86209        0.140237
LJ          -0.99629         2.48571         1.08294
LJ          -2.91049         2.12743         1.73961
LJ          -1.02309        -5.04418         2.90992
LJ          -2.50575        -1.33738        -5.67881
LJ           3.94772       -0.805469        -6.01944
LJ         -0.734425         2.04742         2.98341
LJ          -4.28388        -5.44466        -3.06789
LJ           -3.1032        -1.04361          5.4723
LJ            2.1525        -4.46828        -3.49883
LJ           4.03392         2.10031        -2.05584
LJ           2.31007          5.9325       -0.562095
LJ          0.389353         1.48615        -6.38849
LJ           1.05023        -5.44456        0.694849
LJ          -4.93483        -5.20307         -4.6625
LJ          -1.17903        -2.25893         2.71969
LJ          -2.61657         1.80996         4.78896
LJ          -3.53849         4.90274        -0.36151
LJ          -6.16582        -6.27391        -5.48761
LJ          0.417954         3.65844         4.33609
LJ         -0.386177        0.167751         3.32011
LJ        -0.0178769        -2.55232        0.854842
LJ          -4.84638        -1.42584         2.25786
LJ          0.262896        -1.14552         5.15579
LJ           3.05591         5.19017         4.38925
LJ          -5.55883        -5.00719        -3.86353
LJ          -6.29805         4.48858        -4.97355
LJ          -1.70962         3.38671         1.68661
LJ           1.35185         1.53551         4.34731
LJ           3.92697       0.0884592         5.98704
LJ            3.0476        -3.63757          -2.867
LJ           2.95604         2.29629         5.35416
LJ          -5.47763         5.60374         -3.4895
LJ           2.99017        -2.96727        -1.56389
LJ            3.5883         2.43297        -5.51209
LJ          -4.20909        -5.62572         3.41811
LJ          0.181185         5.68652        -2.41019
LJ          0.342973        -4.72727       -0.163038
LJ          -1.93069        0.554018        -1.21123
LJ           6.16163         5.00291         6.45098
LJ            2.0027        -4.30577         1.34219
LJ          -1.60277        -3.89789          5.4244
LJ          -5.00919       -0.515174         4.73318
LJ           -3.6335        -1.68436        -5.35085
LJ           3.58619        -3.56389        -4.68061
LJ          0.791042         2.01648        -3.07876
LJ           1.76875       -0.452205         5.78348
LJ           1.42026         1.86226         1.07903
LJ          -3.41355        -6.28032         2.51545
LJ          0.910506        -1.92357        -3.22062
LJ          -2.14846         4.28692        -3.98118
LJ         0.0822606        -1.07079        -6.20613
LJ           4.04089        -6.10953         1.17595
LJ           4.88486         5.45151       -0.706801
LJ           4.42225         -3.6629        -3.98039
LJ           4.40209        -5.46636        0.112459
LJ           2.87838        -1.86853        -5.62291
