108
#Comment!
LJ           1.38453         1.19893         5.74949
LJ          -2.57783        -3.28586           4.515
LJ          0.261437       -0.739282         4.29473
LJ          -3.83284         5.92568        -6.03022
LJ           5.80219        -5.63049        -5.95435
LJ          -2.67689       -0.356328         4.14435
LJ         -0.050197           6.453         1.50538
LJ           3.95133        0.355973        -5.21115
LJ          0.643578         3.27148         1.14125
LJ           5.79374         1.10398        -1.04524
LJ          -1.80349         3.70289       -0.263281
LJ         0.0211662        0.614858            1.81
LJ           5.37363        -4.20184         2.15481
LJ           3.12962         3.89263         1.15269
LJ          -3.09826        -1.92163         4.53246
LJ          -4.01373       0.0170679         4.13153
LJ          -4.60923       -0.417852         1.02362
LJ          -2.55935        0.637961        -5.40378
LJ          -1.33245         4.75923        -6.17444
LJ           -5.1011        -4.24931        -5.91845
LJ           -1.3529         4.48262        -5.04471
LJ           4.88361        0.209604        0.467834
LJ           -1.9872         1.08411         3.80086
LJ           3.97541        -1.12081         2.59312
LJ         0.0358461        -5.39312         3.07321
LJ          0.297087        -4.06438         5.19983
LJ           6.25904        -2.78478         -5.0381
LJ          -1.73728         2.86929        0.838009
LJ          -1.77388        -3.42991         2.21142
LJ           6.16717         5.96119        -6.39835
LJ           5.87896         3.84748         2.69737
LJ          -3.05159        -3.08466         2.57989
LJ          -4.11792        -2.14328       0.0205156
LJ           6.25704         3.02368         5.76389
LJ           1.48156         5.64215         1.56301
LJ           6.28151        -1.40096        -3.51214
LJ          0.737251        -1.35714         1.35714
LJ          -2.68396        0.880279         1.96135
LJ           3.41324         1.70537        0.572711
LJ           3.22047        -5.33606        -1.28974
LJ           2.28012        -2.29171        -1.33697
LJ            6.3362        -2.11135        -5.79252
LJ           1.98968        -5.82941         3.59518
LJ         -0.482814         1.76445         3.24282
LJ           1.98175        0.345599         5.69377
LJ            2.5584          1.1498        0.187488
LJ           5.09278        -6.41263        -6.33333
LJ           2.68386         2.87782        -1.16337
LJ          0.353813        -2.02556         5.40425
LJ           4.84156         2.91962         3.14471
LJ          -1.00481         6.02735        0.489443
LJ           4.03309          3.8826        -5.00783
LJ          -5.48222         1.49615         2.96814
LJ          0.409327        -1.46785         -3.1475
LJ         -0.927416        -5.40934        -2.00208
LJ          -4.45903        -5.55314       -0.402649
LJ            4.6201        -1.25797        -4.55293
LJ          -4.81036         2.15616         5.41128
LJ           4.26972        -2.21366         3.44861
LJ            0.3168         5.63056         -1.6344
LJ           2.55233        -2.71793         4.66413
LJ          -4.89436        0.581772        -4.91517
LJ           2.64748         6.03258         3.28506
LJ         -0.748668        0.162596        -6.13013
LJ           3.83701         1.37597        -1.42179
LJ          -3.26474        -5.59157         4.53177
LJ          -3.94232        0.712062         -4.7194
LJ          -1.18271        -6.32237         4.84251
LJ           6.34953        -1.70843         6.06189
LJ          -1.56726         4.86238          2.3187
LJ          -2.81203        -4.30431         1.33274
LJ         -0.358065         1.51034         1.29367
LJ         -0.369663         5.57669        -3.87478
LJ         -0.883075        -5.26766         5.52206
LJ           5.16208         3.54767         6.44781
LJ           3.81374        -2.96825        -4.27133
LJ           5.93973       -0.538009         -6.3286
LJ           3.17012         3.61966       -0.299031
LJ          -4.90992        -1.16229        -3.71105
LJ           4.22141         4.88791         5.81928
LJ           1.43102         4.60677         6.23365
LJ           5.61696          5.3444        -2.81264
LJ           5.39687        -6.45331         4.90532
LJ           5.86147         5.03653         2.34791
LJ           3.70758         4.13475        -6.13768
LJ           5.69233        0.733916         1.38204
LJ          -4.06513         2.41813         2.04048
LJ           1.37956        -5.82586         2.90767
LJ         -0.688583        -1.70605        -5.00702
LJ          -5.17835        0.198707         3.19294
LJ           -4.2507        -1.93721        -2.81896
LJ          0.655725         2.07202       -0.518285
LJ         -0.316971        -3.98507         1.89146
LJ          -2.93215         1.78678        -5.42376
LJ           5.11744        -3.02575         1.29935
LJ          -5.24294        -1.62159       -0.657794
LJ          -2.49654       -0.461024         1.02242
LJ          -2.90351         4.33809         -2.6541
LJ           2.64685         1.42176        -3.96341
LJ          -3.18254        -5.52108         6.02653
LJ          0.758054        -4.98159         4.71127
LJ          -3.85732        -5.19416        -5.38432
LJ          0.178882         1.80523         6.35377
LJ         -0.587709         -2.0257        -1.95611
LJ          -2.75305        -1.54815        0.366826
LJ          -4.55576        0.507619       -0.976454
LJ          -5.46006         2.51274        -1.32514
LJ          -1.79458         2.12276         6.42061
