108
#Comment!
LJ           6.06381         2.54944        -1.91871
LJ          -3.54484        0.528098        -1.60931
LJ          -2.31408        -5.40569        -5.20746
LJ           1.85623         5.51855        0.427866
LJ           1.70907        -4.13848       -0.674759
LJ           -2.4938        0.909032        -1.03908
LJ         -0.352578         1.26895        0.893461
LJ           5.63262        0.382055        -2.49079
LJ           5.18783         4.68786         2.95509
LJ           6.46248        0.902042         1.85628
LJ           4.99428         2.29803        -4.75521
LJ          0.524773          2.5061        -2.31173
LJ           5.55897        -1.19799       -0.885031
LJ          -3.60435        -5.89657           2.939
LJ            4.1543        -1.17029        -4.30703
LJ           -2.3671         6.10986         3.81812
LJ            2.3005         3.51139         5.20933
LJ           4.88108        0.378059        -1.75749
LJ         -0.855977        0.530627        0.176021
LJ          -1.73148         2.00763        -1.20108
LJ           5.31735        -5.47755         4.38097
LJ           -4.2905        -3.69486         1.16459
LJ         -0.895892         6.36853        -4.54114
LJ         -0.812777        -6.28276          1.2802
LJ          -3.29057         3.86952         5.23918
LJ           -1.4301       -0.712875         4.64103
LJ           4.82801        -3.43867        -2.05342
LJ           3.05685         6.04889        0.810235
LJ           3.47937        -1.32381         2.05747
LJ           -2.4855       -0.190652        -2.05451
LJ           6.41894          -4.492         -1.7198
LJ          -5.87163        -2.20746         1.11802
LJ          -1.51822        -1.79293         1.37932
LJ           2.63513       -0.851687        -1.40377
LJ          -2.06104         1.86931          5.4833
LJ           1.47252       -0.742988          2.2902
LJ          -1.05209         3.90675         5.54197
LJ          -1.87508         3.02177       0.0555332
LJ           1.84951        -2.65667       0.0575529
LJ          -1.63669         5.74392        -4.24497
LJ          0.212625         5.37148         5.13252
LJ           5.77154        -4.42425       -0.145413
LJ          -5.37097        -1.92654         5.87181
LJ           6.41351         3.08296         5.17506
LJ           2.28135        -2.39171       -0.765887
LJ          -1.40018         4.32491         1.10468
LJ           3.81138         5.22202       0.0501909
LJ          -2.13052        -1.34048        -6.29147
LJ          -4.85235          -2.536         -6.2909
LJ           -3.0719        -3.95551        -3.79149
LJ          -4.93229        0.846679        -4.39229
LJ          -4.41883        -4.17748         3.30484
LJ          -0.35712        -4.47874         1.14827
LJ          -2.79761        0.483585        -2.75277
LJ           1.64345        -1.54634        -3.88981
LJ          -1.51595        -2.73633        -6.10164
LJ           3.06157        -4.00199         2.91797
LJ           6.45623         1.20209        -3.61418
LJ            2.8495       -0.426083      -0.0686217
LJ          -3.72343         6.07131        -2.99106
LJ          -2.79181        -1.52361          4.7627
LJ          -3.41797        0.944714         5.05098
LJ          -5.46683         -1.7844        -5.29533
LJ           3.26796         5.58682         4.48845
LJ           2.86448         2.97194         3.93069
LJ          -1.19063        -1.44519        -5.83634
LJ          -6.30468         -2.3858        -1.03884
LJ            4.2869       0.0546378         2.99963
LJ          -6.28355        -4.85291        0.933072
LJ           5.47834         1.50144         6.25263
LJ         -0.927477         -5.4177       -0.640997
LJ           -1.4373        -0.35305         2.15171
LJ           3.60744       -0.320788         2.37514
LJ          -5.18873        -6.15114        -2.56872
LJ           4.94865         4.12052         6.10922
LJ           3.02923       -0.826858        -2.59655
LJ          -1.64533        -2.25534         5.05003
LJ          -6.22527       -0.959027         4.51472
LJ            -6.044        -6.04683        -5.22054
LJ          -2.42089        -4.55491         1.09568
LJ           4.80815        0.290766        0.161287
LJ          -1.82798        -3.08573         4.05617
LJ            4.1202         5.72464         6.13133
LJ           4.99516        -6.08759        -1.48591
LJ           2.45835         6.23511          6.1903
LJ           1.62433        -3.22104         3.74612
LJ          -3.03098       -0.312152        -6.11952
LJ            6.1731        -1.80197        -5.00674
LJ           3.60233       -0.674471         5.23498
LJ           3.64653        -3.59618         4.12175
LJ           4.65404        -2.76717         4.95622
LJ           1.70536        -2.07161         5.21789
LJ           2.02533         1.62615         1.89438
LJ           6.14608        0.601285         -1.6392
LJ         -0.753424        -3.43514         3.63977
LJ           1.17075         1.52017         3.51227
LJ          -1.99755        -5.64861         2.71601
LJ          -3.34717        -6.12905        -5.43996
LJ          -6.36943        -2.50582         -3.1511
LJ         0.0755403        -4.61552        -3.75446
LJ          -1.02173         3.75839        -4.31355
LJ          -3.28077         1.53545         2.29932
LJ           5.94324        -6.25831        -4.12643
LJ           4.20433        -2.76695        -2.24041
LJ          -0.60656        -3.05356        -1.58531
LJ          -2.09234        -5.41771         4.35571
LJ          -1.30429        -1.61741        -3.49214
LJ          -6.39364         2.88905        -4.52468
