108
#Comment!
LJ           1.13323           5.311        -3.66861
LJ          -1.43082        -2.70599         2.46929
LJ          -5.89876         -2.0595          5.3619
LJ           2.13141        -5.41261        -3.30243
LJ          -5.86158       -0.535644        0.869427
LJ            5.8491         5.38331       -0.531622
LJ           4.52919        -5.47494        -5.08865
LJ          -2.29948        -6.31319         4.74392
LJ          -3.41642        -3.08369        -6.14374
LJ          -2.87834        -5.83289         3.80186
LJ          -5.49675         5.61133        -2.49237
LJ          -1.72628        -1.82625         4.50144
LJ            5.3054        -5.40416        -1.14548
LJ         -0.830847         2.08237         1.33034
LJ           2.06362       0.0769857        0.317904
LJ           3.82908        -2.09826         5.81618
LJ           2.25605        -2.64178         1.76722
LJ         -0.520796        -2.40567        -6.10132
LJ         0.0773126         6.39184        -1.90107
LJ           6.11777        -5.56979         1.43515
LJ         -0.991882        -4.03913        -0.22158
LJ           -2.3345         1.53276        -1.21015
LJ           6.44389         1.88366         1.30469
LJ           4.30973        -5.94469        0.782082
LJ           4.85466          4.2791        0.375317
LJ           4.44068        -5.33601         1.88034
LJ          -1.98932        -6.37203        -1.09613
LJ           2.45076        -3.31061        0.508585
LJ          -4.16467         3.76337        -5.85273
LJ           3.62124        -5.42886         3.58528
LJ          -4.08083         6.40555         1.31818
LJ           5.72786        -4.90786         5.90749
LJ           5.79072         4.98957         1.13867
LJ           1.37957        -1.89596         2.28753
LJ              4.63       0.0746498       -0.210194
LJ          -2.67824         3.93909         6.06092
LJ          -2.61547         3.76995        -2.20224
LJ           1.17356        -1.02961        0.691863
LJ          -1.32144         1.53689        -2.14694
LJ          -5.07181        -6.29183         3.72238
LJ          -1.18098         -4.8076        -1.97108
LJ          -2.16172         1.38679        0.946094
LJ           4.90846         4.59286        -4.54266
LJ          -6.04591         2.39425         4.50276
LJ         -0.685678         4.34839         5.09775
LJ          -1.55116       -0.357192         1.59317
LJ          -3.68435        0.483387        -4.49141
LJ           2.35372        -2.35219        -1.94755
LJ           4.77478         -2.9251       -0.650394
LJ           2.88123        0.607899        -3.92343
LJ           3.91485        0.190461        -3.95593
LJ           5.14675         1.68579        -4.57128
LJ          -3.78454         -4.1533          1.1203
LJ           2.86486      -0.0771437        -1.14946
LJ           4.72279       -0.707734         4.31676
LJ           2.20449         1.36075          5.7965
LJ         -0.114295        -2.73835         1.21452
LJ          0.566278        -2.31484        -6.15003
LJ           1.92447         1.52603       -0.859303
LJ           3.57835        -1.67099        -3.07287
LJ            6.0737         6.13451        -2.15661
LJ           2.25566        -1.31417        0.755867
LJ          -1.15548        0.526154        -4.48619
LJ          0.394558        -5.95628         2.99766
LJ          -2.90283        -3.10174         0.24673
LJ           3.89027        -1.72169         4.11357
LJ          -5.18831        -6.24144         6.30786
LJ           1.05624        -3.58883        -5.11063
LJ          -5.26718         6.14803         4.75308
LJ         -0.493153         3.00169        -5.25451
LJ          -3.37821         4.17052        0.994828
LJ          -1.97494        -4.50255         4.26364
LJ          -0.30898         2.15693        -2.00997
LJ           -3.7496         1.47648        -3.93495
LJ          -3.11093         3.55251       0.0609021
LJ          -6.06164        -4.32652        0.729147
LJ         -0.420555         3.12027       -0.486305
LJ          -3.21454        -5.24077        -4.26377
LJ            2.6097        -3.44741        -1.94755
LJ         -0.596637        -4.65786         5.61979
LJ           4.04018         2.65733        -4.83009
LJ           4.16013        -1.74283       -0.549522
LJ          -1.37088        -1.63543         1.85575
LJ          -4.41916        -2.59175         5.95348
LJ          -1.29963         4.50395         1.01422
LJ           -6.3081         3.67795         3.28248
LJ          -5.58322         4.79464         6.23071
LJ          -6.04196         5.29224        0.185842
LJ           2.95231        -2.44303       -0.654259
LJ           -5.5156         1.76025         5.71767
LJ           1.98756         3.44399        -3.92413
LJ          -4.86469         3.79761        -2.33527
LJ           1.22214         5.03404         4.41193
LJ            2.7387         3.97905         6.35718
LJ          0.954796        0.892362         2.23885
LJ          0.509103         4.36247         1.58681
LJ          -5.57959         -4.2186        -2.21415
LJ          -2.68322        -1.80186        -4.69513
LJ         -0.590517         5.54576         2.88896
LJ           -2.4547        -5.98667        0.957221
LJ           1.29041         2.23323         2.12139
LJ           4.48214         5.40771        0.376678
LJ           1.95329        -1.76618         4.49564
LJ           4.29378         1.46411        -3.64455
LJ           5.23458        -5.24006         1.11528
LJ          -6.28129         6.41162         0.42458
LJ           -5.5551         1.44699        -4.50881
LJ           -3.6237        -5.48808         1.97076
