108
#Comment!
LJ           2.19448         -2.4082         1.57187
LJ          -5.17935         6.10741         2.32478
LJ           4.98673        -4.74929        -4.49426
LJ           5.98895       -0.319738         3.77253
LJ           3.43332        -1.84094         3.33012
LJ           2.01935        -5.15592        0.908457
LJ          -6.20604        -3.19326        -1.58928
LJ          -2.15627         1.31615        -4.60149
LJ         -0.986325        -4.12599        -3.41995
LJ           6.07467        -2.13785         4.30778
LJ          -2.66065         4.35724        -5.47327
LJ          -1.70989        -6.26821        -1.86129
LJ          0.901484       -0.761369         2.24889
LJ           4.06509        -4.30931         3.38687
LJ           2.02702         1.71039         -2.6567
LJ          -4.01287         4.44517         4.08682
LJ           4.11928        -5.59488     -0.00323982
LJ          0.175198         4.86071        -1.40396
LJ           5.93993        0.282229        0.968667
LJ           3.69492         4.30603         -1.2326
LJ          -4.10137       -0.150174         4.47593
LJ        -0.0129544          3.4759       0.0700586
LJ          -1.45734         5.04958         4.64252
LJ           3.21053         -6.0619        -4.63626
LJ          -1.90192        -5.23062        -2.46043
LJ          -4.42889        -6.35582        -4.63217
LJ           4.39929         5.43936         3.75918
LJ           5.88681         2.31203        -4.72069
LJ           1.13866        -4.18978        0.403848
LJ           3.15689         5.25546         2.49499
LJ          0.781728        -3.55231         1.15691
LJ           4.62711         3.92794       -0.196821
LJ          -6.13237       -0.404681        -4.37245
LJ           3.26917         4.12519        -4.47514
LJ           -5.0702        -4.74591        -1.63185
LJ          0.144242         3.74708         2.06201
LJ           5.61513         4.67163         1.68281
LJ          0.408878        -1.55452        0.734399
LJ           4.24847         6.43763          3.5401
LJ           3.42341        -6.23977        0.696837
LJ           3.42478         2.43514        -5.17486
LJ           0.81444        -3.29617        -3.99389
LJ          -1.96712         4.06634        -4.57324
LJ          -4.44282         4.94952        -2.12393
LJ         -0.928058        -5.29023         2.36024
LJ          -5.01199         1.15879         3.52927
LJ           -3.0802        -1.78577         4.60467
LJ           3.39516         -5.2644        -1.94627
LJ           1.86885        0.335381          5.7053
LJ           2.74893        -4.38534        0.808405
LJ           6.35121        -2.58637         5.73336
LJ          0.273221        -2.69319         3.21816
LJ           4.98371        -6.07628        -1.97149
LJ           6.26632         5.92588          3.8215
LJ          -5.91818        -5.22996         2.69271
LJ          -1.87795         2.37013        -1.23531
LJ           5.16116        0.256078         -6.1464
LJ           6.33484         6.06225         4.93121
LJ          0.587939         -3.1569      -0.0274217
LJ           5.20276        -6.02098        -3.19128
LJ          -6.39415         -3.0498        -5.02905
LJ          0.271122         5.52318        0.831426
LJ           2.93396        -6.34838        -2.32787
LJ          -2.95519        -4.17539       -0.114545
LJ            6.0064        -4.77956         1.56154
LJ            5.7583         4.32339           4.268
LJ           5.36147        -5.03947        -3.49148
LJ           3.42638         1.50049         -2.2179
LJ           3.17838         5.00651        -5.66245
LJ         -0.069336        0.737024        0.941075
LJ          -5.42098         5.10387        0.803687
LJ           4.55353        -4.45984        -1.40501
LJ           1.71965         2.41687         5.36734
LJ          -4.60156         -5.3358        -6.41344
LJ          -4.54048        -5.95329        -2.85145
LJ          0.127202        -6.22024        -3.80523
LJ           -1.4757        -3.75734       -0.312583
LJ         -0.716664         3.05342         3.19215
LJ          -5.79655        0.664619         6.05684
LJ           -6.1214          1.0066        0.688163
LJ           -5.6045         5.86602        -6.45456
LJ          -5.73556        -2.02733        0.207868
LJ          -4.00125        -6.42902         2.92521
LJ        -0.0269721         3.58258        -5.40986
LJ          0.698386         5.37737         4.67109
LJ           4.24302           4.223        -5.25243
LJ          -6.20051        -2.57862         1.87931
LJ           -5.7503        -4.72084         5.44196
LJ            4.9313        -3.86853        -2.09245
LJ           4.27572         2.59532        -3.84719
LJ          -5.01045       -0.378319          5.1967
LJ           5.02752         6.15913        0.725692
LJ          -2.96382        -2.02179       -0.865883
LJ          -2.70294         5.19395         4.21407
LJ           1.93929         5.70259        0.286927
LJ          -3.08694         2.75426         0.84132
LJ         -0.180658        -2.96932         2.13707
LJ          -4.69054         4.99779         2.37714
LJ          -5.24305        -3.33599        -5.49324
LJ         -0.762165         2.22036         -4.0133
LJ          -2.64361         -4.6306        -3.29128
LJ          -5.72162          4.7162         3.83941
LJ          -3.65211        -3.26437         5.18511
LJ           4.42554        -4.70752         1.18496
LJ           4.76745        -3.97523        -5.67193
LJ           2.00994         6.42403        -5.93328
LJ           3.91892        -4.72159         -5.4578
LJ          -2.83918         2.39591         5.97153
