108
#Comment!
LJ         -0.735433       -0.776829        -5.28246
LJ          -3.96466         -5.5864        -1.59072
LJ           1.22562        -5.77167         2.42259
LJ           3.37478         2.64495         4.87029
LJ           5.93369          5.4975         5.92698
LJ          -3.18797         2.01981        -1.04682
LJ         -0.591055         -5.6437       -0.345556
LJ           3.78096       -0.896375          -4.547
LJ           -3.6049        -2.94966          4.5024
LJ           1.54617        0.331822        -5.52362
LJ          -2.56067        -2.08236         4.70712
LJ          0.742335         1.24212        -2.52989
LJ           1.10569       -0.895571         4.90575
LJ           1.70716        -1.14541        -5.04326
LJ          0.446901         1.19765        -5.87895
LJ           1.81366        -4.04261        -4.38041
LJ          -4.94148         5.90791         4.02748
LJ          -2.86428        -2.60774        -3.66987
LJ          -6.00064         1.87492        -1.30785
LJ          -5.70087         4.53291        -4.00834
LJ           5.44496        -3.69752           3.511
LJ           -3.5941         6.14877        0.929626
LJ          -4.39252         2.69308        -4.88777
LJ           5.11349         4.53821        0.679771
LJ          -2.21897         1.15357         -2.3552
LJ          -1.34813         1.36332        -4.68378
LJ           5.84395         3.30899       -0.670538
LJ          -4.67991         1.78687          3.9323
LJ          -1.35499         1.69472         3.66822
LJ           4.37232        -2.64008         4.96785
LJ          -5.19856         5.41236        -4.51159
LJ          -2.18954         4.51874         1.56609
LJ          -3.69479         4.91216         1.55731
LJ           2.63992       -0.512034         2.98726
LJ           2.99694         5.75145        -1.65847
LJ          -2.11622       -0.157843       -0.286566
LJ           3.10755        -2.76669         5.77339
LJ          -4.38041         4.73671         3.01391
LJ          -2.51017         1.21597        -4.24768
LJ          -4.16228         5.30714       -0.126965
LJ           5.44135         4.75046        -3.68608
LJ          -3.85708        -0.22995         4.78758
LJ           6.31909         5.57107        -4.28684
LJ          -3.45771        -5.46026         2.54769
LJ          -2.92477          2.4753         6.03925
LJ         -0.588424        -5.68905        -6.38752
LJ          -2.48404        -4.30402        -3.34605
LJ          0.319312       -0.327185        -5.48178
LJ           2.92743        -6.14726        -1.52877
LJ          -3.68796        0.983829        0.303323
LJ         -0.679588         1.04061        0.739315
LJ          -6.19084          6.2688        -5.28462
LJ           3.84658            5.93         3.64606
LJ          -5.16199         2.43257        -3.35648
LJ          -1.85447        -3.15055         3.12233
LJ           1.80926        -4.92295         4.13114
LJ            1.4825         4.60753        -4.80088
LJ          -2.57148        -5.61233        -2.32745
LJ          -3.50919         -6.3989       -0.536962
LJ          -1.94515         3.02444         1.38541
LJ          -5.85515         -5.7506         1.12085
LJ          -2.99025        0.341448        -2.42754
LJ          0.816641         -4.1762         -5.8653
LJ          -1.55344        0.831066        -3.87875
LJ          -5.34586        -5.49206        -1.45231
LJ          -6.33719        -4.22653        -1.32576
LJ          -6.26458         -2.6507        -6.26398
LJ          -4.82975        -6.23657        0.518487
LJ          -3.73543        -6.24773        -4.09663
LJ          -2.39294        -6.39417        -5.80586
LJ          -1.96956         2.24447        -4.52578
LJ         -0.524167         5.85091         1.81624
LJ           5.36452         3.43844         1.83472
LJ          -4.67674         3.05799        -6.28556
LJ          -6.11989        -3.99026         1.42032
LJ           6.43826        -1.58345          2.5887
LJ           4.34574        -4.27305         2.28125
LJ          -5.55057        -4.67976        0.492401
LJ          -1.52043        0.618082         3.67371
LJ          -1.20325         3.31733          2.4586
LJ           4.47447          4.3823      -0.0958678
LJ         -0.764958       -0.880971        -3.70632
LJ          -4.87966        -6.20552         2.50251
LJ          -5.20528        -3.35286       0.0643669
LJ           3.13457         5.18732         0.21993
LJ          0.637149         1.00061         4.94368
LJ           5.28633         5.17309         2.40922
LJ           -2.5394        -2.36519         3.34984
LJ          -3.28813         5.97178        -6.11138
LJ           5.78673        -4.62938        -0.26043
LJ          -2.93991        -3.67556         5.92325
LJ          -4.40989         5.44401         2.16699
LJ            4.1048         3.17231        0.200721
LJ          -2.36629        -3.98912        0.976264
LJ           4.90586        -2.95151       -0.834173
LJ          -1.50616        -5.52343        -1.63594
LJ          -1.01116        -4.76171          5.7605
LJ           -2.4972        -5.36682         2.61451
LJ           5.37343       -0.477969        -6.01211
LJ           1.25444        -2.54774        0.347233
LJ          -0.84697        0.447778          5.5592
LJ           2.57348        -2.30493         4.14454
LJ           1.65472        -6.03149        -1.36423
LJ           3.33538        -4.11188         2.74741
LJ          -1.10351        -5.30678        -4.91002
LJ          -2.09807        -4.58435         3.26298
LJ         -0.096993         2.51926       -0.179295
LJ            5.9829         -2.3123        0.103523
