108
#Comment!
LJ          -2.42886        -4.40393        -5.50599
LJ          -5.58299         0.73783         2.60291
LJ           2.90746       -0.929263         5.97877
LJ          -2.34232        -4.97527        -3.25249
LJ           1.87482        -4.71778        -1.14904
LJ           5.88798       -0.833372         2.74614
LJ           5.58699        0.435101       -0.211858
LJ         -0.808185       -0.497515          4.6774
LJ           2.74144         5.82331        -5.60876
LJ           3.81295         1.36002         5.11199
LJ           3.10042         3.17185        -2.54142
LJ           5.86523         2.76056         2.64006
LJ           6.09565         6.12967        -4.07909
LJ           4.56597       -0.493237          1.9607
LJ          -2.64692       -0.614989        -1.55015
LJ           -5.3504        0.123566        -2.55445
LJ          0.834255         -1.1046         -3.9286
LJ          -2.78934        -3.29381         4.94989
LJ           2.19035         5.82066         1.31818
LJ           6.46127        -6.22851         5.24713
LJ           4.98434         3.93199         5.23384
LJ          -5.83725        -3.12892         4.65767
LJ          -4.54812         3.63837        -1.75378
LJ           3.93491         2.57905         1.40443
LJ          -2.38985         5.54872         1.18777
LJ           2.81864         -2.6386        -4.74582
LJ           6.38503         2.05853            6.01
LJ           2.74185        -3.59893        -2.16577
LJ          -2.10037        -4.90801         5.45288
LJ          -5.13328        -4.21452        -4.75973
LJ          -5.43547         3.49272        -2.54734
LJ          -4.68365         3.66451        -4.13936
LJ          -5.54453         0.50989         -3.6157
LJ          -4.30005       -0.688773         2.77447
LJ          -5.88599          2.9826        0.566768
LJ          -2.25591        -3.19517         1.23289
LJ          -5.47661        -2.48842        -3.19937
LJ           3.47162        -1.42239        -1.59383
LJ         -0.336181       -0.659619         3.55431
LJ          -5.16693        -1.49805        -4.33097
LJ           1.27999         1.36218        -3.33748
LJ            4.3947        -4.81707         4.84744
LJ           2.56441        -4.76781        -6.36583
LJ          -2.80052        -3.66249        -3.70325
LJ           5.72423         0.54852         3.09265
LJ         -0.607781        -1.55399         2.93012
LJ          -2.30445         1.74587           -4.62
LJ          -3.87093        -3.13409        -1.64751
LJ          -3.85459        -6.18241         2.57523
LJ          -4.48285         1.16401        -4.66973
LJ          -5.81713       -0.913277         4.66519
LJ           4.66452         4.01445        -2.21284
LJ         -0.647084         3.52409         2.53561
LJ           4.54409        -6.07855         4.85522
LJ            1.5373        -4.58111        -3.48605
LJ           5.02357         4.69932         4.31019
LJ           0.37951        -4.43476        0.927334
LJ            3.9903         3.39634         6.38094
LJ          -2.73407          2.0236         5.95749
LJ          -1.71063       -0.884816        -2.00233
LJ          -1.15122         2.72958       -0.240889
LJ           3.51417        0.248882          5.4985
LJ          -5.35886         1.83651         1.90461
LJ          -1.17246        0.994229         4.98056
LJ          -3.15605        -1.39431         1.33601
LJ           -6.4224         1.34831         2.30917
LJ           6.25002        0.457499        -6.23156
LJ          -1.56004          2.8249         5.92541
LJ            2.0223        0.785629        0.999608
LJ           5.39827        -5.23674         3.74001
LJ          -6.39762        0.815093         -4.3246
LJ           2.56081        -4.55999         4.78901
LJ           5.49573          6.3889        -5.05415
LJ          -2.71626         -5.2644        -1.24671
LJ          0.960843         2.77548        -2.78406
LJ           4.22668         6.00472        -3.39687
LJ         -0.554998         2.96227        -2.02592
LJ          -3.66844         3.89931        0.863821
LJ          -6.43448         4.67423        -5.37268
LJ           3.31011         -2.6934         2.59465
LJ           3.22884         4.24931        -1.67216
LJ           1.19089         5.10666        -1.99683
LJ           3.90038       -0.995074        -5.72338
LJ           1.89563        -4.01381         5.37678
LJ          -2.20327        -2.95204         2.97231
LJ           6.01389        -4.31443         4.64965
LJ          0.541577        0.193619         3.92451
LJ           5.46904         1.87595        -5.99371
LJ          -3.22428         2.94929         4.77528
LJ            1.5151        0.815442         3.82315
LJ          -4.39968        -2.29806        -5.37372
LJ          -1.75742        -5.03709         3.67922
LJ          -2.22151         5.33153         2.50848
LJ          -4.87884        -5.01976        -2.29649
LJ          -1.37665         6.01915        0.893325
LJ          0.209266         6.24457        -2.22683
LJ           5.71745        0.958117         5.58404
LJ          -1.74198         1.42289        -0.81729
LJ          -0.45968          3.7779        0.221458
LJ          -4.47594         6.01514         1.98419
LJ            2.3563         5.28752         4.94737
LJ           6.06026         5.91602       -0.914803
LJ          -2.16095        -4.35485        -1.86561
LJ           3.82302         5.37999        -1.83508
LJ           3.35403      -0.0885144        -5.66778
LJ           5.53458         -1.4181       0.0153215
LJ           3.39327        -1.37304      -0.0954884
LJ           3.17446           6.324         4.67771
