108
#Comment!
LJ          -1.10557        0.867233         6.41023
LJ          -5.37283         5.51317         5.18294
LJ           5.41575        -1.17067        -4.33346
LJ        -0.0386044       -0.841228        0.419785
LJ          -1.85092        -4.60883         5.01053
LJ          -3.98966        -3.02748      -0.0888748
LJ           -1.1359         2.27311         2.15579
LJ           5.44078        -3.17937        -3.67469
LJ           2.86116         3.22074         -5.3817
LJ          -5.88623       -0.570822       -0.405666
LJ             3.866         5.41977        -4.12607
LJ           1.61873        -3.10815         5.40498
LJ          -2.90798         3.24655        -1.49855
LJ          -1.73652        -4.76614         1.85447
LJ           1.40944        -1.83643         5.54944
LJ          -3.45017         2.36557        -3.46573
LJ          -4.84829         4.89494         4.20726
LJ           2.52898          5.4023        -3.68286
LJ          -2.16636         0.55858         4.13172
LJ           1.54123         1.41921        -3.13603
LJ           3.58829        -1.92105       0.0634132
LJ           1.31138         5.70478         1.78271
LJ          -6.37045         5.10268        -4.82356
LJ           2.10568         1.91815         1.81079
LJ          -1.31383        -5.18949       -0.274286
LJ          -3.59216         6.08918        -3.12074
LJ          -2.18519         3.81422        -6.12569
LJ           1.79278        -1.01376         4.87783
LJ          -3.62083        -5.85657        0.368653
LJ          0.389003         1.58238        -3.32081
LJ           5.22537        -2.92457        -5.23417
LJ           3.28425        -6.20867         3.88262
LJ         -0.362486        -3.22151         0.17681
LJ          -3.79285         4.30525         -5.2026
LJ          -4.30422        -1.17134         5.22662
LJ          -4.86584        -5.95162        -4.31534
LJ           2.57228       0.0678381         1.38607
LJ           2.71821           5.831        -2.69005
LJ           -6.0254        -3.00122         1.76294
LJ          -3.75125         6.13789         -4.5298
LJ         0.0952542        -2.75229         1.90942
LJ           3.11979         5.88259         5.76497
LJ          -6.01259       -0.729511        -2.94291
LJ           3.08364        -2.82709        -6.28354
LJ         -0.548314         3.92733        -3.28663
LJ         -0.445943        -4.35867        -0.25009
LJ           1.08626        -1.12984        -1.79915
LJ           5.97293        -3.69025        -5.16884
LJ           4.00933       -0.792889         3.05819
LJ           4.28031         2.18283        -5.93661
LJ           2.07747         6.34282        -2.09796
LJ          -6.43546        -3.71172        -1.54908
LJ         0.0810798        -6.41413        -3.59858
LJ           1.99484        -2.96015        -4.39928
LJ           1.00879         5.63349         3.66675
LJ           5.50314         2.08559         -4.1056
LJ          -3.39033        -2.51156         4.89643
LJ          -3.13157       -0.964205         3.21131
LJ           5.79485         3.62935        -3.82712
LJ           4.72831        -1.30426         4.53862
LJ          -4.62601           2.444        -5.84047
LJ           5.66762       -0.102702        -2.77235
LJ           4.40736        -4.23107         1.81166
LJ          -4.98045       -0.468496        -5.80799
LJ           5.94724          3.4097        -2.01058
LJ          -2.58965         4.89875        -0.61524
LJ           5.76291        -4.19461       -0.671802
LJ          -6.06349         5.03985          3.3446
LJ           2.07141        -4.20196         -5.7328
LJ          -3.06705         4.95624        -2.81153
LJ            2.7762         1.04869         3.10682
LJ          0.995477        -5.33589        -4.51597
LJ          -5.61971        -4.44178         2.33716
LJ          0.826692        -6.29047         3.99013
LJ            2.6708        -5.39128         2.81681
LJ            6.3822        -0.50477        -6.37511
LJ         -0.471481        -4.98272         4.88298
LJ          -3.15626        0.914276        -4.40774
LJ           -1.3271        -4.47376        -2.45156
LJ          -5.53265         4.60434         2.42067
LJ          -5.89234        -1.29106          1.3862
LJ           4.77262        0.462449        -3.95897
LJ         -0.688827        -5.31624        -5.48932
LJ          -2.24745         2.22048        -5.83274
LJ           4.11755       -0.386365        -5.57577
LJ          -2.56854         3.65944          1.6018
LJ          -4.28004        -4.27485         4.69167
LJ           3.52159         -1.3106        -3.21026
LJ           4.04976         5.77497         5.20957
LJ            4.7897        0.681853        -5.40513
LJ           3.43272         1.21597        -1.55508
LJ            3.6802       -0.863227         4.91904
LJ          -4.36109       -0.826788       -0.390395
LJ          0.341423         5.56979       -0.341684
LJ          -5.57594         2.05275         2.73106
LJ          -1.04498        -1.71626        -3.00032
LJ           3.18275         3.27762        -2.47715
LJ           3.93098         3.27215        -4.70739
LJ           1.86497        -5.01072         3.86295
LJ          -5.08581         6.11143        -4.62654
LJ          -4.82955         2.73796        -4.32963
LJ           1.74556       -0.940727        -3.32013
LJ           -1.4975         2.59577        -3.72415
LJ            2.4933        0.959336         5.87025
LJ           1.99511        0.890072        -1.97422
LJ           5.82395        -6.36823        -6.29522
LJ          -1.56394         4.90857        -4.71665
LJ           3.44908         -6.4177        -5.87977
