108
#Comment!
LJ            3.7265        -6.35151        -4.37346
LJ          -4.31798        -5.93406        -4.20918
LJ          -1.29019         2.61752         4.30293
LJ          -1.13574         -6.3216        -4.28775
LJ            4.3286         6.42903        -1.33235
LJ          -1.49696        -4.48508       -0.731976
LJ           4.51367         3.25843        -3.10419
LJ          -1.91504        -1.66047          3.9523
LJ           1.86501        -3.53744        0.645224
LJ          -3.84689          2.0548        -1.05169
LJ          -1.74068        -2.74714         -6.4136
LJ           5.61741        -3.83324        -2.40116
LJ           4.84031         5.50163         6.41233
LJ            1.7453        -2.96376         2.24799
LJ          0.524475        -2.04565      0.00192795
LJ            5.9915        -5.48034         1.12903
LJ           1.39638        -1.43482        -3.78174
LJ          -4.42312        -6.26874         5.97917
LJ           2.45671         1.47467         1.67817
LJ         -0.741728         -2.4998         4.57239
LJ           4.47004        -2.90915        0.130989
LJ          -4.62115         2.26639         4.79226
LJ           -5.9261         5.36899        -3.48314
LJ          -5.79207        -4.30086        0.218764
LJ          -3.00518        -1.41279         -5.0454
LJ         -0.444371         1.45724        -3.73634
LJ          -5.08556        -5.24552        0.304156
LJ           -3.0129        -3.62709        -2.97268
LJ           5.71571        -5.14535        -2.79151
LJ           1.07856        0.493044        0.142231
LJ           4.17928         -3.8878        -1.16732
LJ          -2.34436         5.92666        -3.64437
LJ           -2.7983        0.713601        -1.03038
LJ         -0.278073        -3.50696         1.68937
LJ          -3.47554        -5.73972         4.68539
LJ          -6.07172         5.22703         2.65718
LJ         -0.822844          -1.444         4.21719
LJ           -5.4325         1.30659         -1.4009
LJ           3.97352        -0.76838         4.75413
LJ           6.30672          5.3094         1.78589
LJ          -4.22134       -0.656586         5.27844
LJ          -4.64426        -2.05004         6.24936
LJ           6.11449        -6.24556        -3.30131
LJ           2.19488         2.08979         4.38134
LJ           2.77221       -0.434741         0.93207
LJ           4.05292         -6.2936        -6.07043
LJ          0.660446        0.038931         2.72061
LJ         -0.520141        -4.24487         3.00101
LJ          -3.54453        0.704072         6.19298
LJ          -3.13969         3.65591         -1.8067
LJ           5.80086        0.782004         5.76783
LJ          -4.94773         -6.4458         3.74657
LJ         -0.217795        0.331551         6.17311
LJ          -1.30768        -1.21327         5.13147
LJ          -5.73662         1.16473        -4.56034
LJ          -2.45576        -2.64093        -5.14823
LJ          -5.02702        -2.75821         4.94313
LJ           4.17945        0.266266         5.81554
LJ         -0.486493       -0.463753         2.47939
LJ         -0.133137          4.6639       -0.681332
LJ          -1.06631         5.94256         2.94886
LJ           2.63902         2.47456          5.3382
LJ           1.65152         1.65258        0.774897
LJ          -3.33624        -3.16671         5.46087
LJ           -5.1187        -4.90626        -3.55045
LJ           3.25095        0.600358         3.47615
LJ          -2.93033         2.99759         6.16841
LJ           1.35353        -4.09493        -5.61191
LJ           -3.6099         1.30902        -4.63805
LJ          -4.03735       -0.138525         4.13985
LJ          -2.73971        -4.53647         3.63537
LJ           1.77134        -2.54605        -3.76183
LJ          -2.32009      -0.0947424         4.96152
LJ           1.97006       -0.337257        -4.36518
LJ           1.65936         4.07879       -0.717482
LJ          -2.47912         4.71995        -3.52839
LJ          -1.32025         5.68093        -6.02462
LJ          -3.74467         -0.9771        -3.77234
LJ          -2.82082        -3.83244        -1.04912
LJ          -6.20594      -0.0781244        -1.01151
LJ          -2.00783        -1.90088         2.06857
LJ           4.18499         6.06432         1.77486
LJ          -2.86164        -6.46136         2.60048
LJ         -0.616398         6.09329        -1.71053
LJ          -6.36632       -0.937555        -1.60863
LJ           1.00872         2.47718         1.74034
LJ          -2.96017        -1.11725         4.72962
LJ           1.16307          4.8924        -1.15396
LJ           -3.3573         5.54262         5.78126
LJ           2.95472         1.54608        -6.28495
LJ           2.74288       -0.670882         2.21464
LJ           5.49765         2.77416        -6.09654
LJ          -3.13982         4.36529        0.215856
LJ          -2.00337         -1.8067        -4.45836
LJ          0.701844         4.78753         2.66012
LJ          -4.47418          5.7787         2.94027
LJ           3.82424          4.5085         4.33533
LJ          -3.57941         5.01827         3.85254
LJ          -4.52735        -6.10687        -2.58009
LJ          -5.15799        -4.04935         1.46436
LJ          -5.53143        -1.30087       -0.872596
LJ           1.20904        -1.62587         4.53456
LJ            3.5284         3.09804         -3.8068
LJ            5.9784        -3.68997        0.680514
LJ          0.462091         5.55306           1.654
LJ           1.05529        -4.66769         1.59747
LJ           5.70362         3.72106         2.38242
LJ          0.191683         1.41024        -6.40593
