108
#Comment!
LJ           1.44455        -3.07864         -4.0774
LJ           6.37647         -4.0961        -6.36966
LJ           3.85773         6.03109        -4.22492
LJ          -1.32332        -5.24483         6.37719
LJ          -1.15568       -0.554046         1.35007
LJ          -1.32533         4.63389         4.58743
LJ        -0.0935984         1.47325         3.07003
LJ           1.15971         1.27453        -3.04081
LJ           2.22014       -0.951347         -4.5432
LJ           2.46449         4.50613        -2.71917
LJ           -5.5651         1.36952       -0.851693
LJ           5.94224        -2.40822        0.352251
LJ          -2.59448        -4.83259         4.63159
LJ        -0.0852073       -0.758767        -2.33115
LJ          -2.70148        -6.29246        -4.74279
LJ          0.477739         4.01071          -2.689
LJ          -2.64159          2.3066        0.858173
LJ           5.81084        0.927256        0.868443
LJ          -6.01503         -5.1984        -4.75903
LJ           4.86888        0.545633        -5.48759
LJ          -1.99782          5.0737        -6.32276
LJ           4.48161        -3.68439         5.30681
LJ           -3.6486         2.68971         1.38023
LJ          -5.96588       -0.331052         2.38419
LJ           1.14284         2.29319         3.07872
LJ            3.3326         -2.5414       -0.709663
LJ          -1.61653        -1.26339         -5.7466
LJ           1.72725       -0.632447         -3.4451
LJ          -2.28047         1.02524         1.20855
LJ           1.29705         5.84704         2.77849
LJ           4.49948        0.789641          3.9134
LJ          -1.30411       -0.996239        -3.15373
LJ           1.49339        -4.98942        -3.18098
LJ          -1.12177        -3.83438         -5.3776
LJ           1.06354         -3.9187         2.43443
LJ           -1.3547        -5.07722        -1.37017
LJ          -1.48306        -4.33607          4.1834
LJ           2.96186        -4.12688        -2.10114
LJ          -1.86959        0.403411         2.33434
LJ           3.88784        -1.05579         1.67309
LJ           2.23874         3.54749         -2.2978
LJ          -5.61713        -5.41551         -0.2863
LJ           3.42884        -5.52569         -5.4317
LJ          -4.39836        -1.67266         -3.1126
LJ          -1.96568        -4.55881       -0.320341
LJ         -0.393697         3.64849        -5.60537
LJ           6.15802         5.79436         2.64484
LJ          -2.49458        -5.98292         3.26171
LJ          -1.46308         2.37138       -0.521651
LJ          -2.55766         1.28763       -0.150285
LJ          0.628005        -4.80086         3.64173
LJ          -4.56799         2.70321         2.00236
LJ           -4.4121       -0.868066           6.063
LJ         -0.299307         2.01697          5.6959
LJ          -1.18405        -4.66488        -3.35078
LJ          -5.30973          4.7986         5.00131
LJ           3.56704        -1.19661         4.88798
LJ           3.42167         4.64183         -1.9129
LJ          -1.06018        -3.79358         2.30093
LJ            1.8521        -3.24091        -5.23634
LJ          0.573073          -1.383        -1.64789
LJ          -3.94327         4.49739        -6.38394
LJ           5.03342         5.00435        -4.03511
LJ          -4.70727         1.80852        -2.25436
LJ           5.82855        0.101097         4.69889
LJ           5.85534        -1.01032         3.42772
LJ            5.5116        0.172495        -6.33443
LJ           6.45907         4.40879         6.11024
LJ          -6.12126         6.14461        -5.15644
LJ          -5.22834        -4.49918        0.964971
LJ           5.95286        -1.15256        -1.36368
LJ         -0.846985        -4.23597        0.469839
LJ           3.54073        -3.10286        0.458104
LJ           3.14091         3.51432        -2.97652
LJ           5.24886        -3.27204        -2.97626
LJ           -4.0325         6.24041         2.78475
LJ           4.20489        -6.10358         4.98249
LJ          -5.39125        -5.23256        -1.34634
LJ           4.74633         1.50146        -4.80943
LJ          -6.39792         5.79309        -2.62244
LJ           4.50596        -2.49193          5.0808
LJ         -0.598747         2.03448        -3.41753
LJ          -2.92659         6.10639        0.187746
LJ           -1.2537        -1.23354        -1.55312
LJ          -5.16785         -6.0461        -4.50059
LJ          -6.40083        -1.89814        -2.48471
LJ         -0.364741        -4.63909        -1.28346
LJ          -6.05033         6.02602        -3.52151
LJ          -5.52807        0.759961        -2.44003
LJ           2.18074        -5.13008         1.02694
LJ          0.775271        -5.94852         4.13479
LJ            4.7294         -3.4082         4.18807
LJ          0.617726        -1.46154        -3.08751
LJ         -0.335329        0.347698         2.03995
LJ           4.43202        -1.93048         3.88531
LJ           1.45993         4.50901        -4.28209
LJ           5.47123        -5.04849        -5.03803
LJ         -0.702556        -3.93344         5.10691
LJ           3.23348        -4.81975        -3.44884
LJ           3.26673         1.61726        -3.61365
LJ           3.84221        -4.40149       -0.266447
LJ           5.82896        -1.50127        -4.89577
LJ          -2.37232        -1.50895        -2.43586
LJ         -0.313059        -1.53026         3.38343
LJ          -1.09627          4.9967        -4.19262
LJ          -2.83988         4.61133        -5.38853
LJ           6.42533       -0.480517        -2.21078
LJ           2.66992         2.48818          2.0302
