108
#Comment!
LJ           2.13202         3.42122        -5.73947
LJ           3.48288        -5.07916         3.39041
LJ           2.83807         3.73447         1.91048
LJ          -1.10995         6.13375        -5.29751
LJ           5.56999         4.48478        -2.63313
LJ           1.05675        -1.04514         1.70686
LJ            1.7546        -5.12422        -5.01499
LJ           1.21131         1.96759          2.3725
LJ          -5.48131         3.36331       -0.773786
LJ          -1.89825        -2.49712        0.898402
LJ            5.2969        -3.53597        -5.07289
LJ         -0.315189        -5.92366         3.36403
LJ           2.53049         3.50647         6.07825
LJ           -2.8476         2.19585          5.8051
LJ           4.07173        -0.73943        -6.06794
LJ           -4.4241        -5.87593        -4.80605
LJ          -5.68673         5.97304        -1.37448
LJ          0.809297        -3.34741         1.54709
LJ          -1.20715        -2.91079        -6.42528
LJ         -0.249901        -1.64167         1.40495
LJ           2.30418        -6.08205        -3.70195
LJ          -1.75552          3.2806        -5.07273
LJ           -5.2375        0.654831        0.494684
LJ           2.27114        -1.10409        -2.86054
LJ          -2.36269         1.24769         1.09562
LJ           1.82931         3.06142         5.43932
LJ          -6.06023        0.165307        -4.98035
LJ            3.2416         6.15246        -4.44255
LJ          0.531726       -0.102519         4.91816
LJ           2.44684         5.37484         -5.1193
LJ           3.12495         5.45613          3.7533
LJ          -4.69331        -6.00293         3.27216
LJ          0.752319         1.27782         1.20945
LJ           1.81491         5.95608         4.96514
LJ           5.25541        -4.53962         3.26432
LJ          -2.02517        -3.72814         5.97789
LJ           5.08948          4.9448        -5.79138
LJ          -1.15352        -4.14927         1.02025
LJ          -3.33084         2.60803       -0.283722
LJ          -5.26077         1.37608        -5.17203
LJ           3.80414         4.79684         2.86659
LJ           2.53307         3.22966        -1.04207
LJ           5.98179         1.09182         1.52575
LJ           1.32569        -3.16313        -4.42734
LJ          -4.90038        -2.24882         0.92425
LJ          -5.58888        -4.53277        -4.16891
LJ           1.90844       -0.694148         1.42317
LJ            4.1108         5.14068        -3.59255
LJ          -6.07553        -3.85033         2.35823
LJ          0.640808        -2.46921         5.10646
LJ           6.33501        -3.42272        -5.07073
LJ           3.09787         2.79118         5.26305
LJ            5.1152        -5.91084        -1.93728
LJ           -6.1638        -1.29222        -5.39651
LJ             -4.72         4.40842         4.98785
LJ          -5.46846         6.36069        0.049921
LJ          -6.31592        -6.14166         1.63542
LJ          -1.90329       -0.382769        -5.07971
LJ           1.07562         4.75877         0.83454
LJ         -0.890946       -0.787044         4.15399
LJ           4.55382        -4.40894       0.0807586
LJ           4.44494         5.42305         1.00915
LJ          -2.33382         5.30031       0.0501051
LJ           6.07403        -5.50886         4.69012
LJ          -4.76454         5.39256        -0.37261
LJ           5.84207        -2.66229        0.442885
LJ            3.1582        -1.05282       -0.956662
LJ          -1.28296        -1.53847        -5.51363
LJ          -5.47249         2.77678         1.29021
LJ           1.98599        -2.57007         1.86769
LJ           4.45909         2.20051       0.0302908
LJ         0.0977247       -0.361869         2.01843
LJ           3.42974         4.63405        -0.43501
LJ           3.26868       -0.682686          -5.394
LJ          -5.45459        0.183109         5.33006
LJ          0.954005        0.928935        -2.57636
LJ           3.55871         5.92775        -2.84201
LJ             5.133         1.15102        0.825921
LJ           1.24053         5.06468         5.01331
LJ          -4.47007        -1.76667          5.9431
LJ          -2.69489      -0.0708692         6.06008
LJ          -6.15625        -5.98393         -4.4405
LJ           2.37308         3.94667        -3.64716
LJ        -0.0144075         3.68607        -3.99775
LJ           3.14789        -1.11939          -3.739
LJ           3.02417         2.28763        -1.87802
LJ          -1.60189         3.35939        -6.38922
LJ          -2.00885         2.65337        -2.81403
LJ           3.99482         4.41423        -4.55772
LJ           5.22478        -1.33621         2.98444
LJ           5.95498         -2.9268        -2.37378
LJ            1.3324         4.39708         5.82661
LJ          0.423421         3.00397        -1.24101
LJ          -5.04653       -0.229645        -6.22537
LJ          0.617434       -0.977757         6.23082
LJ           4.87916         4.66646        -1.28855
LJ           3.50702         5.89658         1.11537
LJ          -2.41739         1.89113         4.23795
LJ           3.03232        -5.25912         -2.3765
LJ           1.47493         5.82544        -4.34902
LJ           6.04377         1.22945        -2.55643
LJ          -3.65137        -3.56296          2.5271
LJ           3.82381         2.16623         2.30918
LJ          -6.35114          2.6672         -4.6084
LJ          -2.06977       -0.992368        -1.75857
LJ          0.928566        -4.26489         3.76978
LJ           2.31569         4.75799         5.96114
LJ          -5.58449         2.21002       -0.350238
