108
#Comment!
LJ           1.87757         3.28954        -5.69112
LJ           3.59309        -4.99445         3.66631
LJ           2.89905         3.63626         1.77912
LJ          -1.20865         5.86704        -4.87254
LJ           5.40857         4.47546        -2.87917
LJ           1.01816        -1.11476         1.19859
LJ           1.38685        -5.13246         -5.4874
LJ           1.18253         1.82508          2.1846
LJ          -5.82657         3.91572        -1.04621
LJ          -1.78761        -2.45919        0.727815
LJ           5.33105        -3.57325        -4.81707
LJ         -0.178083          -5.828         3.28225
LJ           2.59687         3.52077         5.98748
LJ          -3.09918         2.39363         5.74998
LJ           4.45546       -0.905019         -6.4452
LJ          -4.56125        -5.65494        -4.51076
LJ          -6.04304         5.75073        -1.87102
LJ           0.80096        -3.13567         2.11512
LJ          -1.44492        -2.95743        -6.27415
LJ          0.145048        -1.45844         1.45369
LJ           2.52068        -6.04447         -3.8908
LJ          -1.81808         3.37302        -5.18865
LJ          -5.59071        0.934853        0.795091
LJ           2.37906       -0.756004        -3.44424
LJ          -1.77905         1.55537         1.38276
LJ           1.67626         2.72991          5.2082
LJ          -5.68167      -0.0379017        -5.12506
LJ           2.64278         6.30199        -4.76828
LJ          0.596244        -0.16113         4.54515
LJ           1.98186         5.40232        -5.36342
LJ           3.50526         5.44363         4.27107
LJ          -4.82642        -6.06563         3.06778
LJ           1.02173          1.4011         1.31717
LJ           1.48639         6.27005           5.207
LJ           5.15836        -4.65575         3.66574
LJ          -2.09157        -3.59287         6.12085
LJ           4.54408         4.83042        -5.80084
LJ           -1.4353         -4.1619         1.09426
LJ          -2.89682         2.57943       -0.543922
LJ           -5.5355         1.18997        -5.77508
LJ           3.56702         4.68007         3.21121
LJ           2.75769         3.31506       -0.973371
LJ           6.46244        0.991129         1.11495
LJ           1.39189        -3.37008        -4.58048
LJ          -5.25179        -2.52239        0.652608
LJ          -5.71482        -3.80665        -4.13348
LJ           2.27366      -0.0209948         1.43094
LJ           4.42924         5.17718        -3.60798
LJ          -5.92393        -3.87755         2.11933
LJ          0.901642        -2.47125         4.99931
LJ          -6.30547        -3.58399        -4.81475
LJ           2.71935         2.74986         5.15225
LJ           5.39838        -5.66273        -2.04488
LJ          -5.87924         -1.1045        -4.97067
LJ          -4.56319         4.44346         4.71563
LJ          -5.34791        -6.43993        0.239207
LJ           6.39681        -6.12224         1.60394
LJ          -1.76511       0.0432677        -5.12174
LJ          0.524242         4.51847        0.544567
LJ          -1.01697       -0.282847         4.73924
LJ           5.17187        -4.33775       -0.490847
LJ           4.23702         4.48722         1.32812
LJ          -2.77838          5.0578      -0.0284053
LJ          -6.28204        -5.19015         4.74139
LJ          -4.55599         5.82107       -0.306882
LJ           6.03431        -2.44251        0.769235
LJ           3.00021        -1.14847        -1.05692
LJ          -1.50085        -1.75184        -5.43457
LJ          -5.29602         2.42752         1.09834
LJ           2.03598        -2.64108         2.16732
LJ           3.68773         2.21109        0.616566
LJ          0.341592       -0.643871         2.19312
LJ           4.01869         4.31919       -0.685559
LJ           3.64203       -0.429013        -5.49158
LJ          -5.73734        0.189641         4.65656
LJ           1.20805          1.0322        -3.01014
LJ           3.58802         5.90454        -1.92843
LJ           5.34071         1.49223         0.76936
LJ           1.14183         5.10749         4.71125
LJ          -4.56769        -1.57982         5.77231
LJ          -2.76169       -0.237859         5.63924
LJ          -5.51844        -6.13947        -4.73648
LJ            2.0298         3.46714        -3.88896
LJ         0.0171444         3.56627        -4.43803
LJ           3.46993        -1.28563        -3.78981
LJ            2.9963         2.51569        -1.71389
LJ         -0.904959         3.52187        -5.99808
LJ           -2.0105         2.31755        -3.04705
LJ           4.35079         4.71474        -4.57965
LJ           5.04437       -0.710436         3.18402
LJ           5.79248        -2.92204        -2.35415
LJ           1.17693         4.44278         5.78857
LJ       -0.00652236         3.69121        -1.06338
LJ          -4.92175        0.243333        -6.14444
LJ          0.771493       -0.862463         6.45064
LJ            4.7634          4.5152        -1.58424
LJ           3.61019         5.75657         1.21784
LJ          -2.44712         2.16548         4.20911
LJ           2.91982        -5.04866        -2.65357
LJ           1.27844         5.66796        -4.02831
LJ          -6.36928         1.43785        -2.11165
LJ          -3.15507        -3.33828         2.03413
LJ           4.04146          1.7644         2.13771
LJ           6.10124         2.77946        -5.00472
LJ          -1.79837        -1.00446        -1.44151
LJ          0.664521        -4.58439          3.7616
LJ           2.16968          5.1144         5.98009
LJ          -5.31769         2.26344        0.149818
