108
#Comment!
LJ           5.95223         3.86895         5.62429
LJ           3.14573         4.94745         2.97403
LJ          -2.43268        -1.88077        -2.03516
LJ         -0.739959        -6.30731        -2.89286
LJ           -6.3419         3.85496        -3.01366
LJ          -4.49595        -1.40451        -5.22979
LJ          -2.04733        -4.20944        -2.91143
LJ          -6.15364          1.0528        -4.91586
LJ           3.85369        -3.03976         3.10023
LJ            4.3667         4.21502         5.67951
LJ          -3.12162         1.39408        -6.00339
LJ           5.43776       -0.958241         4.43507
LJ           4.81314        -3.44959        -5.85091
LJ          -4.71049         2.89172        -2.45673
LJ           5.53969         0.83587          5.6288
LJ            5.7549        -5.86724        -5.10044
LJ          0.368448         5.24149         3.96274
LJ          -1.00936        -4.90813         3.84892
LJ          -2.26552        -5.01703         5.81409
LJ           5.39411        -2.93478       -0.548582
LJ            2.1688        -4.30028         5.32719
LJ           5.17967         5.37679         4.39828
LJ           5.71717         2.35871       -0.434765
LJ          -6.32964        -2.28238        -4.75332
LJ          0.142575         4.97967         -6.3969
LJ            2.1543        -3.55679         6.20296
LJ          -1.99935         3.80863       -0.357005
LJ           3.48686        -2.12592        -5.41358
LJ          -1.45794          5.0196         -5.1035
LJ           3.83704         1.99649        -4.89627
LJ          0.177093        -4.43185        -4.17328
LJ          -5.18808       -0.820646        -4.17845
LJ           4.31664         2.08077         4.45272
LJ           4.95506        -6.17168       -0.244318
LJ           2.17349       -0.816412        0.492425
LJ          -5.17938         1.04215        -5.74279
LJ           2.99115        -6.25794        -4.15666
LJ          -2.17896         3.98886         4.83627
LJ          -6.00463        -6.42411         6.26276
LJ          -3.27672        -1.75032         -4.9105
LJ          -4.90575        -4.91691       -0.497461
LJ          -1.95948         4.59559         4.18361
LJ          -2.21642       -0.579701          4.2228
LJ          -1.85848        -1.49072         2.11391
LJ           -2.1611        0.373742        -2.29704
LJ           3.94346         4.38277         2.54612
LJ         -0.990669        -3.00754        -2.65135
LJ           -4.4918        -3.79726         6.46327
LJ          -1.44396         2.51235       -0.661192
LJ          0.681094         4.15678        -2.71097
LJ          -3.84209         6.11812       0.0285208
LJ          -1.58385         -5.0722         1.30551
LJ          -3.45496          4.8092         1.90135
LJ           3.95311         4.73857        -2.73224
LJ           3.10534        -5.02936        -3.48658
LJ         -0.337952       -0.304569         1.07545
LJ            5.2821         5.16093         2.70196
LJ           2.49887       -0.825634         4.35042
LJ          0.990362         1.40202        0.729053
LJ           -4.2336        -1.85076         1.68602
LJ           2.49678         3.64466         4.69557
LJ          -5.52351        -2.80833        -3.80884
LJ          -5.21359         2.68378         -1.2598
LJ           2.31969        -5.99772         4.60009
LJ           2.04652         5.95532         -6.2106
LJ           2.73809        -5.21497         5.51913
LJ          -1.97462       -0.998295         -5.0881
LJ          -2.74063        -2.08116        0.362001
LJ         -0.907129        -5.09406        -2.01521
LJ          -3.52505         2.50959        -1.65214
LJ         -0.782881         6.07662        -4.17327
LJ           2.58853         3.03473         3.27256
LJ         -0.582032         3.04558        -4.37455
LJ           5.66002       -0.396274       0.0292615
LJ           1.01957       -0.777347        -2.54501
LJ         -0.593825        -3.50983         3.27683
LJ           5.56644          3.6396        -4.27067
LJ          -5.03707         -4.9058          2.3296
LJ          -6.25136         2.44064        -4.58948
LJ           1.01528         4.39158         3.37741
LJ          -2.30715         -5.2757         4.56708
LJ          0.363035        -3.98319         4.32208
LJ           3.31285       -0.339278        -3.36299
LJ          -6.44312         4.24085        -4.92094
LJ          -3.15263         4.53838        -0.52551
LJ          -2.85325        -2.49444         3.36512
LJ           -3.3143        -3.55609         3.40534
LJ          -6.42695       -0.896226         -3.3336
LJ           -4.0033        0.252463       -0.218296
LJ           3.33513         1.76844          2.3811
LJ           5.83139        -2.69049         -2.8685
LJ           3.07253         1.46897         -3.9471
LJ         -0.367968        0.922618         1.55318
LJ          0.265654         -5.6215          6.4159
LJ           1.46641        -4.83667         5.93849
LJ          -2.37245         3.83427         1.70473
LJ          -5.51881         3.69785         5.59661
LJ            3.0862         1.57163         3.90789
LJ          -6.24912         5.88544         5.19584
LJ           6.10167         1.47049       -0.142139
LJ          -4.38194        0.137363        -1.38941
LJ           3.60156         1.01376        -5.03106
LJ          -2.86657        -1.74045         4.84676
LJ           4.17253        -3.63354        -3.40422
LJ          -3.35667       -0.633077         3.86675
LJ         -0.219346          5.9415         5.54439
LJ           1.53039         5.06995         4.00234
LJ           6.06239         4.92328         4.94535
