108
#Comment!
LJ          -0.52699        -4.96123        -4.01218
LJ          -1.45073        -2.42066       -0.352137
LJ          -3.83267        -2.41364        -6.28842
LJ            2.8569        -5.78569        -3.18916
LJ          -6.37577         1.91414         1.36718
LJ           4.58883        -3.22792        -1.62055
LJ            2.7665        -5.01632       0.0302046
LJ           -1.6558        -4.21449         4.67347
LJ           6.20724        -1.88747        -4.99576
LJ          0.224344        -3.75115         6.43396
LJ          -1.66149         6.27107        -2.20183
LJ          0.572341        -4.27102         5.43567
LJ          -5.31703         -6.1633        -1.65147
LJ          -4.10617         2.81354         1.60715
LJ           3.19206         1.21717         5.69574
LJ           1.91723         -1.0976         6.28013
LJ           5.73746        -4.82483        0.409682
LJ           1.83976        -2.04762        -4.77774
LJ          -1.61579        -4.87687        -2.20227
LJ          -5.86285         6.01362        0.995225
LJ          -5.24242        -1.51921        0.939433
LJ          -4.80813         3.80267        -3.77583
LJ          -6.28248       -0.294169        -2.43435
LJ          0.583785        -4.62266        -1.55013
LJ           4.25032         5.57523       -0.615091
LJ           4.18001        -5.90335         2.73784
LJ          -6.19722         -3.5633        -3.20806
LJ           1.67344        -3.00494         3.25376
LJ          -3.34905        -5.45555        -5.55999
LJ           -5.8718        -3.99789         3.71856
LJ           6.03961         3.52288        -3.33203
LJ          -1.12155        -2.16357         4.12001
LJ            5.3598          5.1718        0.210022
LJ           1.98485         -1.3906         3.99787
LJ           5.61309        -2.93004        -1.31547
LJ           -4.1886        -5.62847         2.73891
LJ          -2.83315        0.266143        -1.62988
LJ         0.0489509        -2.55957          2.0811
LJ            1.3105         1.58711       -0.578217
LJ          -6.11621        -3.39852         5.73388
LJ          -3.20167         3.53517       -0.315676
LJ          -5.92558          6.2839         4.87048
LJ           5.46685         3.08152        -5.24227
LJ        -0.0794941          1.9089         4.25901
LJ          -2.03724         5.54778         3.03758
LJ          -1.94966            2.14        0.844168
LJ          -3.83319        0.169944        -4.00788
LJ          0.876802         -2.2585       -0.979603
LJ          -5.13198        -2.87015       0.0751613
LJ            2.7082         1.95527         -3.6825
LJ           3.37409         1.41161        -1.66841
LJ           5.98799       -0.134368        -4.74163
LJ           -4.0216        -1.82648       -0.554048
LJ           2.41995         1.93417        0.126966
LJ           5.80265          1.0711         2.54624
LJ          -6.29884        0.270641         5.48838
LJ        -0.0265337        -3.57869        -2.71258
LJ           1.66317        -3.73779        -5.57978
LJ          -4.20447         -1.6389        -2.63874
LJ           4.91259        -3.54846        -4.88384
LJ          -6.14408        -3.31081        -4.96327
LJ           3.26671        -2.98083         3.78263
LJ          0.963674         1.85975         4.54635
LJ          -1.08459        -2.24441         2.67616
LJ          -3.26536        -2.88646        -1.49584
LJ           4.70305        -1.59097         3.66374
LJ           4.49145         4.62411        -2.26214
LJ           1.83996       -0.910027        -5.64649
LJ           6.10558        -2.95492         4.68584
LJ          -2.69669         1.61517        -3.96848
LJ          -2.73116          5.2099         2.00317
LJ            2.1785        -4.90557         3.91951
LJ           1.67555       0.0734552         -1.1045
LJ          -1.16071        -1.19026        -6.02155
LJ          -4.39947         3.84039         1.08365
LJ          -5.94479        -3.31957         2.93707
LJ         -0.800295         2.47952         1.08551
LJ          -1.83172        -2.90126         6.07312
LJ          0.507648        -2.83093        -4.02672
LJ         -0.252932         5.57619        -3.48324
LJ           3.56444         3.22554        -4.21788
LJ            3.4436         5.92557        0.743951
LJ          0.250915        -1.44679         1.49702
LJ          -1.75967        -2.14544        -6.21959
LJ         0.0625974        -6.07167         2.15331
LJ           4.54109         3.56107        -5.72182
LJ          -6.00587         5.07173        -5.40421
LJ           5.05951        -5.16192        -4.37151
LJ           1.18142        -3.04602        -1.85252
LJ          -3.14092        0.453614        -5.11802
LJ           5.22033        -6.43073        -3.34902
LJ          -4.73054         1.63307          6.3941
LJ           3.53036         5.21433         4.93399
LJ           -5.7869         6.12953        -3.62034
LJ          -1.14297        0.370722         1.91395
LJ           4.76123         5.93616         2.76505
LJ          -4.61371        -6.13549        -5.14732
LJ           3.27565        -4.24117         5.04275
LJ         -0.879372        -5.94552         2.75138
LJ          -1.91301        -5.18939         2.32996
LJ           2.67585         3.12703       -0.992394
LJ           3.47132         5.13484        -1.54601
LJ           3.25924        -1.75079        -5.25499
LJ           5.16076       -0.837244        -5.20005
LJ          -6.09751        -6.38755       -0.913624
LJ          -5.20918         5.90578        -2.27738
LJ           3.44648         3.36157         4.88963
LJ          -0.52121        -5.65881        0.854346
