108
#Comment!
LJ           6.26484         -5.6684         2.70081
LJ          -6.09092         5.53988        -4.53576
LJ          0.967138         5.86065          2.8129
LJ          -5.65478         1.21739         -6.0139
LJ           1.65736         2.12284         1.73655
LJ          -5.88596         4.12111        -1.97257
LJ           3.28009         4.29362       -0.959293
LJ           2.51602        -1.41483        -6.02115
LJ            4.7161         5.42562        -3.20303
LJ          -2.50383         3.10645       -0.139629
LJ           4.74837         1.87152        -6.12485
LJ          -4.69731        0.572516        -4.10722
LJ           3.54019        -4.12651       -0.445244
LJ           3.67184         1.61066         6.11992
LJ          -2.19661        -6.02428        -4.95876
LJ          -5.70274         5.71502        -2.95754
LJ           1.50377        -3.27275        -2.98627
LJ         -0.446334        -1.66682        -3.88962
LJ          -1.95706        -1.27101         6.11075
LJ          -3.77197       -0.995117         6.20658
LJ          -4.67171         4.52528         4.95244
LJ          0.481745        -2.14668         4.05729
LJ           1.76664        -5.83403       -0.646886
LJ          -2.67879        -2.44198       -0.238824
LJ          -5.11619         -1.0386        -3.69698
LJ           2.34722       -0.946921       -0.467822
LJ            4.5653        -1.18219        -4.33998
LJ           4.65213        -4.06893         3.61011
LJ           2.56124        -4.02379         4.96188
LJ          0.675584        -2.66605         2.76438
LJ          -5.28524         5.06874        -2.19675
LJ           6.20459         4.55452        -5.44101
LJ          -4.43478        -2.76545        -1.92507
LJ             4.534        -4.06784       -0.381045
LJ           2.49183        -5.41421         4.45284
LJ          -1.64685        -3.28645        -4.56394
LJ         -0.924005      -0.0228982        -2.04663
LJ           5.88433        -3.43575         -5.1769
LJ           0.42706         3.56973        -2.97622
LJ           3.65771        -2.91985         -3.4946
LJ            4.3349        -6.17194       -0.754532
LJ         -0.696118        -2.63554          4.1493
LJ            3.2082        -1.21247       0.0107986
LJ          -5.14221        -3.16405        -0.70451
LJ          -6.10309       -0.617933        -3.67162
LJ         -0.451651        -5.11454        -4.78248
LJ          0.646344      -0.0929123        0.323346
LJ          -6.31087        -3.26517         3.21704
LJ           4.06152        -2.12541        -1.54022
LJ          -1.69278        -1.98915        -6.12918
LJ         -0.672048         3.32419        -6.39345
LJ           1.40935        -3.32204         1.13431
LJ         0.0700673         1.49438         5.57713
LJ          -4.75295        -1.64248         6.29522
LJ          -3.45019        -2.74659         3.33286
LJ          -3.19301        -3.99692        -3.88363
LJ           2.89819        -5.35944        -5.30501
LJ           4.72695         3.41752         3.30538
LJ           4.76057        -4.16946          1.1866
LJ           -4.5536        -2.89129         2.47575
LJ          0.440941         -3.1307        -1.60709
LJ           1.55754         1.94897        -2.81711
LJ           5.04543        -6.06982        -2.93933
LJ          -0.42073         2.22758          6.2094
LJ          -2.48061          6.4348          5.3102
LJ          -4.16501         5.90064        -2.85214
LJ           2.97979        0.267045         4.10827
LJ          0.871123        0.543974         2.35208
LJ          -1.84059        -2.41905         1.17922
LJ          0.877325        -2.65065        -3.82887
LJ          0.140234         2.19664         4.29196
LJ          0.741638       0.0167316         1.54528
LJ          -1.91919        -1.70981         3.11254
LJ           4.89989         6.11201        -4.31679
LJ           1.59132        0.217263         3.22866
LJ           3.38426        -3.30034         1.68255
LJ           6.44469          5.5589         -1.4416
LJ           4.72125       -0.555968         1.56108
LJ           6.45898        -5.58881         1.55712
LJ         0.0185346         3.78296         5.09676
LJ          -6.42198         2.39982        -5.39265
LJ         -0.604114        -2.14798        0.413173
LJ           4.21815         -2.7374         3.73482
LJ          -5.33375         6.10095        -3.84558
LJ           5.63546        -1.80673       -0.510089
LJ           0.61605       -0.130427        -5.48343
LJ          -1.53512        -3.79696        -6.43841
LJ           2.41744        -5.93488        -2.44265
LJ          0.387578        -2.71652        -6.38504
LJ          -1.40411        -3.52292         4.37015
LJ          -4.74935         -4.0713        -1.28489
LJ           5.93034         5.83357         2.74637
LJ           2.05876         1.99402          5.3347
LJ          -5.49948        -3.03271        0.839226
LJ          -2.51601         -2.4267        -5.26796
LJ           5.64038        -4.86793         6.32176
LJ          -2.40912        -2.49964         4.44635
LJ           5.29779         2.13579        -3.61111
LJ         -0.290165         2.06307        -2.00964
LJ          -6.42235        -3.81551        -6.44457
LJ          -2.15319        -4.41674         -4.9788
LJ          -4.97836         4.64741        -4.19312
LJ           4.66602        -2.42334         4.71528
LJ           4.26088        -4.40497         2.83114
LJ          0.788461         4.22102         1.82862
LJ          0.880361        -4.73662        -3.33092
LJ           4.44297        -5.88482         4.54172
LJ           2.36227         4.17088         5.26083
