108
#Comment!
LJ          0.221085         4.94555        -1.70012
LJ          -6.19596        -6.25385          1.3645
LJ            2.9238       -0.158992         4.84405
LJ           2.81567        -4.13954        -5.80395
LJ          -4.42571        -2.91092        -1.70874
LJ           -4.1346         1.14785        0.119799
LJ         0.0237975         3.89097         5.69481
LJ          0.355946          0.6731        -2.55845
LJ           1.30434        -4.58278         -5.2221
LJ          -6.42221         5.51225       -0.777913
LJ          -1.40094         5.93189        -3.96845
LJ           -5.8547         2.77501       -0.834216
LJ           6.16589         3.18915        0.565845
LJ           2.97022        -5.15799         3.34272
LJ           6.45007        -4.01413         3.35851
LJ          -4.09713         4.40979         3.21144
LJ           6.31636        -6.25939        0.379733
LJ           3.83763        -4.65767         1.35805
LJ          -5.46113        -5.91957        0.482669
LJ           2.91507         1.50363         4.29032
LJ           4.25048         5.36984        0.777132
LJ           3.00275         3.48145       -0.285705
LJ           -2.2738        -4.02969        -6.26527
LJ           6.13472        -3.38016          2.6657
LJ           2.09496        0.157669        -5.26431
LJ           2.61552        0.173417        -2.53415
LJ           -1.9901         1.95429       -0.308306
LJ           5.21613         3.72335        -1.10916
LJ           5.13009        -4.21707         3.01129
LJ           2.14793       -0.488618        -6.44132
LJ           6.00454        -6.37608        -4.28165
LJ           4.76124          4.6713       -0.188786
LJ           5.52042        -5.44863        -4.15283
LJ           2.42771          -1.192        0.175493
LJ           2.08201         0.93632        0.403499
LJ           4.31774       -0.769732         4.58824
LJ          0.172231       -0.482246       0.0255729
LJ           3.98983         3.42888        -1.42987
LJ           3.68756        -6.01764      -0.0836035
LJ          -4.76779         5.75944         5.24167
LJ           1.94761         1.96367         5.57038
LJ          -5.38581         -2.0342         6.30316
LJ           -1.8852        0.553628       -0.531783
LJ          -1.66708        -5.37457        -2.56006
LJ           1.05167        -5.81813         3.63504
LJ         -0.154446        -5.89887         4.02459
LJ           2.01969        -3.39311        -5.43113
LJ          -1.92799        -5.84834       -0.361173
LJ          -2.66458        -3.65867        0.816554
LJ           3.10521         -1.3937        -1.19378
LJ          -2.50775        -2.38374        0.126774
LJ          -3.09943         2.74815         5.61247
LJ          -1.21178         5.09169         2.58479
LJ          -3.16467         3.88736         3.27076
LJ           1.51115         6.14798         -5.2317
LJ           2.00211        -3.34515         4.15177
LJ          -5.31344        -4.06423        -1.49518
LJ            4.7266         6.07137         3.31272
LJ           4.39088          3.3592         6.01897
LJ          -4.71473        -5.03864         1.17035
LJ           4.32249        -1.78884         4.73425
LJ          -4.36637         2.70829        -1.80003
LJ           4.11915        -4.45358         6.15061
LJ          -4.91626         2.96091         5.11478
LJ          -1.07164          2.1081        -5.73339
LJ          -6.08776        -2.72066        -2.23604
LJ          -1.08208        -2.47573         2.52123
LJ           5.34422        -1.84115         4.64759
LJ           1.87601       -0.239456         4.61751
LJ          0.702941         1.24769        -5.42595
LJ          -4.85252         3.46544       -0.561598
LJ           6.04696        -2.80046         5.86073
LJ          0.938601         3.82081         4.04074
LJ            4.1515         5.63087         2.08048
LJ           2.23807         3.16414        -1.68557
LJ          -5.69287          2.7769         2.71929
LJ         -0.982666         4.45886        -1.54178
LJ          -2.90382         1.40298       -0.476592
LJ          -2.06814         6.16386         3.65827
LJ           -5.9756        -6.36529         4.92822
LJ          -2.38992        0.127995         6.30134
LJ          -5.46378          3.4332        -3.54509
LJ           3.61539        -1.64826         1.00676
LJ           1.08272        -5.54665        0.647496
LJ          -2.29237        -3.84103         -3.4737
LJ           3.71933        0.190377         3.45587
LJ           3.28841         1.97756        -6.00523
LJ          0.589841          6.1856       0.0319074
LJ          -5.30384         4.48199        -6.20958
LJ           2.34307       -0.199332        -4.33638
LJ          -2.00474        -3.74822         5.60881
LJ          0.312471       -0.410931        -2.54007
LJ          -4.74578         -1.8993         4.98792
LJ           1.63476         3.65273         5.94115
LJ           4.63798        -5.42232          3.5247
LJ          -1.59126          3.9313         3.76833
LJ           -3.9866        -5.84533        -2.54667
LJ           1.02223       -0.970027       -0.829192
LJ           2.32645          1.0443        -0.82396
LJ           -5.4989        -5.37567        -4.72598
LJ           4.05151        -2.41621        0.046602
LJ        -0.0392047        -3.09152        0.310529
LJ           2.82991        -4.34867        0.884399
LJ           4.39067        -3.43082        -5.65939
LJ          -1.13072         2.26115         2.23606
LJ          -1.11987         4.86768        -4.09819
LJ         -0.512632         3.35775       -0.725821
LJ          -3.54182        0.855608         6.08538
