108
#Comment!
LJ           5.37372         5.37887        -3.72696
LJ           5.75741          -2.952         1.83925
LJ          -5.31765         5.55643          2.0001
LJ           -3.5132          3.1873         2.31893
LJ           3.11097         2.73445         -5.7316
LJ           4.16197        -6.40189         2.06187
LJ           3.64113         1.52222         1.53761
LJ          -5.23036        -5.97613         -1.6286
LJ          -2.15693        -4.23881       -0.815453
LJ          -2.66514         3.89403        0.786356
LJ          -4.87144          3.6001        -2.74002
LJ          -2.75373          2.2359         4.88117
LJ           2.75397        -1.51429         1.86333
LJ           5.76339        -1.15316        0.957569
LJ           1.69773        -1.24681         1.93908
LJ           4.55511        -1.87874        -6.08414
LJ          -4.68041        -1.62086         4.38904
LJ          -2.39622        -4.94208         3.89151
LJ          -2.53201         1.72709        -6.02829
LJ          -5.13495        -3.59173         2.67074
LJ           1.69745         0.73828       -0.369961
LJ           4.89885         6.44073         3.09924
LJ           3.51444          1.1666         5.06675
LJ           0.88715         5.19629        -6.00077
LJ          -5.22972        -3.87354        -3.56044
LJ          0.745885        -5.60931         1.07346
LJ         -0.508275         5.66898        -4.48173
LJ           4.83605         3.66157         4.69711
LJ         -0.107165        -0.13927         1.07155
LJ           4.20166        -5.11808        -2.66001
LJ          -3.44045         5.92536        -5.87226
LJ         -0.781149        -3.17319        -6.23334
LJ           4.52192         4.82987         1.01115
LJ           5.41181        -4.98697        -2.31142
LJ          -2.26677        -3.73286        -4.07692
LJ          -1.16499         3.05519          2.3188
LJ           6.38011        -1.09308        -4.99795
LJ          -2.84673        0.631322        -3.34659
LJ          -5.13009         3.08244         -5.4072
LJ          -1.32238         4.98299         -3.3285
LJ          0.593323        -4.67878         4.89728
LJ          -5.70702         5.99164        0.866692
LJ           3.36872        0.683274        -1.35474
LJ           4.91579         6.15216        -4.14767
LJ          -3.36532         1.00612         6.28713
LJ          -4.00368          3.9692        -1.15679
LJ          0.280667         5.17085        -3.93143
LJ           5.13142       -0.902031        -5.84394
LJ           4.93602       -0.114207         1.07572
LJ           2.47234        0.663173        -5.19406
LJ          -1.96094        -2.17862        -2.78151
LJ            3.3951         4.97417         3.44394
LJ         -0.661197         2.38262          5.0202
LJ           5.78998          3.9626        -5.43959
LJ           3.44773          3.1063          6.4075
LJ           4.61592        -2.54982        -4.05781
LJ           6.10456         1.05786         5.96979
LJ           6.13609         3.58197         3.15879
LJ           3.36897        -5.47164         5.95807
LJ           2.86781       -0.294321        -6.41501
LJ          -2.98132      -0.0502699         1.80578
LJ           1.13615         1.60257         4.60471
LJ          0.601514        -3.50831         4.71576
LJ           1.10014        -5.71249         5.00765
LJ          0.370875        0.968359         4.34164
LJ           -4.9891       -0.477233        -1.37575
LJ           2.29728         5.74426         -3.3354
LJ         0.0546591        -5.73678         4.62697
LJ           -2.9354        -2.96898         2.32481
LJ          -1.31886         3.27282        -3.18041
LJ            2.7994       -0.728948        -4.68635
LJ           -5.7458         6.02444        -2.19121
LJ          -1.84673         3.14744         6.17212
LJ          -6.30785         4.40163        -5.24605
LJ         -0.412118         3.35756         2.91291
LJ           -5.7768         3.75467         3.45682
LJ           -4.6346         4.63174         3.73276
LJ          -2.03611         3.09754        -1.94089
LJ          -2.43802         5.99606         3.42419
LJ          -4.65965        -4.45381         1.45181
LJ         -0.352304         4.23106         4.84744
LJ          -2.31637         3.38112         5.16695
LJ           -6.1135       -0.149026         -1.8365
LJ          -1.46109         1.85925         3.71972
LJ           2.02615        0.419984         5.89329
LJ          -5.81811       0.0281853        -4.30196
LJ          0.318281       -0.772405         5.35235
LJ         0.0728053       -0.897656        -5.42576
LJ           1.03208        -2.02808         5.98548
LJ            2.3859          1.7507         4.15418
LJ          -6.18467         4.32461        -2.47935
LJ          -4.17489        -1.68211         2.15095
LJ           4.31107         3.32378        -4.89254
LJ          -1.57235        -3.38541         1.52345
LJ          -2.69897         2.68519         6.09322
LJ           2.37583       -0.989238        -3.73451
LJ            1.4213        -6.35867         3.49116
LJ          -4.34249         2.42752       -0.124367
LJ           2.61017        -3.99057        -1.38151
LJ           4.63275        -3.37474        -6.38715
LJ          -2.37821        0.401906          2.9003
LJ          -5.77233       -0.950064         5.27277
LJ          -5.03231        -2.08266        0.971218
LJ           2.95426          3.6435         1.99514
LJ          -1.77572          3.0288        -3.98658
LJ          -2.30042        0.702123         1.39746
LJ          -2.95909         3.78964        -2.68434
LJ           4.32068        -5.55172         2.71583
