108
#Comment!
LJ           2.88321       -0.462611         1.56607
LJ           -4.9558         2.07748        0.341514
LJ          -3.30965        -1.18486        -4.36484
LJ          -4.25911        -5.00616         2.67299
LJ          -4.82444        -2.25117         4.50446
LJ           6.06842       -0.624732         1.66422
LJ          0.901914         1.97897        0.821683
LJ           5.49316        0.223367        -3.95166
LJ            3.5985        -3.26733         2.17044
LJ          -2.56417        -4.19432        0.929049
LJ          -5.68282         4.69706         2.65716
LJ           4.29001           -1.54        -4.33776
LJ          -3.10742        -1.15062         2.51129
LJ          -5.82829        -2.39264         3.67265
LJ           3.10459         2.24148         2.01934
LJ           3.11573        -2.23898        -5.88958
LJ          -4.67918        -2.01472         1.77185
LJ         -0.880309        -3.02879        -4.54486
LJ          -3.62971         5.00698       -0.361893
LJ          -5.21402         3.08374         4.67663
LJ           5.79366        -3.45905         1.13963
LJ          -1.72851         5.40976         1.69492
LJ           5.98586        -3.53655          -1.814
LJ          -2.95547         4.49168        -5.54555
LJ          -3.52223         2.25693        -3.41908
LJ          -3.13611        -2.15622         3.83826
LJ          -3.63357         2.76172        -2.45109
LJ          -3.67359         3.77036        -6.14138
LJ           1.03271         1.57502          4.1446
LJ          -5.05281        -2.51624         2.98595
LJ           4.28729        -3.58323        -3.95776
LJ         -0.428664        -2.23208        0.875034
LJ           1.01997        -5.32116         4.02041
LJ         -0.124478        -1.27403       0.0414367
LJ          -3.81038        -6.37887         3.78262
LJ           1.41177         4.72573         2.47364
LJ          -1.19825         4.27726         2.77171
LJ           -3.3436       -0.425637        0.570534
LJ           2.34728       -0.805235        -3.82584
LJ           1.26806        -3.61517         2.57716
LJ          -5.93234        0.122987       -0.103601
LJ         -0.946123        -3.63081        -1.95603
LJ           2.60422        -1.90917         3.75235
LJ          0.231345       -0.138549        -5.82451
LJ           -5.0178        0.274259         4.57245
LJ          0.589958         3.83179         2.63884
LJ           3.88945        -5.71535        -5.08708
LJ          -5.51784        -4.45212        0.812022
LJ         -0.475557          2.3661         1.97046
LJ           3.41025        0.961201        -4.59581
LJ           3.33823        -2.33888          1.3696
LJ           2.61593         -5.0161        -0.29231
LJ           1.09779         6.10146        -3.31413
LJ           3.48427        -1.49197        -1.18937
LJ           4.37994         4.78977        -1.47999
LJ          -4.33967         6.19699          6.1951
LJ           -5.0905        -4.87634         3.50483
LJ          -4.78706          3.1822         3.46345
LJ           1.88564        0.892905         3.15491
LJ           2.24485         3.27901         2.34535
LJ         -0.998889         2.31872        -6.44142
LJ         -0.147965         2.95207         3.01999
LJ           2.16885         2.23872          3.5787
LJ           3.44898         5.76471       -0.897892
LJ           -4.4429        -3.37307         1.75123
LJ          -4.21026        -1.61718          3.1204
LJ          -5.92303         -6.4186        0.764775
LJ          -5.22979         5.94707         -3.0102
LJ          0.763864         3.43129        -1.62978
LJ          0.876471        -3.41524         5.15545
LJ          -6.39432       -0.394123        -1.39087
LJ           1.18914       0.0940374         -4.9508
LJ           5.86616        -3.96393        -4.56912
LJ            1.7383         6.36357        0.988935
LJ          -5.34126         3.95011        -3.03267
LJ           1.31588         2.23287         2.81308
LJ           2.08111        -3.47691         4.84996
LJ          -5.88271         -2.6834         1.56547
LJ          -1.50538        -3.14049        -2.93297
LJ          -5.06718       -0.944734        -6.13778
LJ           3.93745        -4.19273        0.325134
LJ           4.81607        -4.20837        0.699532
LJ           4.20347         4.12231        0.964827
LJ           -3.5199         2.01206        0.560424
LJ          -3.43649       -0.463357        -5.97812
LJ          -3.82487        -1.91055         6.00187
LJ          -2.61456        -4.41509          1.8564
LJ          -1.47317         4.85701         4.80879
LJ          -2.64011        0.745447         4.21839
LJ          0.996233        -2.68858         3.17076
LJ           4.14833          6.1448          3.1569
LJ          0.989572          1.0477         6.32297
LJ          -3.96923        0.978047         6.13917
LJ          -6.24052         5.15229        -1.82993
LJ          -5.15673        -4.17567        -3.31883
LJ           1.80374         2.62516       -0.859704
LJ           4.03874         4.33719         6.08739
LJ           2.43174        -1.09001         -1.0308
LJ          -5.96397        -1.73522        -6.42842
LJ          0.955759         3.85868        -4.46199
LJ            2.7075        -3.89955        -0.31654
LJ          -5.85844         1.00316        -2.05716
LJ            1.8913         4.88359          4.2715
LJ          0.546508           -4.08        -4.14921
LJ          -4.38305        0.272413        -4.60567
LJ          0.553157        -4.64518        -1.85253
LJ           2.99358         -5.9897         1.03591
LJ           3.34792         -5.7991       -0.132796
