108
#Comment!
LJ           4.07461          -3.788        -4.93268
LJ          -3.64336         2.82188         2.98808
LJ           5.34622         1.37395        -3.00144
LJ         -0.417588         1.64124         6.13098
LJ         -0.802341         3.90038         1.95613
LJ           4.11029         3.32395        -3.09609
LJ          -4.29211        -5.18583        0.984988
LJ           6.21207        -2.83862         5.07264
LJ           5.76289        0.470576        -5.95669
LJ           -4.3231       -0.025737        -4.72379
LJ           5.07306         3.01064        0.582545
LJ          0.947806        -5.50554         5.20134
LJ          -2.20408        -3.86602         5.36731
LJ           5.60769        -1.04499         1.32795
LJ            6.1016         2.94348        -1.87472
LJ           1.43578         2.81618        -4.56001
LJ          -3.99668        -1.77895         0.30407
LJ         -0.841202          5.8736        -6.39129
LJ            5.8214         2.01989       -0.119375
LJ          -0.83448         4.30728        -1.26099
LJ           3.87667        -3.53725         5.29562
LJ          -3.83765        -5.80206        -6.39042
LJ           3.29395        0.675055       -0.644785
LJ          -5.99215         -5.3427          4.5289
LJ          -2.45895         4.71883        -3.34791
LJ          -3.00174         4.69831         6.21096
LJ          -2.59434       0.0398962        -5.78095
LJ          -6.29102        -3.70816        0.167973
LJ          -2.91695        -1.01293         -1.5762
LJ           4.70326        0.861753         2.27988
LJ           4.70028        -3.61162         1.66281
LJ          -1.61862        0.141181        -2.97002
LJ          -1.08414        -5.34555       -0.822462
LJ          -3.17434         3.81521         3.47289
LJ          -1.24985          3.1106        -1.47581
LJ          -6.40923         4.65748        -2.93399
LJ          -5.91791        -6.25127        -5.90253
LJ          -6.27157        -4.03178          1.2225
LJ           5.41755         5.38223       -0.528162
LJ          -1.50978        -4.89217       0.0265541
LJ          -5.65038         -1.5692        0.175326
LJ          -1.84286        0.185375       -0.825347
LJ           5.97313        -3.91862         4.58348
LJ          -1.45256        0.405767        -4.20626
LJ           1.57519        0.456777         5.20189
LJ          -3.00156        -2.77349          -1.219
LJ          -4.24675        -1.77771         4.93379
LJ          0.272117          3.5641         4.09156
LJ          -1.71283         6.09222         3.96621
LJ          -5.88375        -3.67761         4.81316
LJ          -5.04034         3.27517        -1.53515
LJ           6.01135        0.762292         2.64596
LJ          -4.39859         2.44163        0.143837
LJ            5.2034          2.3025        -4.67857
LJ           2.14451         3.98858        -6.27001
LJ        -0.0601591        -6.19396         3.96993
LJ           2.19713         5.18589         2.28904
LJ            5.4333        -6.28879         3.44572
LJ           -2.2095         -2.4135       -0.862039
LJ           5.59166         5.53884         3.68963
LJ           4.35187         2.10733       -0.954849
LJ           3.93122         5.09148        -6.01562
LJ           5.21933       -0.350998         2.23263
LJ          -2.58987          3.9904         1.40845
LJ           4.85431         2.44893       -0.134357
LJ           5.94069         2.28597         1.95361
LJ           5.03306        -2.14366        -2.41203
LJ           2.31859        -3.65505        -5.59881
LJ          -3.43284         2.04853        -1.71951
LJ           4.75375         3.44837         6.17336
LJ          -3.41708        0.407378         6.36293
LJ            1.9543         0.31664         2.96937
LJ          -1.83651         2.71825         1.18712
LJ         0.0783518        -4.82402        0.608788
LJ          -2.76734        0.471974        -4.55611
LJ           3.67632         3.83749         2.90335
LJ          0.527857         4.48651         3.14202
LJ           5.67518        -3.18816         3.27192
LJ          -2.68712       0.0865095        -2.47657
LJ           0.57877        -3.62859      -0.0205152
LJ           2.20835         3.77034         5.62043
LJ          -4.05859         4.30872        -2.30947
LJ          0.465037         4.56162        0.293607
LJ           3.10671          3.1017         2.11778
LJ           2.73243         -2.2756        -6.11035
LJ           5.94129        -4.89915        -6.08555
LJ          -5.71735         3.90302         1.00399
LJ          -3.76289        -1.99263        -4.88679
LJ          -4.04978        -5.17205       -0.623926
LJ          -4.74656        -4.33071         2.66987
LJ          -2.19223         3.71066         2.44031
LJ           3.37392       -0.755446        -4.16157
LJ           5.85907         0.16533        -2.83852
LJ           2.24436        -6.37944        -5.74131
LJ          -2.36805         5.96948        -4.80845
LJ          -1.64904         0.88015        0.418103
LJ          -3.96334         3.61319        0.601195
LJ          -6.29584          5.0613         4.14202
LJ          -4.22834         5.15158        -1.46469
LJ           2.93155        -1.83654        -1.67376
LJ          -3.76994        -3.88061        -4.90935
LJ         -0.116461        -2.65662        -4.25851
LJ           4.66715        -4.64858        -3.98052
LJ          -4.77947         -1.1049        -3.52011
LJ           3.49285        -3.15917         -5.9668
LJ           4.39262       -0.759263        -1.83592
LJ          -6.32412        -3.40263        -4.78371
LJ         0.0408678        -3.84332           1.601
