108
#Comment!
LJ          -2.02081        -1.32774        0.537018
LJ          -4.16961         5.19747         1.62637
LJ           4.44961        -6.21499         -6.2017
LJ           4.94675       -0.799968        -6.04037
LJ           5.76773        -0.88374         3.10716
LJ           1.41724        -4.86754         2.90229
LJ           5.42044        -2.22121         3.50567
LJ          -1.23915        -3.35395         -3.7923
LJ          -6.28562        -1.36897        -5.35757
LJ            5.0502        -2.75116         4.25024
LJ           -2.0612         1.16668        -2.63389
LJ           -3.5431        -3.72785         4.12104
LJ           1.92884          3.5244        -2.12187
LJ           4.05174        -3.70765         3.83627
LJ         -0.812716         2.13717        -3.81285
LJ          -2.21378         4.76932         5.03112
LJ           4.83937        -5.25882        -1.44725
LJ        -0.0493106        -5.95606       -0.119799
LJ           3.90679       0.0849511         2.86412
LJ          -4.77764         4.39796         1.48244
LJ          -5.47289         2.91515        -4.24877
LJ          -1.90241         4.99605        -5.61633
LJ          -3.07261          6.3044        -5.50821
LJ           1.19656         -5.7732        -2.68482
LJ          -3.46467        -1.59244        0.956293
LJ           -3.5747        -4.17298        -4.46357
LJ           4.10912         3.65042        -5.14711
LJ           -1.6638         5.68144         6.26132
LJ           4.76442         5.64975        -1.60809
LJ            4.4722          2.8464         3.99976
LJ          -2.57535        -2.08358         1.84685
LJ         -0.982135        -1.87687        -2.31811
LJ          -1.52661        0.362664        -2.85221
LJ           4.65825         6.04929         3.84335
LJ          -3.43063        -2.78719        -2.37169
LJ           1.61976       -0.906539         2.87904
LJ           4.80596        -1.79526         1.82806
LJ          -3.10286         1.39968        -1.03329
LJ            4.2671         3.79003         1.83453
LJ           3.67656        -5.08136         5.08684
LJ          0.819419         5.44939         3.72403
LJ         -0.933577         4.16287         4.96697
LJ          -2.34763         1.77719        -1.56018
LJ          -3.89416         5.43073        -4.30867
LJ         -0.590034         4.49482         0.87362
LJ          -5.49438       -0.492595          2.5205
LJ          -4.24689        -1.66402         2.12294
LJ          0.661803         6.09242        -1.56997
LJ           1.48577         5.99665        -4.45908
LJ           1.18514        -4.53716         4.14811
LJ           6.23197         -1.9764          5.9801
LJ           1.55166        -5.90854         3.46394
LJ          -5.68023         6.06675         -5.1787
LJ          -4.43338         5.20643         -5.8848
LJ          -4.42692          5.6814        0.470161
LJ          -1.75561        -1.74611        -1.03463
LJ          -4.79003        -2.18614           -5.01
LJ          -3.05536        -5.96275          4.9466
LJ          -1.18093        -4.48453        -3.14379
LJ           5.01182         4.79682         -3.5508
LJ           4.56948        -5.66492        0.894225
LJ         -0.374233         6.17966         -1.1079
LJ           2.97124         3.97704        -2.55095
LJ          -5.13142        -4.04849        -1.15164
LJ           5.84491         4.13779         4.50819
LJ           5.45945         4.74873         3.63326
LJ            5.7004        -6.44651        -4.11558
LJ          -4.43242        -0.87562        -3.10228
LJ           3.65649         5.25255         5.91298
LJ          -1.80436        0.782286       -0.750293
LJ          -4.74695        -6.38633         5.75622
LJ          -1.54774        -4.26974         2.47584
LJ           2.09218         2.38556         1.15056
LJ           4.25585         5.64037        -4.44102
LJ          -1.68073        -2.34508         5.64421
LJ          -1.79059         2.88416         1.89711
LJ          -2.82976        -2.24214        -1.43493
LJ          -1.05141         1.52246         5.89603
LJ          -5.68161        -3.13322        -3.05263
LJ           1.49622        -2.85956        0.242478
LJ          -5.92199         3.24646         5.02979
LJ          -1.34845        -4.79026         3.56497
LJ          -4.52713         2.51554         2.00439
LJ          -1.72142         5.65207          4.6314
LJ           3.12435         5.76873         4.83735
LJ          -3.86759         2.48809        -3.33026
LJ           5.39268        -5.10961         5.74408
LJ          -3.45898         -5.1373        -3.50339
LJ          -3.89395         -2.0513        -1.66564
LJ           1.35318         2.27257        -5.56425
LJ           6.10603       -0.476301         5.80915
LJ           3.64261        -4.10117         1.83797
LJ           2.89063        -1.36522         2.24981
LJ          -4.80036        -3.59456         5.58968
LJ           1.98778        -6.42535         5.93962
LJ           3.66999          5.7335       -0.604131
LJ           2.09844         1.19155         1.77973
LJ          0.245671          -2.989           1.922
LJ           5.78572         -4.7322        -6.35833
LJ          -1.32306         2.36715        -2.70932
LJ          -2.21642        -3.01737        -4.47954
LJ           -2.7204        -5.09634         4.08167
LJ           6.40441        -2.79884        -6.19686
LJ           5.55357        -3.86695        -1.37081
LJ          -4.81028        -4.44719        -5.40551
LJ           1.04126        -4.84597        -1.54239
LJ           5.38544        -4.88646        -4.17835
LJ          -1.40157        -3.79315         4.20751
