108
#Comment!
LJ           4.99251       -0.162104        -5.01793
LJ          -2.42765       -0.988308         5.97959
LJ        -0.0759056        -5.73669       -0.296788
LJ         -0.444038         2.10372         2.14077
LJ           5.13538        -5.04824         4.35694
LJ          0.871694       -0.834525        0.558131
LJ          -4.70525         1.54373          5.1423
LJ          -5.85293          4.5953         -3.2484
LJ          -4.58582         6.16526       -0.993372
LJ          -3.74574        -1.49322         2.48427
LJ          -3.48718        -1.72097        -5.18601
LJ           3.65259        -0.47441        -2.10805
LJ          -2.37531        -3.77964        -5.87363
LJ           4.82582         4.18676         3.56432
LJ           -1.3931        -4.69514        0.290672
LJ          -5.15543        0.613421         3.90835
LJ          -1.76438        -6.35829         3.08955
LJ           2.38015         3.32748        -2.80742
LJ          -5.65797        0.334418         5.63735
LJ          -6.44979         1.10853        -5.67329
LJ           -5.6619         3.74063        -1.12375
LJ          -3.23039        -2.71052         4.90986
LJ           3.67877         -1.3222         4.13528
LJ           1.66108        -5.27162        -2.25629
LJ          -4.65449      -0.0146673        -2.57655
LJ           4.58439          6.3512         3.58156
LJ           5.18003          6.0919         4.44517
LJ           1.12483         5.67707        -5.42574
LJ           4.43728         5.31888        -2.32522
LJ          -3.86848        -1.31966        -6.22926
LJ          -5.59718        -2.22847         5.18673
LJ           2.79355         4.50796        -3.67904
LJ           6.07423         -4.6867         6.33463
LJ          -6.20306         1.65177         3.71642
LJ          -0.95982         5.98699         1.62199
LJ          0.120421         1.76853       -0.108091
LJ         -0.376164        0.767961        -1.10727
LJ           5.83882         5.57934         5.12808
LJ          -2.48757        -2.25941       -0.469272
LJ           4.37023        -6.08089         2.53917
LJ         -0.424087       -0.208297        0.465403
LJ          -2.87049         6.11087        -3.10145
LJ          -1.61799         0.11396         2.39388
LJ          0.836801        0.846143         -1.0175
LJ          -4.79482      -0.0593979        -5.06664
LJ          0.928548         -1.8446         6.36138
LJ           2.79573         1.76967        -6.34713
LJ            6.2749         3.58418        -5.57626
LJ          -2.85317       -0.288483        -1.98765
LJ         -0.487465        -2.65056        -3.49738
LJ           2.66463        0.197656        -3.05874
LJ          -5.03131         5.81551          4.8492
LJ           4.08476         1.54413       -0.790125
LJ           3.67087        -3.79992         -3.5412
LJ          0.536884        -5.63862        -3.04766
LJ           1.74449        -3.30075        -5.55411
LJ          0.181815         3.97006         5.87772
LJ            1.9331         1.26268        -2.65681
LJ           3.63281        -3.63519       -0.731504
LJ          -5.40608       -0.166057         4.40473
LJ            5.8871        -5.36147          2.2434
LJ           3.15159         1.47018        -4.66244
LJ          -2.61922        -4.31098         3.56192
LJ            1.3047         1.96065        0.167868
LJ           3.81607         5.66302         1.76523
LJ           5.44475         4.16279        0.934247
LJ          -3.55923         1.39365        -1.68374
LJ          -1.69957         3.81171          4.9833
LJ          -4.92256        -1.00416         3.40149
LJ           6.33884          3.0421         3.57642
LJ            -2.108         4.25749         3.82823
LJ          0.670364        -3.91348        -5.09531
LJ            2.3065         4.71791         5.79585
LJ            6.1544         2.34656        -1.93829
LJ          -6.34704         6.38474         6.44096
LJ          0.535261         3.74081          4.5687
LJ           6.31148         2.19498       -0.388369
LJ          -4.76584         3.05428         6.01633
LJ          -2.26471        -5.92318         4.02223
LJ           2.88845         3.11607        0.186161
LJ           -2.3511         1.78228        -1.74457
LJ          -3.64197         4.69517        -4.04573
LJ           4.66484        -1.30313        -5.60165
LJ          -3.11292         1.00559       -0.289301
LJ         -0.394004        -4.67373         4.43359
LJ          -3.83926        -2.63395        -4.18105
LJ          -3.14079        -6.13629         -1.4486
LJ         -0.210952         2.61403         4.19797
LJ           4.74994         4.40906         2.35534
LJ            5.4426         4.60802         5.57192
LJ           4.72919        -3.49307       -0.700872
LJ           1.51363         4.50369         -5.5478
LJ           4.23335        -4.25057         3.55987
LJ          0.779467        -2.94892        -5.06341
LJ           5.38798        0.467792        -4.02093
LJ           1.95767        -6.10947        -5.66645
LJ          -2.10167        -5.97773           6.307
LJ          -5.47814         3.16475          4.7372
LJ          -2.64112           3.281         1.66236
LJ         -0.539142       -0.813194         2.86271
LJ          -3.77531         6.30677         -4.5025
LJ           5.25902         2.73435        -2.45984
LJ           6.02745        -6.23328        0.894125
LJ           4.22244         5.53788         4.89637
LJ          -5.65159        -4.01373        -2.37255
LJ           3.36208        -4.48051         6.28195
LJ         -0.537766         1.86578         -4.1692
LJ          -4.74942        -3.54381         4.30069
