108
#Comment!
LJ           -5.8848          4.1749        0.848125
LJ           2.93839         1.90351         4.54941
LJ          0.564179        -4.57319         6.11178
LJ           1.02589         3.08145         4.08555
LJ            1.4166         -4.3075        -1.60109
LJ          -1.04376        -2.00355        -1.34537
LJ          -1.72365        -5.76765        -5.01608
LJ           4.81527         -3.6567         5.91566
LJ         -0.724801      -0.0765071       -0.327668
LJ           6.16688        0.582243        -2.31104
LJ           1.97994       0.0483064       -0.756484
LJ          -5.85686        -2.01713        0.472287
LJ         -0.649821         2.74219         4.90788
LJ          -4.87932        -5.09274         5.28311
LJ           2.32266         4.31268        -5.37815
LJ           4.06996         1.36632         4.25556
LJ          -1.71413        -4.06751         2.68144
LJ          -4.70924        -5.07644        -5.33891
LJ           6.09068        -5.08612       -0.997264
LJ           4.87609         5.48758        -5.20593
LJ          -1.76703         6.19658         4.80785
LJ          -4.22775        -5.57008        -6.11764
LJ           6.24129         2.11941         0.83577
LJ          -1.53741        -4.92218         1.46829
LJ          -4.10614         5.02832         5.50685
LJ          -2.39862        -5.07345         2.56703
LJ           4.05715         2.49166        -5.66017
LJ           2.38888           1.548         2.01064
LJ           1.63523         -4.9101        -5.46639
LJ           3.74633         6.33586        -5.59186
LJ          -2.28075        -3.57882         1.90214
LJ          -4.79904         5.40883       -0.685471
LJ        -0.0561298        -1.76988         4.73655
LJ           1.64304         5.32765         1.96134
LJ           1.42639        -3.75943         -2.7037
LJ          -1.93071         4.90019         -6.2789
LJ           3.10749         1.86037         -1.4842
LJ          -5.19692        -0.90592         2.11411
LJ           1.02936         5.34092         4.46884
LJ           4.00044        -3.98829          1.7166
LJ          -3.10747        0.222649     -0.00827069
LJ          -6.38963        -1.63851         3.49016
LJ          -5.33189          2.7498        -4.60068
LJ            4.7144       0.0604948         1.98105
LJ          -4.56543        -3.68046         3.60908
LJ          -5.54625         4.93359         1.49963
LJ          -3.35719         -1.9864        -3.36109
LJ          -5.29415       -0.184957        -6.34216
LJ           4.09818         3.39111       0.0342642
LJ          -2.17456         4.91233        -3.12282
LJ          -2.78878         1.77272         2.04754
LJ          0.947312          3.0439         2.30855
LJ          -3.05308        -4.58497         5.80441
LJ           3.56646          2.7101         5.14098
LJ           -2.8366         1.27498          5.6497
LJ          -5.32434         5.35125          5.1741
LJ            2.9182        -5.71494        -3.02939
LJ           1.27795         5.72477         0.46357
LJ          -1.33041        -1.06315         4.08928
LJ           2.16408         3.49029        -4.23596
LJ           1.79234        -5.29914      -0.0416437
LJ          -4.06056        -6.41049        -4.55457
LJ           1.10136        -4.01594        -4.87012
LJ          -6.38111         5.22271        0.161349
LJ           1.55629        -3.82727         3.21164
LJ         0.0699997        -3.29685         5.29208
LJ           -2.7039        -1.46372        -4.27637
LJ          -2.90307        -3.26717         4.03558
LJ          -6.09511      -0.0658463        -1.19487
LJ           -0.7767         -5.9493         3.30996
LJ          -5.72253        -3.67815         4.67642
LJ           1.74018         5.80506       -0.794829
LJ          -6.18015         4.09933        -2.01343
LJ           1.19811         1.53476         4.47747
LJ           4.40738        -3.52243         2.57268
LJ             1.601         -3.4889       -0.108502
LJ          -6.09131        -1.68016        -4.07112
LJ          -1.98307        -4.40798        -5.77178
LJ          -2.71334        -5.13782        -5.43744
LJ          -4.67443        -4.78417        -4.25265
LJ           4.24462        -5.73605       0.0639854
LJ           0.38426         3.17723        0.126957
LJ           3.49147         3.95308         4.84005
LJ          -4.74036         4.17299         5.44594
LJ           5.95116         1.05882        0.357449
LJ          -4.08283         -5.1796          2.5892
LJ           5.04426         3.98377         1.49331
LJ          -1.53586         3.40872       -0.841204
LJ           4.85229        -6.07656        -5.75005
LJ          -1.17123        -5.27196        -3.52718
LJ           1.29323          5.2934         -5.0761
LJ           5.39454         1.52717        -3.65183
LJ          -3.96467         2.48042        -3.43636
LJ           4.24529        -1.19103        -1.44596
LJ         -0.328809         -5.7537        -5.11757
LJ           1.25425        -5.67077        -1.87696
LJ           5.36627         2.80959         1.07925
LJ          -5.10952         -2.4431         6.08515
LJ          -1.15571        -4.86372        -2.37331
LJ           1.30505        0.917293       -0.660367
LJ          0.254402         1.84192         2.86075
LJ           4.25461        -3.17427        -4.27237
LJ          -2.64287        -3.70028        -1.83323
LJ           2.58855        -2.22567         3.21483
LJ           4.46979         -1.6216         2.53564
LJ           6.05374         5.92281         5.11918
LJ          -3.19096          1.7547       -0.337917
LJ           2.72719        -6.44728        -4.96017
