108
#Comment!
LJ          -4.01533        -1.30054         3.59064
LJ           4.06419        -2.61063        -5.98154
LJ          0.323594        -4.03767        -4.49331
LJ           0.21002        -4.25276        -6.45601
LJ          -4.74795        -6.10253       -0.865537
LJ            2.4771         4.11894         5.13109
LJ           -1.1417         2.63506         1.30818
LJ           3.52332         4.64787         1.72505
LJ            3.0803         1.26714        -3.42293
LJ          -3.65948        -3.52398         6.16035
LJ          -4.64562        -3.89294        -6.38524
LJ           6.17231         4.99666         2.36996
LJ           3.55322        0.500766        0.769747
LJ           4.90347         6.42849         4.20048
LJ          -4.73117        0.174252         5.78875
LJ          -1.90554             1.9         3.27451
LJ          -1.81911         2.84159        -4.60464
LJ         -0.710497        0.966781         1.29104
LJ          -5.33002         5.18283        -4.41727
LJ          -3.02148         3.10618        -3.52414
LJ          -1.58928        -2.00309        -4.05185
LJ           3.20223       -0.181608        -2.15568
LJ           6.03237         4.46443         0.14113
LJ            2.6442        -0.96823         5.84144
LJ          -5.60844        -4.35785        -4.52085
LJ         0.0330029        -4.47172        -2.49574
LJ           4.17237         3.18315        0.574613
LJ           -5.3527          4.1349        -4.35733
LJ          -2.34223        -0.99526        -3.55509
LJ          -1.15835         3.93588         5.35509
LJ           6.21513         5.45593        -1.00245
LJ          -4.41838        -6.05624          1.6368
LJ          -5.12087        -3.26626         4.00976
LJ           6.15581        -3.12242         4.30998
LJ           3.89531        -5.76652         2.94165
LJ          -1.21931        -2.69968         1.77395
LJ          -4.78044         5.91573        -5.16039
LJ           3.09962         5.02785         4.94542
LJ          -2.31597         4.24968        -2.24149
LJ           5.19077        -1.31186       -0.235761
LJ          -1.64281         1.92904         1.96715
LJ        -0.0590524        -2.28547        -1.14554
LJ            -3.751         3.45708      -0.0183369
LJ           4.83535        -1.01346         -5.3713
LJ          -5.70497       -0.462784        -4.82769
LJ          0.347399        -5.64167         1.88379
LJ          -2.99521         3.11785        -6.28911
LJ          -2.49582        -5.16337       -0.729426
LJ          -6.22999        -1.99487       -0.436752
LJ           5.44592        0.977888         6.34551
LJ           4.94331         4.42317         2.40689
LJ           3.35781        -5.80246         4.34681
LJ           1.97749         2.34686        -4.82442
LJ           4.15248        -5.13537        -3.36716
LJ          -4.34488        -3.13036         3.22742
LJ         -0.535183       -0.693478       -0.507836
LJ           -1.9812         5.14637         1.65145
LJ           2.69461         2.97522        -2.29447
LJ           3.69304         5.99543          4.8646
LJ          -4.99418        -5.33059        0.455815
LJ          -1.22528         4.78835        -1.13476
LJ          -1.67443         4.64883        -6.10213
LJ          -2.71781        -6.20463         2.93538
LJ         -0.222131        -3.91663          4.0076
LJ          -3.62651        -4.43394         3.48178
LJ          -3.00076        -6.16377        -1.30175
LJ          -5.36862       -0.966258        -2.94487
LJ          -4.96119        -1.04713        -5.20699
LJ           3.93984         1.08381        -4.04227
LJ          -5.72465         4.12189         3.87281
LJ          -3.17387        -1.03006        -4.18694
LJ          0.646086        -4.79467        -3.16465
LJ           3.27784         1.65537         1.41529
LJ           5.44326        -6.33296        -4.62379
LJ           2.94836         5.60081        0.286292
LJ           3.99363        -3.51785        -3.60802
LJ          -3.82732        -2.26628        -3.84941
LJ          -6.17697          5.4055        -5.61933
LJ          -6.38399        -2.49801         1.93827
LJ         -0.652128        -6.00992         5.72357
LJ           3.76153        -4.16518       -0.480478
LJ          -5.93419        -4.20577         2.53321
LJ           2.51582       -0.377669         1.18845
LJ          -5.43643         1.51473         3.48665
LJ          -1.91822         3.77489      0.00582626
LJ          -2.92722       -0.212647        -3.57931
LJ         -0.708911         1.51875        -1.97618
LJ           3.08151        -5.61974         1.92349
LJ          -1.28732          2.8271        -5.50673
LJ           4.59494        -5.95137          1.6297
LJ          -2.66122        -5.99682        -5.12053
LJ          -5.51522          1.4346        -1.05365
LJ           2.10626        -4.01643         6.13861
LJ           -1.0623        -1.25946        0.833848
LJ          -1.53968        0.219557        -3.80362
LJ         -0.769151         1.28731        -4.70001
LJ          -3.94677         5.15293        -3.53169
LJ           1.19631         -4.6497        -4.33162
LJ           3.68938         0.80849       -0.308041
LJ           6.44262          2.0897         6.07652
LJ          -1.88517        -3.22421         4.23656
LJ          -5.03544         6.01913         4.95186
LJ         -0.913446         1.99524         2.83724
LJ          -5.17694         4.94477         4.03972
LJ          -6.31175         2.75314         3.08365
LJ           4.20543         2.51609         4.19568
LJ          -1.95701        0.463813        -2.07711
LJ           5.70257           4.497        -4.84385
