108
#Comment!
LJ          -5.73855          3.7695        -5.56525
LJ           4.92443         5.56182        -3.86958
LJ           3.41844         5.96263        -5.40561
LJ          -2.86493           1.505         6.42655
LJ           0.44677         6.28051         3.22295
LJ          -2.99262         1.56688         5.29824
LJ          -3.76126          3.1614        -4.87845
LJ        -0.0806502        -6.43095         0.86362
LJ          -5.57435        0.621961        -1.98645
LJ          -5.73889         4.66958          5.2849
LJ           4.22717        -2.46672         -3.2404
LJ          -5.62424        -4.94336        -3.71318
LJ          0.597629        -3.83315          -4.024
LJ          0.869088         2.58462        -5.60536
LJ           4.39381        -1.18813         4.86569
LJ          -3.38582        0.755408         2.28477
LJ           -3.7919       -0.653766        0.581058
LJ          -1.77221         4.77814           2.432
LJ           2.01936        -1.65219        -1.26619
LJ           2.75298       -0.700643         5.05299
LJ          -1.05947          5.2319         1.54444
LJ          -1.10486         -5.7279        0.375808
LJ           1.78781        -5.79483        -5.52796
LJ          -1.97142        -5.64039         5.60905
LJ           3.46488         2.10956        -1.85781
LJ             -4.51         1.66321         1.22721
LJ           -2.6953         3.95115         6.45831
LJ          -3.28146         -6.1012       -0.623883
LJ            4.9701        0.757129        -6.36362
LJ           3.33073         1.80025         1.40634
LJ           2.94966        -4.27811        0.380637
LJ           5.81048        -5.78018        0.788692
LJ          0.345659         3.23385        -6.30474
LJ        -0.0267159         1.54401          5.0744
LJ           -0.3059         1.05346        -4.41388
LJ           4.88854       0.0282377       -0.561654
LJ           5.47807        -0.36589         3.33947
LJ          -5.84912        -3.58671         -1.1242
LJ           6.03245         3.54598        0.924043
LJ           0.91746         6.00916        -5.19399
LJ          -1.49283        -5.70274        -5.22607
LJ          0.951911       -0.425138        -6.35674
LJ           4.94794       -0.245826        -2.11691
LJ           3.09686        0.862646          4.7913
LJ            4.4557         3.17191         4.88563
LJ           -2.1139         6.39787        -2.11411
LJ           4.04573        -1.76383        -0.28644
LJ           4.14273         5.08222          -6.244
LJ            5.0361        -0.20607        -5.89685
LJ           5.62964         4.68214        -3.91772
LJ           1.83484        -1.43778        -6.23073
LJ          -4.39533         1.67397         2.80983
LJ          -3.35303         4.45157         1.85447
LJ            1.9333         1.19188        -4.01607
LJ           5.09292         6.24217         2.09197
LJ          0.637537         6.40833        -2.74684
LJ          -1.99792         3.28948         4.20627
LJ          -1.59325         1.41881       -0.364118
LJ          -2.98315         3.71144         3.67109
LJ           5.94016        -3.19068        -5.51297
LJ          0.835295          1.7581        0.905039
LJ          -3.30106        0.420479        -4.57204
LJ          -1.75754         2.84318      -0.0400849
LJ          -5.54967         1.95331         2.09152
LJ           5.79883         5.93047         3.59085
LJ          -3.61528         2.50471        -1.13476
LJ            6.2838         6.00808         2.54247
LJ           5.17026          5.6151         1.23311
LJ           2.07437         6.38385         2.29109
LJ          -5.42148         3.04859         2.54242
LJ          -5.69108         -2.3748         5.71049
LJ          0.220756          4.4644         1.36819
LJ          -6.31983         4.29249         3.94594
LJ           -5.7035       -0.335793         1.51281
LJ          -3.37167       -0.486089        -3.71808
LJ           -6.4207        -6.31594        -5.60821
LJ          -5.18585         3.12727        0.515046
LJ          -6.21924          3.4634          5.9169
LJ           1.37199        -4.00572         2.91485
LJ        -0.0431386        -5.27962         3.53501
LJ           3.78988        -2.71903        -2.46873
LJ           1.93048       -0.683208        -3.60494
LJ           -3.5901        -3.69881        -1.43541
LJ            4.5026         -1.3809        -1.45318
LJ          -3.06016         2.88392        -6.02065
LJ            4.6241         2.23314         6.14041
LJ          -4.48696       0.0651236          1.4546
LJ          -6.02761         2.84282        0.895714
LJ         -0.573463         4.17403       0.0127188
LJ           3.25504        -5.97266         4.70555
LJ           4.84604         4.86903         5.41656
LJ           1.46483         -5.2621        -2.35795
LJ           4.31657        -5.02845         1.94032
LJ         -0.707016         0.25211        -6.22636
LJ          -1.53159         4.53415        0.121241
LJ           4.80645         3.66658        -3.87412
LJ          -3.87362         4.75303        -1.61549
LJ          -3.70049         4.12403          4.9567
LJ          0.286841         5.70323         2.05395
LJ           5.79353        -1.94133        0.751399
LJ           4.59448         1.94968        -4.73773
LJ           3.87002         5.87061         0.50804
LJ           5.60266        -5.17646         5.99744
LJ           2.72342         3.69375       -0.979494
LJ          -2.94255       0.0947448         4.65115
LJ          -1.43555        -5.96903         1.93099
LJ          -2.87711         2.12184         4.29073
LJ          -3.19996         5.66645        -1.70383
