108
#Comment!
LJ           2.31767        -5.99672        0.888325
LJ           -3.7913         1.13566         2.07427
LJ          -1.55823        -1.74876        -3.86654
LJ          -1.14417          0.1864       -0.680314
LJ          -0.12289         5.54592        -1.76454
LJ           5.40878         5.32739        -1.70259
LJ           4.88253         2.07605        -4.44498
LJ          -6.25672        -5.65962        -5.46137
LJ           3.32118       -0.751687         5.73587
LJ           1.11919        -5.66858        -4.70402
LJ          0.171904        -4.58314        -4.70442
LJ           -2.6571         4.91911         4.84663
LJ          -2.12079        -6.25453         0.41486
LJ          -2.95668        -5.33506        0.102037
LJ          -5.08944         5.82228         5.10393
LJ           1.13548        -4.08294        -4.46999
LJ           3.98636        -2.69395         2.23046
LJ           4.57889        -3.52794         1.98911
LJ           3.36556         6.22965        -5.57857
LJ          0.881661        -2.25923        -4.57566
LJ          -3.38601         -4.2673         1.80772
LJ          -6.26426        -4.40807         5.68004
LJ           6.29994        -6.15356         4.11444
LJ         0.0539705         6.04747         2.99213
LJ          -3.67777        -2.23653        -5.87889
LJ          -0.62479        -3.04206        -4.33548
LJ          -5.09741         2.27447        -4.70504
LJ          -1.34104        -1.89195        -5.81491
LJ          -5.14779         -5.6099         1.73676
LJ          0.410797         5.34826         1.53616
LJ           2.18672         3.17301         1.37528
LJ          -2.83519         3.01578         2.85481
LJ          -2.99807        -3.20028         1.95342
LJ           3.19419        -4.01164        0.220883
LJ          -3.98458         2.95862         5.94304
LJ          -2.12093         2.90287        -6.02877
LJ           5.45968        -3.90736        -5.56421
LJ          0.639376         1.86468         2.10514
LJ           3.69618         2.97803          4.7146
LJ           4.32338         2.11085        -1.12598
LJ          -5.31488          6.1991        -2.41373
LJ          -1.96827        0.328878         3.79165
LJ          -2.70008        -6.13486        -2.74992
LJ          0.534895         3.42287         3.52425
LJ          -6.05457        -4.68878        -2.08074
LJ        -0.0265923        -3.64044        -3.59568
LJ         -0.751102        0.882615        -4.78298
LJ          -1.19031        -1.33289         5.30454
LJ          -5.99532        -4.55674        0.166239
LJ           1.73033        0.134171         0.94274
LJ         -0.603179         1.76637        0.537773
LJ          -1.80841        -2.71096         3.65788
LJ           4.76825         5.19392        -3.98109
LJ          -4.55182        0.143389        -1.70914
LJ           2.21831        0.648949        -6.14191
LJ         -0.321189         3.54014         4.35235
LJ           1.42783         4.71181         6.11123
LJ          0.949223        -4.77165        -6.03289
LJ         -0.306254         5.21195        0.722333
LJ           1.04042         2.04161        -2.40239
LJ          -5.33949         1.12269         1.63378
LJ          -5.15528        0.605113        -4.60987
LJ           1.52435         4.97684        -5.50957
LJ           1.33505       -0.228483          3.6748
LJ            4.3973        0.953504          6.2904
LJ           2.91074         4.69697        -2.43947
LJ         -0.442638        -1.53384        -4.41981
LJ          0.335523          4.8168        -6.14342
LJ            2.2629        -2.20216        -1.03813
LJ          -5.73003        0.206389         -2.7607
LJ           3.36826        0.696863         5.09325
LJ           5.18702         4.51415        -5.06447
LJ           3.96213       0.0866786         3.65209
LJ         -0.991267         4.47595        -6.42733
LJ            -1.202         4.29004          4.7132
LJ           3.39555         4.58306        -6.10704
LJ           -2.7329         3.30459        -4.97021
LJ           4.54086         5.45627        -6.21349
LJ           1.06802        -4.45129         3.01663
LJ          -2.83647         1.86389         6.44514
LJ           0.79245         1.29266         3.18974
LJ            5.0859        -1.70047        -4.12805
LJ           1.62883        -1.57822        0.455672
LJ          0.300195         5.62211         4.84777
LJ          0.619322         -2.4744        -5.64981
LJ          -6.41119         2.68869        -5.37252
LJ          -4.05998        -5.31238         1.27816
LJ           5.68952         3.94393         5.97296
LJ          -5.64313        -5.10145         4.23855
LJ          -4.77114         1.52466        -1.30938
LJ          0.745561         6.42187        0.641512
LJ         -0.126276        -1.76055        -3.01251
LJ         -0.228819         2.21918         6.33152
LJ          -4.31053        -3.54569        -4.35432
LJ          0.379816         5.99871        -4.18153
LJ          0.239592         3.84007         1.54922
LJ           4.35778       -0.609355         6.03146
LJ           2.81838       -0.356761         4.31444
LJ          -2.06266          4.1062        -6.21394
LJ        -0.0233001         -2.5504       -0.735862
LJ           1.27939         5.48365       -0.373754
LJ          -4.01556        -5.04083        -5.34791
LJ          -5.61301       -0.681505        -3.72797
LJ          -4.56964         5.71418         1.33997
LJ           4.73021        -5.92018         1.47197
LJ          -4.82039            1.31        0.480093
LJ          -4.93345        0.995499        -6.08413
LJ         -0.330814         4.44162        -1.48793
