108
#Comment!
LJ         -0.561118        -5.78292         5.95155
LJ           -4.1784        -1.89331        -5.39378
LJ          -1.01704         2.00081       -0.020603
LJ          -6.27187         3.16548        -2.71031
LJ           3.57993       -0.105242        -6.17812
LJ          -5.81121        -5.97394       -0.752361
LJ            1.6964        -3.11623        -1.80768
LJ           2.94455        -1.61505         5.83994
LJ           2.97093           3.183        -5.72392
LJ          -4.15469         5.63237         1.07257
LJ           5.33044         5.74102         3.50424
LJ           4.17896        -6.00299        -3.77467
LJ          -6.16313        -1.00271       -0.659742
LJ          -1.53195         3.04187        -6.12077
LJ         -0.534924         -4.5541        -3.89382
LJ         -0.140274         3.07297         2.80544
LJ           1.16752       -0.247705         3.47457
LJ          -2.70123         1.74056         2.09024
LJ           4.30937         5.64072         5.59846
LJ          -5.15953         1.24352        -1.67439
LJ          0.240026          2.9104        -2.99219
LJ           5.21788        -5.69245         3.32364
LJ          -1.88739         4.63917         4.28948
LJ           2.89122        0.135687          2.0694
LJ          -3.50068         -4.9218         5.54344
LJ           6.17168        -5.48141        -2.18224
LJ           5.37613          5.0635         5.38144
LJ           3.28155        -1.12567         3.44416
LJ         -0.451575         6.08036         1.74432
LJ          -2.76699       -0.225571        -2.00864
LJ           1.88135        -3.06222        0.497385
LJ          -3.21383         5.45809        -3.54956
LJ          -6.27401        -2.82563       0.0988815
LJ           2.37984         5.64337          2.2988
LJ           4.12575         3.93591        -4.98982
LJ          -1.61202         5.00344        -1.31156
LJ          -1.39458         3.01342         1.68627
LJ           1.38945         5.74253       -0.904798
LJ          -1.58965      -0.0715295        -6.46166
LJ           4.09315        0.770764         3.61792
LJ          -2.63664        -2.66524        -2.78512
LJ           4.45355          5.5587        -6.07305
LJ           1.75142         5.12728         5.02595
LJ           1.69226        -4.02803        -5.88587
LJ          -2.44592        -4.42246         1.84029
LJ          -1.84025       -0.142991        -2.56998
LJ           1.30513        -2.78777         4.51847
LJ          -3.91668         3.54343        -1.58143
LJ            5.9227        -1.63213        -2.41091
LJ           5.01833         3.93274        -4.22266
LJ          0.338374        -3.52918        -4.27912
LJ           6.30926         1.32627        -1.68626
LJ           2.74454         3.76493         2.71095
LJ         -0.660349        -1.37699        -5.21739
LJ          -3.94033         4.10046         6.17517
LJ          0.197558         5.15041        -1.97514
LJ           4.42675        -5.00476         4.68926
LJ          -6.19479         2.62419         3.42644
LJ          -5.08311         2.02414        -0.80327
LJ          0.912767        -5.34479         2.83275
LJ          -5.02089        -4.81848        -5.88314
LJ           5.34464        -4.78165        -4.93335
LJ           -6.3122         1.25279       -0.648707
LJ           6.28566        -5.48047         2.37745
LJ           4.09943          2.0375         3.21418
LJ           6.30898        -6.28674          3.3032
LJ          -4.50342         2.64298        0.708939
LJ           6.00547         1.35621         4.71812
LJ           3.81325        -5.14303         5.44758
LJ          -6.38421         5.17619        0.763548
LJ           1.87223        0.562879        -3.49753
LJ          -2.91917         2.72914       -0.995166
LJ           -1.8821        0.775859         2.91333
LJ           1.53553         2.16111        -1.26473
LJ           4.12733        -1.23185         1.18066
LJ          -1.28629         2.51386        -3.78033
LJ          0.465241         4.85488        0.643558
LJ          -2.42418        -1.25734       -0.502851
LJ          -3.78576        -2.05651        -2.69137
LJ          -3.68042        0.811724        -4.35578
LJ          -4.69943        -3.90511        -3.10309
LJ           0.69594         5.09806         5.13696
LJ          -2.37289         4.14305         2.17936
LJ          -1.80034         5.76991        -3.03035
LJ         -0.818868        -1.48497        -4.11395
LJ           4.72199        -4.39496        0.493096
LJ           2.26857        -1.46556        0.358384
LJ           2.64095        -6.13774         1.61844
LJ           3.13343         2.19952         1.19351
LJ           2.84678        -4.23006         1.65418
LJ           3.40306        -2.20927        0.292045
LJ           4.55887        -3.12727         2.40428
LJ           1.85682        -5.92856        -5.60648
LJ          -4.66254         1.84055          3.1476
LJ          -3.07932        0.423941        0.601145
LJ          -3.38559        -1.31963        -1.63622
LJ          -1.20635         4.67195         3.45398
LJ       -0.00799811        -6.09105         4.10576
LJ          0.585631          5.4608       -0.318016
LJ           3.58841         2.82676         5.92198
LJ           5.32742         -5.4672        -3.37858
LJ          -1.42186        -3.03513         -2.1586
LJ          0.749173        -5.47308         6.15195
LJ          -3.66924          -2.822        -1.81284
LJ            5.7124         4.34353         0.94677
LJ           6.42785        0.786839        -2.54193
LJ          -1.82701        -1.06618          5.7243
LJ         -0.428183        0.613536         3.62581
