108
#Comment!
LJ           1.07981         2.93284        -5.55193
LJ           3.80717        -4.65834         4.48383
LJ           2.94419         3.21614         1.30444
LJ          -1.51278         4.97746        -3.49966
LJ           5.30144         4.04531        -3.71793
LJ           1.87025       -0.812875       -0.504645
LJ        -0.0109789        -4.80023         6.32422
LJ          0.890326         1.75737          3.2748
LJ           5.89513         5.77728        -2.14175
LJ          -1.03626        -2.03432       -0.223107
LJ           5.54364        -3.67905        -4.14896
LJ       -0.00270332        -6.13555         2.52685
LJ           2.42483         3.52641         5.66747
LJ          -3.84701         3.02197         5.44982
LJ           5.54009        -1.31912         5.47229
LJ          -2.61519        -4.07197         -3.3546
LJ           5.62918         4.88801        -3.28958
LJ           1.06485        -2.21759         3.93333
LJ          -1.53204        -3.12439          -5.805
LJ           0.16626        -1.62905         1.71687
LJ           3.08397        -5.72915        -4.26501
LJ          -1.66635         3.72846        -5.76974
LJ          -3.46883         2.24178        0.808025
LJ           2.09183        0.483176        -4.97854
LJ          0.142603         2.55283         2.31823
LJ          0.720987         1.84523          4.6394
LJ          -4.29336       -0.216212        -5.92172
LJ          0.692557        -6.23244        -6.03473
LJ          0.745751       -0.440611         3.28278
LJ          0.483854         5.39753        -6.33576
LJ           4.67133         5.16871         5.65753
LJ          -5.28717        -6.25905         2.37564
LJ           1.74503          1.1253        0.458329
LJ           1.01751        -5.94885          5.7656
LJ           5.01799        -5.11382         5.06416
LJ          -2.79667        -3.63482         6.23605
LJ           2.79211         4.46005        -5.58363
LJ          -2.46067        -3.94625         1.34502
LJ          -1.48724         2.49735        -1.38014
LJ           6.08803        0.676325         5.35848
LJ           2.80179         4.49423         4.61014
LJ           3.55761         3.96183       -0.442244
LJ            5.1847         1.11139        0.704624
LJ           1.61074        -4.08637        -5.09409
LJ           6.32264        -3.36075      -0.0633015
LJ          -4.58217        -2.12947         -2.2617
LJ           3.35602         2.38044           1.309
LJ           5.31093         5.99665        -3.35065
LJ          -5.44985        -3.92674         1.27997
LJ           1.75141        -2.47056         4.61859
LJ           5.90191        -3.44231        -5.55464
LJ           2.04358         2.75713         4.88909
LJ           6.25988        -4.87107        -2.33811
LJ          -4.97049       -0.658068        -3.59624
LJ          -4.04717          4.5489         3.83404
LJ          -4.88307        -6.08999         0.80704
LJ           5.77082        -6.05862         1.46971
LJ          -1.30751         1.37778        -5.29424
LJ           -1.2825         3.69104        -0.44914
LJ          -1.38951         1.35281        -6.25336
LJ          -5.69705         -4.0665        -2.43686
LJ           3.95961         1.20355         2.47663
LJ          -4.26523         4.29648       -0.290236
LJ          -4.45263        -4.14872         4.87736
LJ          -3.99161        -5.68666     -0.00961594
LJ          -6.04624        -1.85353         1.72131
LJ           2.46335        -1.44601        -1.36174
LJ          -2.41197        -1.87935        -4.80378
LJ          -4.69222         1.32533         2.53542
LJ           1.83207        -2.93147          3.1429
LJ           1.88498          2.4748         2.15815
LJ           1.35996        -1.44183         2.87941
LJ           5.72053         3.19936        -1.32157
LJ           5.01629        0.251412        -5.97487
LJ           6.26112        0.207206         2.48951
LJ           2.17651         1.35694        -4.30312
LJ           3.73929         5.85422        0.800578
LJ           5.82697         2.40974        0.555741
LJ          0.699952          5.1443         3.56756
LJ           -4.8741       -0.922803         5.23872
LJ          -2.95014       -0.775478         4.28341
LJ          -5.86197          5.4494        -5.88268
LJ           1.29354         1.64996        -5.04491
LJ          0.648838         3.03708        -3.89444
LJ           5.13435        -1.95865         -4.4097
LJ           3.00029         2.98382        -1.44904
LJ          0.138157         4.53703         6.39763
LJ           -2.0054         1.22726        -3.82769
LJ           5.41365          5.4082        -5.22088
LJ           4.47169         1.33895         3.80519
LJ           5.28826        -2.96528        -2.28559
LJ           1.10681         4.56328         6.14824
LJ          -1.38775         5.95486       -0.438549
LJ          -4.25477          1.3341         -5.7626
LJ           1.26647       -0.484849          -5.793
LJ           4.31351         4.16637          -2.565
LJ           3.76578          5.2439          1.7773
LJ          -2.61187         3.06869         4.24543
LJ           2.54541        -4.56134        -3.73665
LJ          0.840628           5.202        -3.18891
LJ          -5.00348         2.06216        -1.24684
LJ          -1.79473        -3.12379        0.806242
LJ            4.3512        0.503731         1.68323
LJ           4.55726         3.14973        -6.29296
LJ         -0.918914        -1.07152       -0.381114
LJ         0.0973789        -4.99613         4.23739
LJ           1.16942         6.08368         6.13348
LJ          -4.26759         1.96392        0.146486
