108
#Comment!
LJ           5.14156         5.15448         3.50108
LJ           4.17702         3.88077         0.14989
LJ           2.63878         3.96106          3.9614
LJ           5.90357        -5.43444        -6.36367
LJ           5.63593         -3.4789        -4.56069
LJ          -5.76555         5.88041         2.99991
LJ           1.73709        -1.77786        -5.64486
LJ          -4.43706         3.38459       -0.439776
LJ          -3.63266        -3.27702        0.729721
LJ          -1.17779         0.14708          4.8046
LJ            -1.451        -4.68856        -1.03399
LJ          -5.25763        -2.62389        -5.18396
LJ           2.53736        -4.13304         4.91778
LJ          -1.97562         1.58678          1.2205
LJ           1.65968         3.93417       -0.263226
LJ          -2.90071        -1.18951         5.55462
LJ           6.37642         4.65845       -0.503876
LJ          -3.52039        0.889839         2.14697
LJ          -1.43383        -5.89955         3.69816
LJ          -2.24786        -1.37742         4.11001
LJ          -5.50785         5.20481        -2.08353
LJ          -5.56971         3.50987        -4.77723
LJ           2.38006        -3.97422       0.0483993
LJ           -1.8523       -0.196924        -4.55338
LJ          -3.48439         5.10595        -1.25615
LJ          -4.54477        -2.84401        -2.05619
LJ          -6.20753       -0.599609        -4.55808
LJ          -1.32789          4.4646         5.82212
LJ          -4.20572         5.27532       0.0612885
LJ          -2.43627        -3.39674         1.05663
LJ           4.94487         2.39801        0.924563
LJ           -1.2607         2.45128        -5.35857
LJ          0.407254       -0.631816         1.88281
LJ          -2.42143       -0.461297        -3.07741
LJ          -4.86921        -3.42325          3.3956
LJ           2.18067        -4.69168        -6.19267
LJ          -4.45523        -5.46755         4.85938
LJ          -1.27326        -4.65812         -5.4744
LJ           3.57024        -6.10503        -3.31551
LJ          -5.68605        -2.60254        -1.42235
LJ         -0.237947         5.88837         4.29145
LJ           1.20694        -6.38215        -2.38194
LJ           4.49254         4.84372        -3.66499
LJ          0.419624         0.16842         4.20747
LJ           5.52653        -4.02359        -6.20242
LJ          -6.04724        -3.90664      -0.0222724
LJ           3.18101       -0.391674        -2.24508
LJ            4.1758        -3.20101        -4.49753
LJ          -5.73651        -1.53139         3.02784
LJ           3.13428       -0.479856         4.09628
LJ          -2.12463         5.79476         -5.0669
LJ         -0.354824         2.20447        -5.43435
LJ          -4.10369         4.85735         5.98001
LJ           2.81643        -3.92195        -3.80868
LJ            1.9375       -0.664053        -2.58309
LJ          0.883307         2.50274        -4.28249
LJ          -5.52008        -2.16739        -3.79671
LJ         -0.341353        -1.99564         5.67345
LJ         -0.360253        -1.79174        -5.61204
LJ          -3.39878        -1.54901        -4.20771
LJ          -4.02102         -1.8171        -1.23166
LJ           3.54539        -2.47523       -0.797411
LJ          -4.18579       -0.919192         4.01705
LJ          -6.29939       -0.902695         2.18069
LJ           5.48795         4.71369         1.31521
LJ          -1.57191          5.3574         -1.7204
LJ           4.24752        0.922931         1.58724
LJ           -4.9553         3.61066        0.632803
LJ           5.94094        -5.34048       -0.875675
LJ          -3.64606       0.0321383         3.66274
LJ           5.70422         2.09608        -4.95362
LJ           3.92212        0.393187           -2.32
LJ          -2.75083         3.92235        -4.41613
LJ           5.49956         4.93878        0.310923
LJ           -1.5612         3.18021         4.72012
LJ           6.31678        -2.65063      -0.0975877
LJ           2.98717         5.31238        -2.12449
LJ           5.64317         1.89038         3.84094
LJ          -5.76414          1.4445        -3.36415
LJ          -1.30834        -3.98047         3.81664
LJ            5.8157         2.68071        -2.40109
LJ          0.207621         1.33285         2.27115
LJ          -4.98694        -5.57587        -6.11594
LJ         -0.811353       -0.628302         5.81539
LJ          -5.98226        -2.18811         2.18136
LJ          0.326297         2.58582         6.37947
LJ           -3.1567         3.70031       -0.412654
LJ          -2.13139         2.60913       -0.930421
LJ          -4.52062        0.870852         -5.6541
LJ           2.39768        -2.62917       -0.299206
LJ          -6.42012        -2.47573         4.67615
LJ            2.6912        -4.39527        -2.24523
LJ           1.79688           6.341        -1.00346
LJ          -5.80983         2.09902       -0.779656
LJ           -5.8957         2.96989        0.965825
LJ           3.24158        0.742492        -1.41243
LJ          -5.98895        -5.51305        -6.39421
LJ          -4.04385         4.38643       -0.230728
LJ          0.865251         3.89529        -1.87512
LJ           -4.8315         2.13026        -1.69572
LJ           4.90541          3.9593         2.21137
LJ           1.96637        -5.84719         4.85554
LJ           1.49936        -2.57505        -1.18899
LJ          -3.36936        0.741347        0.901404
LJ           2.37558         4.02278        -2.01751
LJ         -0.413977         2.91467         2.78371
LJ           5.54483        -3.50593         -2.4179
LJ           3.15042         3.93238         1.39347
