108
#Comment!
LJ          -2.84234         2.89675        -5.17563
LJ          -6.03121         -4.8088          -1.846
LJ           3.05927        0.918131        0.946729
LJ            1.0062         5.28706         4.58343
LJ           5.16483         -6.4119        -3.52974
LJ           2.17218         3.22682         2.00986
LJ          -4.88603         1.41026        -2.42941
LJ          -2.58334         5.38761         -2.5226
LJ          -5.16581         5.55861        0.735543
LJ          -1.91473        -2.05023        0.996696
LJ          -5.22667        -5.53854        -5.54204
LJ           4.64468          2.1259        -6.20263
LJ           5.68456        -2.32741        0.623146
LJ           5.99559         5.17864         2.50877
LJ         -0.354151       0.0353612        -3.17455
LJ          -2.86842        0.191317         3.86318
LJ          -5.03506         6.01345         2.22028
LJ           4.23444         1.85258         5.58474
LJ          -2.48973          3.7189         5.18508
LJ           5.60951         6.23837       -0.995883
LJ           4.75045           4.799        -3.25751
LJ          -2.04734         1.26719          4.6782
LJ          -5.31432        -3.80639         4.30305
LJ          -1.83319         3.74893        -3.58603
LJ          -6.17336         4.92072        -3.81086
LJ          -4.66106        -5.63289         5.28334
LJ          -5.85949         -3.4304         2.13898
LJ           2.67544        0.462692        -1.77558
LJ          -6.27813        -4.80643         1.29232
LJ          -4.51744        -6.16442        -6.32698
LJ          0.944277       -0.850215         4.31873
LJ            3.6189       -0.904445        -5.05292
LJ           -4.0026          4.7924        -5.54395
LJ           4.05861         1.15961        -1.20924
LJ           2.50217        -2.37894         6.03847
LJ          -1.23554       0.0655841        -1.33246
LJ          -2.43006        -5.32906        0.426198
LJ          -4.40653        -3.83463         5.55104
LJ          -2.64885          3.3318        -3.13297
LJ          -4.68613        -5.86052         1.45553
LJ         -0.491122       -0.337569         1.93898
LJ          -3.44949        -2.02831        -2.32253
LJ           5.68112        -5.15766        0.796423
LJ         -0.587562        -2.23564         3.71491
LJ           1.59551        -4.12909        -2.74566
LJ          0.715905         2.73176         2.19349
LJ          -3.32331         3.86782        -5.55778
LJ          -1.71152        -4.21447         4.05086
LJ           3.27402         5.00649        -2.83353
LJ          -1.36344        -4.41842         5.34962
LJ          -2.10835         3.36102         1.14138
LJ           1.94637       -0.623918          4.6806
LJ          -5.53411         -1.7297         5.31626
LJ          -5.77688         6.05879          4.8037
LJ           1.28023         3.34761        -1.63562
LJ          -2.41832        -3.11855          5.1482
LJ          0.230594         1.41053        -3.44643
LJ            1.4571        -3.38663      -0.0333207
LJ           6.10305         2.33524         2.71613
LJ          -1.39285         4.83553         2.14144
LJ           4.77043         5.52718        -4.53031
LJ         0.0837908        -1.24871         5.19828
LJ          -6.15852         2.11829       -0.193791
LJ         -0.865771         3.84616         1.75964
LJ           5.67452          -4.001        0.961145
LJ           -1.6975          2.3528        -1.00335
LJ           1.50995        -3.33656        -1.93232
LJ           2.96035         5.98067        -5.34865
LJ          -5.59784          1.2149        -1.18519
LJ           5.06096        0.951273        -1.92453
LJ          -5.04003        -4.55692         2.42979
LJ           2.87788        -2.05515       -0.453343
LJ          0.626531       -0.611374        -1.75451
LJ          -5.93727        -5.81507        -1.92302
LJ           2.58365        -5.99028         1.17727
LJ          -4.23202         4.63357         -4.3452
LJ           5.42369         5.25152         1.27844
LJ          -5.01887         3.38606        -3.28172
LJ            3.4326         -1.8308         3.01707
LJ           2.50759        -4.23039       -0.168349
LJ           -5.6365        -5.92281         1.34496
LJ          -1.30748         5.18903        -1.88734
LJ           2.74396         1.75092         6.39987
LJ           4.90278         -2.1236       -0.950536
LJ         -0.624976         3.38914        0.519549
LJ          -4.64226         5.62486         5.83057
LJ         -0.585417        0.311734        -5.51436
LJ          -3.33505        -6.27245       -0.987349
LJ          -2.22247         0.85054       -0.964516
LJ           1.00249        -6.30937         5.55961
LJ          -3.69097        -2.46938        0.284274
LJ          -2.07877        -4.77816         6.21593
LJ          -1.35914        -3.42282         5.87985
LJ          -4.60198        -4.63239        -1.61042
LJ          -5.05186        0.945461        -5.41481
LJ         0.0640471         3.43399         1.80163
LJ           2.91265         3.90995         -5.0477
LJ          -5.84156         3.64746         -4.0151
LJ          -5.02567          3.5233         2.66776
LJ          -1.18664         4.83219         5.88517
LJ          -4.43635         3.66557         6.12997
LJ          0.351848         2.38124      -0.0383038
LJ           5.60337         4.69881        -4.13969
LJ           4.98165       -0.664383       -0.282435
LJ          -2.96565        -1.73839        -5.04417
LJ          -6.23813         3.78964         5.45013
LJ           -3.5406         1.15274        -4.85064
LJ         -0.284686         -3.2226         4.89682
