108
#Comment!
LJ          -2.36331         4.97283         1.21534
LJ           4.21938          5.6094         3.69833
LJ          -6.15921          3.0399        -1.94875
LJ            5.2622        -5.95785        -2.21757
LJ          -1.96009         2.11407        -4.06498
LJ          -6.10541        -4.78288         1.63219
LJ           2.25395        -4.86875         4.31759
LJ            4.7293         6.26693        -3.06976
LJ           4.57291        -4.42058         3.80077
LJ         -0.978266         2.38954         2.05416
LJ           5.18476         3.44002        0.909037
LJ           2.80169        -5.68288        -1.61304
LJ           5.32574        0.795444        -3.47585
LJ           3.45021       -0.405592        -3.08169
LJ           5.62571        -5.78915         3.45262
LJ           0.56859         4.66655        -1.71927
LJ          -3.12013      -0.0510902         2.25333
LJ          -4.09581        0.587458         4.38757
LJ           -4.7166         5.81808        -5.19579
LJ          -4.32511         4.13757         4.56858
LJ           2.03057         2.33889        -4.79839
LJ         0.0649087         5.21627         -0.2669
LJ          -5.65658        -1.88918        -3.09695
LJ           5.85569        0.879616        -4.71459
LJ           2.39563        -6.37135        -2.60764
LJ          -6.31214         2.22489        -3.80297
LJ          -2.02962         3.17271        -3.83957
LJ           -5.8776        0.479788        -3.77365
LJ          -2.77812       0.0373522         5.08312
LJ           1.20375        -4.51556         4.62703
LJ          -5.40074         5.10177         1.14235
LJ          -1.46944        -5.08013        -4.47673
LJ           5.30587        -5.57629        0.377897
LJ          0.752205        -5.10542        -6.21793
LJ          -3.96375        0.158441        -5.38011
LJ          -4.24189         2.77142         3.85364
LJ          -2.38329        0.663185         -2.6353
LJ           1.18495        -1.28855         1.58704
LJ          -1.16384         6.41053         1.57317
LJ          -3.85755        -5.13393         -2.2886
LJ           4.68221         2.55939         6.00052
LJ           2.12818        -3.10903        -1.26708
LJ           1.04634        -4.04252         6.37644
LJ          -5.85734         6.40063        -3.79106
LJ          -5.47137        -4.61571         6.08653
LJ          -5.73474        0.537678         5.53678
LJ          -3.16246         4.28047         4.67702
LJ           2.47843        -1.42544         2.25558
LJ           2.81934         5.96416        -4.33789
LJ         -0.910799        0.162115          -5.093
LJ         -0.583391        -4.98728        -6.15535
LJ          -1.62503        -6.44791         2.54043
LJ           5.41885        -3.17655        0.403822
LJ           1.42677        -5.96414        -5.35934
LJ          -3.06439        -3.72737         3.68192
LJ          -2.89297        -1.53213        -3.74971
LJ           4.53156         3.00236         1.48027
LJ          0.986836        -4.43318       -0.513044
LJ           4.40154        -6.35983         4.32633
LJ          -4.29987         1.30472        -5.30064
LJ         -0.112245         -5.8233         5.79221
LJ           2.82522         3.21417         5.80445
LJ           3.86128         2.12574        -1.59929
LJ           4.38547       -0.331569        -2.78117
LJ           3.17303        0.905108        -5.14027
LJ         -0.490814        -3.58959         4.31019
LJ           2.95081         1.52745        -1.26467
LJ          -2.52929         4.51415       -0.733608
LJ          -2.88108        -4.05679        -2.97229
LJ          -1.10949       -0.681334        0.213408
LJ           6.14464        -1.66487         4.68279
LJ         -0.314321        -4.63525         5.00277
LJ          -3.64071        -2.24341        -3.37308
LJ           5.28586         1.44737         6.15922
LJ           5.94387         6.16943        -1.78929
LJ          -2.88711        -5.81678        -1.15742
LJ           5.66368         6.37382        0.919434
LJ           5.21919        -2.96891        -6.36014
LJ          -3.18642         2.08643        -4.73885
LJ          -2.06497        -5.75573         5.96298
LJ          0.389388         5.89695         2.03183
LJ           -1.9187         4.13483         -4.3669
LJ           6.15122        0.223329        -2.84367
LJ          -1.48856        -3.95285         4.15918
LJ           4.31347        -3.28649       0.0223263
LJ           4.71408        -3.81572         2.73225
LJ          -3.20738        -3.18104         4.78092
LJ          -4.98716         -3.2465        -2.70701
LJ          -5.92677        -3.58529         2.20534
LJ          0.483473        -1.68578         2.73795
LJ          -5.61208         2.50436         5.19495
LJ          -1.54153        -1.15345        -2.64576
LJ          0.615641         3.57393        -1.99635
LJ           5.68208       -0.169621        -5.54173
LJ           5.93273        -2.62157        -1.51742
LJ         -0.955954           3.541         3.73987
LJ          -4.88206        0.455456       0.0617426
LJ          -1.57822        -6.37233        -5.66057
LJ           4.84422         4.37534        -2.91141
LJ           5.30284         5.34491         -4.9169
LJ           -5.6453         2.94845        0.015111
LJ           4.10011         2.23721        -4.73271
LJ           4.80498          -4.681         1.11547
LJ           5.31301         6.13822         4.48463
LJ          -4.56439        -6.07833         4.21232
LJ           4.63659        0.927194        0.405755
LJ          -3.91617        -1.53996         3.76108
LJ           -3.1619        -4.56143        -1.29956
