108
#Comment!
LJ           6.33426        0.333937         5.34578
LJ           2.88492        -5.47132         5.56255
LJ           4.23144       -0.552015        0.470729
LJ           1.84741         3.41552        -2.44493
LJ          -5.01877         1.11505           4.086
LJ         -0.501508        -2.82091        -3.47489
LJ          -3.92047         -5.5109         5.96714
LJ          -3.90399        -2.31794         4.82082
LJ           2.54223          3.3278         1.79775
LJ          -5.58768        -1.79066        -0.73039
LJ           2.07411        -3.42343        -2.11325
LJ           5.32983         5.64624         6.23424
LJ         -0.188001         5.90988        -4.95611
LJ           5.41632       -0.428235        -3.15138
LJ          -2.30276         2.80929         3.71254
LJ          -4.68995        -6.06921        0.390319
LJ           5.68444          4.8793         3.80013
LJ          0.270428         1.57214        -4.83009
LJ          -1.16775        0.349559         5.83057
LJ          -2.85221        0.481801        -5.66156
LJ          -6.36045        -5.90812        -1.43867
LJ           1.00709         4.33847        -1.06185
LJ         -0.688817          1.4606        -3.49752
LJ         -0.936525         -4.7696        -4.96059
LJ          0.944471         6.02725         5.75712
LJ          -5.77791          4.7982        -5.65297
LJ          0.869097         2.71832         1.89516
LJ            3.3224         -6.1488        -4.48513
LJ           3.17882        -6.09477        -1.51792
LJ           6.03817        -4.61925        -5.42987
LJ           0.69472        -2.23641         1.38775
LJ           4.41295         4.78856        0.254732
LJ           5.47682        -1.46148        -5.38958
LJ            6.4048         0.17215        -3.72329
LJ           -5.4686         4.49748        -4.34957
LJ          -2.67567         -2.7476         4.08131
LJ          0.696035         3.85335         3.11534
LJ           1.06468        0.422312         0.57681
LJ           2.62458        -2.72491         4.22294
LJ          -6.14315         4.60584         6.22218
LJ         -0.446435         3.23925          2.5851
LJ           2.94506         5.97375         2.75796
LJ          -1.83529        -1.26595         2.98822
LJ          -4.98642         5.51695          3.4379
LJ          -4.78052        -4.97225         5.36724
LJ           -5.7615         2.35509        0.535992
LJ           -2.5111        -1.61484        -4.35525
LJ           4.50674        -1.74614       -0.191388
LJ          -3.99159         3.72135         -6.0097
LJ           3.43064        -1.65404        -2.93478
LJ           6.32802        -5.06839         2.90791
LJ         -0.624082         4.07746         1.40684
LJ           1.62311        0.397357        -6.15382
LJ          -6.22053         1.71782         4.01622
LJ           5.28086        -3.74104        -5.99847
LJ           3.38832         6.18301          4.2255
LJ          0.982801         5.42986       -0.920521
LJ         -0.225774        -6.39109         1.53992
LJ           3.49685        -5.66365        -6.23817
LJ          -3.38733         4.10123        -3.12585
LJ           1.49651        0.927958         2.03191
LJ         -0.874423          5.7114         2.20973
LJ           4.29934        -5.21221        -2.41989
LJ         -0.699237         -4.1198        -0.36787
LJ            6.2884         2.51032        -4.47396
LJ          0.943718         3.20451        -6.35449
LJ          -5.72909        0.958029        -4.99504
LJ          -4.73967       -0.133312         3.99176
LJ           3.54132        -1.05211         4.72926
LJ         -0.158943        -1.75623         2.02031
LJ           1.57471        -1.47763         3.21783
LJ           5.12706         5.18749         5.44317
LJ         0.0435032       -0.497083        -5.36596
LJ           2.12049         1.40968        0.162152
LJ           3.84702         3.63634          4.7897
LJ          -1.78388       -0.680829         4.16116
LJ         -0.250399        0.571966       -0.643827
LJ          -3.77085        -6.03331        -3.00582
LJ          -4.11446         5.80413         -3.3763
LJ          -2.98951        -2.69096         2.47408
LJ          -4.55896        -3.67149         3.38141
LJ          -1.12175        -2.11753        0.295472
LJ          -4.60628        -1.49531        -5.17064
LJ          0.554563       -0.384223      -0.0876616
LJ         -0.062931        0.600935        -5.48627
LJ           1.97752         1.64413        -3.96284
LJ          -5.05606       0.0606299        -5.16023
LJ           5.40907         -2.8714        -5.51013
LJ         -0.821085        -3.52857        -6.16763
LJ          -2.23307         2.09663         6.32884
LJ          0.291083        -1.02397         6.26018
LJ          -3.25593        -3.79603           3.561
LJ            2.9412       -0.978651         1.29617
LJ           1.66631         -1.9161         1.90976
LJ           2.43687        -5.37308        -2.99931
LJ          -5.18334          2.6215         3.59988
LJ           3.68895         4.49478         6.25569
LJ          -3.21106       -0.438557         0.89895
LJ          0.415669         2.13219         5.14949
LJ          -2.94827         1.52769        -5.52122
LJ          -5.67213        -3.41563         -4.0101
LJ           6.12648         5.65384        -4.15229
LJ           1.33221         -4.2075         3.12498
LJ           1.94235        -3.21732         2.68546
LJ           1.37802        -3.91305          1.1768
LJ           2.20738         1.95689        -2.36631
LJ          -3.75449        -1.23716         3.28076
LJ           4.92148        -1.64244        -2.98089
