108
#Comment!
LJ          -5.81981        0.170541        -5.90697
LJ           2.41521        -6.33599        -2.27485
LJ         -0.926619        -2.51609        -3.80426
LJ          -4.29352         4.70114        -6.33784
LJ           2.21149         4.88775         -2.4845
LJ          -1.15688         -4.6974         5.37321
LJ           -5.1641         3.76024         2.65727
LJ          -5.65969        -6.34119         1.97022
LJ         -0.720172       0.0899756         5.40394
LJ           4.49009        0.677979        -3.81402
LJ          -1.22899        0.643016       -0.864042
LJ           4.16418        -2.97429         3.52672
LJ           4.61398       -0.840673         2.38016
LJ           1.41231        -2.90065         1.39484
LJ           4.84194         5.52637         2.44234
LJ          -4.69221        -2.87397        -3.61373
LJ           6.23055        -5.49294        -2.67575
LJ          -1.04773       -0.681952         6.29345
LJ          0.709499        0.383161        -6.00513
LJ          -2.27103         2.11138         5.30141
LJ        -0.0157072         4.26975         4.88971
LJ          -2.83357        -2.09416       -0.816094
LJ          -3.68628         1.32297       -0.237181
LJ          -3.07795        0.273704        -4.53298
LJ          -0.73866        -4.56472        -1.68161
LJ            5.0917         2.25208        0.421743
LJ           4.72839        -3.76462        -3.51232
LJ           1.70317        -1.85598        -1.79436
LJ          -2.21098        -4.44399        -3.58835
LJ          -4.24614         5.31395        -5.26707
LJ          -5.95397       -0.849676         4.40078
LJ         -0.974515        -5.92953         5.65655
LJ            6.1541        -1.25122       -0.804695
LJ           2.32708         2.98447         2.35167
LJ           1.43831        -6.45682         5.83066
LJ          -3.24209        -2.95891         4.28903
LJ         -0.249857        -5.17171        -6.16173
LJ          -1.92673         2.31289        -4.28779
LJ           1.12423         1.54251        -4.87451
LJ          -1.43844        -5.47888        -4.95926
LJ           -3.1068        0.726898         4.74786
LJ           4.46623       -0.883692        -2.56233
LJ           2.65501        -0.27312        -5.54736
LJ          -2.94686        -1.05368         5.34554
LJ          0.813735         -4.6215          4.8757
LJ          0.829706        -4.08004        0.039188
LJ           2.09606          3.0254        -2.48457
LJ          -5.29464       -0.103805      -0.0252439
LJ          0.375948        -6.24006        0.292138
LJ           1.13522         1.92813        -1.04478
LJ          -4.54877         2.66538        -5.91336
LJ          -1.72383         3.97364         3.98357
LJ          -5.99979        -3.57689         3.99132
LJ           2.35363         6.20443        -6.14043
LJ          -4.90013         3.53478         1.15037
LJ           5.04225        -5.19689        -5.07693
LJ           5.81011        -4.13769        -5.06252
LJ          -2.19178       -0.660833        -2.99479
LJ           1.95684         4.89254        -4.89427
LJ           5.00912         -4.8975         2.89941
LJ          -5.37103         5.52692        -0.66313
LJ           4.48464        -3.80205         4.35359
LJ         -0.678817         1.47844         4.97134
LJ          -6.04569         -1.8156         6.33338
LJ          -6.44712        -3.80285        -4.06211
LJ          -2.73237        -5.16283        0.796614
LJ          -2.69816        -3.55385         1.39721
LJ           2.87275          2.1088         3.83536
LJ           6.41248        -2.97515       -0.607559
LJ          -3.90032         3.24714         5.99007
LJ           2.64843        0.691025         4.65025
LJ          -5.53844         4.84509         2.69651
LJ          -3.01895       -0.990018         3.75774
LJ          -1.68002        -2.57422        -3.04225
LJ          -2.64126        -2.27867         2.59315
LJ          0.424652       -0.365672         -4.8223
LJ          -2.43442         4.19194       -0.140944
LJ           3.55458        -5.43749         5.02303
LJ           5.65002          1.2577         5.19037
LJ           4.29421        -2.10076         6.00362
LJ           4.74534        -3.35878         1.56604
LJ          -4.87614        0.415215         1.96868
LJ          -6.15317         4.69103        -3.46517
LJ           3.91762         3.59493         2.62739
LJ          -4.00175        -4.72606        -1.69851
LJ          -3.89705         3.44365        -4.96182
LJ           2.54103         -1.3026        -6.05501
LJ         -0.297136        -1.36045        -3.82918
LJ           6.12058         -1.2707        -3.83878
LJ          -4.42968         2.94676        -3.91687
LJ          -5.51035        -5.76843        -0.14253
LJ           5.08287         2.42676        -6.16884
LJ          -1.42219         4.15927         6.41021
LJ           3.68094         6.41416         5.09497
LJ           1.83828         4.99078         2.38879
LJ           5.07263        -3.75042      -0.0564959
LJ          -4.95247         2.41917          3.6486
LJ          -5.08178         6.22126        -6.17507
LJ          -1.20531        -4.82863         -3.0785
LJ           1.55218         3.24156      -0.0759832
LJ          -6.43401         2.38869        -2.92169
LJ          -5.32015         2.83801        -5.16258
LJ           1.21247        0.696073         6.05568
LJ          -2.45954       -0.223647         5.10138
LJ           -6.1188         1.28012        -1.00879
LJ          -1.96743           1.604         2.62433
LJ           1.20795         2.40051        -4.37386
LJ          -3.71927          1.9009         5.47779
