108
#Comment!
LJ           6.15983       -0.261246         5.19617
LJ          0.923723         3.41318         -4.9212
LJ          -0.71077        -4.59226         5.88944
LJ          -3.81113          5.7614       -0.108307
LJ           4.60746        -5.49125        -0.32276
LJ          -2.59863         4.25953         4.79234
LJ           2.27026         3.19894        -1.24473
LJ          -5.91932        -3.49889         2.71139
LJ           5.92954        -0.87384        0.779352
LJ          -4.59903         6.26503         1.30497
LJ           -2.1156        -1.05506        -1.41357
LJ            5.8031         2.70878        -4.66051
LJ           1.21719         -4.9515        -2.77942
LJ           3.59448        -3.83239         3.98115
LJ          -3.43466        -3.57213        -5.54546
LJ           3.50074         -2.1336        -3.85186
LJ         -0.302785         2.21573         -2.4738
LJ          -2.04917        -5.34697        -1.77115
LJ          -6.39649         -3.1216         1.66726
LJ           -3.7031         -1.4798        -5.47114
LJ           2.78829        -3.36685         2.22941
LJ           5.97806       -0.682415         1.90604
LJ          -3.50085         5.68793        -4.26443
LJ           4.50775        -4.39352        -5.55333
LJ           1.47954         2.82764         2.79747
LJ          -2.98985        -2.37468         2.86664
LJ            2.1035         -0.3773        -1.21368
LJ          0.590999         6.43238         1.14237
LJ          -3.67831        -5.66595       -0.901916
LJ           2.21588         1.16761        -1.21637
LJ          -0.15598       -0.874208        -3.11555
LJ          -1.83917         3.74589        -1.05926
LJ           3.87253        -6.33738        -2.85876
LJ          -6.09746        -1.07643         1.25529
LJ          -6.03862        -5.54928         1.91786
LJ           3.22026        -2.18614         5.12093
LJ           4.90785        -1.93152         3.78015
LJ           1.66311       -0.564759         3.32534
LJ          -4.21002        -3.17481       -0.766731
LJ          -3.98868         4.51862        -4.23846
LJ           1.27741        0.967752         3.54006
LJ          0.625603         2.66491        0.869146
LJ           5.50013        0.743185        -3.80713
LJ            4.9853         5.54396         2.09181
LJ           6.11986        0.705857        -4.71317
LJ          0.612158         4.59266         5.93375
LJ           6.01739         3.71771        -5.57521
LJ           2.11816         6.06227         3.99782
LJ            6.1341         2.09515       0.0282198
LJ          -4.87381          6.1914       -0.521274
LJ          -5.59892        -2.87847         -1.3187
LJ            1.8904        -4.91687        -1.42824
LJ          -4.96957        -1.81909         6.45765
LJ          -0.90565         5.45587         5.74682
LJ          0.316446         2.77474         3.02609
LJ          0.263452         1.61555         -1.4726
LJ           0.12831        -2.38981        -3.59266
LJ           5.30204         2.43523         1.33722
LJ          -1.66312        -5.61749        -6.37573
LJ          0.179551         3.17809        -3.70423
LJ          -2.31477        -3.43028         1.11803
LJ         0.0503299        -5.12753         0.21504
LJ            3.2233        -1.44879         5.80739
LJ           6.08814       0.0250807         1.28107
LJ           2.29816        -5.36989        -5.68159
LJ          -5.08441        -2.19308        0.946137
LJ          -2.49751         1.83444         5.40861
LJ          0.920215        -6.32898        -2.08527
LJ           1.54523        -1.54891         5.92622
LJ              2.08        -2.64902        -6.33039
LJ          -3.99047          0.2439        -2.30638
LJ           5.31117         2.60191         4.98692
LJ          -4.73892         2.82742         1.08408
LJ           4.26875         5.37262         1.33951
LJ          -1.75518        -1.68547        0.788565
LJ          0.991897         3.20874         3.76788
LJ           3.82161        -2.82174         4.52713
LJ          -3.05173        -5.33959         4.46217
LJ           5.49334         1.66735        -1.48785
LJ          0.774266          3.0313         -1.9608
LJ           4.43659        -4.63156        -1.28615
LJ           0.90819        -1.04355       -0.923209
LJ          -5.42384         -5.2273         6.37373
LJ           -1.6867        -3.77687        -6.44268
LJ         -0.412282        -1.06529         1.91305
LJ         -0.613115       -0.273721         0.42077
LJ          -0.99714         1.17859          4.6182
LJ          -1.46993        -1.27623          2.1884
LJ           5.26835         3.20801        -2.65984
LJ           -5.9276        -5.89258        -5.64304
LJ          -6.07442        -4.67733        -5.14904
LJ          -2.48231         4.40212       -0.067559
LJ           1.73646        -3.82849       0.0939938
LJ            1.9049         -4.9662         6.25138
LJ           1.08883        -1.36386         3.46436
LJ           1.33289         1.14079        -4.74815
LJ        -0.0984941         1.57696         5.23218
LJ          -2.62342        -1.68769       -0.104571
LJ           1.47014         -6.3998        0.286018
LJ           -2.7297        -3.06137       -0.983098
LJ           3.11867        0.651148        -1.59331
LJ           5.21159        -5.80079         4.58944
LJ          -4.71378         2.48339       -0.598084
LJ           4.60367         5.30688         6.03875
LJ           5.77326       -0.593006        -5.86787
LJ          -4.79517        -4.78296        0.608196
LJ          -4.62243         5.54672        -3.69588
LJ          -5.96983         1.53972        0.702442
