108
#Comment!
LJ           1.05013        0.471218        -3.01325
LJ          -3.91704        -3.06118          4.2968
LJ           2.06583         2.23537        -2.12991
LJ           6.05084        -3.11821         5.41197
LJ           2.90657       -0.285273         3.92488
LJ           2.28493        -6.04565        -5.39251
LJ           2.95744        0.648626        -1.10002
LJ           5.69355          3.1621        -3.93395
LJ          -2.25485         3.17718        -5.41255
LJ           1.80987         -3.1225        -3.81961
LJ          -6.09878         1.21579        -5.80189
LJ           3.85863         4.45775        -6.16919
LJ          -1.55713         4.37212        -1.60543
LJ          -3.01105         2.81562        0.481587
LJ           4.31388          3.2248         6.33982
LJ          -1.32196        -1.06644       -0.379454
LJ           -0.8406        -3.61902         6.37102
LJ          -4.23108         2.88599        0.190389
LJ           2.36751        0.726612         4.22315
LJ           1.63773         3.73351          5.0285
LJ           2.96381        -5.85754         3.45854
LJ          -2.58401        -5.55761        0.817375
LJ          -6.42156         1.94718         4.39395
LJ           1.89944       -0.902935        0.952908
LJ           5.65497        -4.75603       -0.666571
LJ           2.35686         5.28712        -3.51536
LJ           -4.1577        -4.13438        0.524107
LJ           3.91099        -5.90895        -5.18435
LJ          0.288717        -3.46496         -5.8378
LJ           1.48153        -5.28784         5.71249
LJ          -1.85852         5.04536         3.62256
LJ          -5.05597        -3.53182          3.0153
LJ           -5.0954         -6.2616        -3.19199
LJ           3.13078         2.42706         3.43353
LJ          -1.89351        -2.43486        -4.40873
LJ           -5.7796         -1.1843        -2.38587
LJ           2.55054         4.74127         4.25343
LJ           4.00325        -1.70089         1.16344
LJ          -6.38298         3.65153        -2.02887
LJ           2.03912        -5.49993         1.91606
LJ          -5.54082        -5.97642       -0.522482
LJ          -3.02471        -3.99067         2.55174
LJ           -5.5133         5.37428         4.18273
LJ          -1.49323         6.09217        0.363497
LJ          -5.75196         4.85088        0.711213
LJ          -1.41123        -2.95228        -5.79115
LJ           -3.3576          -2.543        -4.10077
LJ          -5.42261         2.60332         5.57199
LJ           -4.8223         2.38566        0.966888
LJ           3.61367         4.42088         1.49294
LJ           -2.0131       0.0566601        -5.56202
LJ           1.47736        0.519188         5.50689
LJ          -4.78812        -4.08196       -0.644704
LJ          -2.60027         3.72621        -3.17626
LJ         -0.156785       -0.141565        -1.82866
LJ           4.82507        -5.32983        -2.28282
LJ         -0.164147       -0.938636        -4.48293
LJ           3.86104        -2.75143         2.80818
LJ          -5.76247        -3.99496         -0.3482
LJ          -5.36873        -1.04819        -5.24967
LJ           4.98804         -3.8805       -0.495907
LJ           2.07212        -4.24377         6.16292
LJ          -2.77206       -0.969105        -4.03529
LJ            3.6852        -3.87985       -0.874248
LJ         -0.117564        0.939966       -0.252794
LJ           1.60771        -2.51498         -5.9221
LJ           -4.5085         1.58299        -5.96115
LJ           2.94282       -0.326227        0.922958
LJ          -5.45941        -4.86699        -5.81246
LJ           3.24874         -3.6088        -1.90893
LJ           1.25562         5.02501        -3.18607
LJ           3.93502         3.49227        -5.25281
LJ           6.21473        -3.99041         1.07048
LJ           6.01672        -0.67411        -4.54533
LJ           6.17539       -0.880074        -5.83156
LJ          -3.78358         -1.1697          6.2893
LJ           4.77843         1.60807         6.16439
LJ          -2.00488        -4.71907        -5.03799
LJ           4.27702        0.443864         4.67841
LJ          -6.16944         -5.9065         5.07653
LJ           4.30615        -5.71132         3.94989
LJ          -2.32959         5.52821         2.72986
LJ           -1.7866         2.03371        -4.80659
LJ          -5.34492        -1.60408         4.65594
LJ          -1.99091         2.18285         6.35118
LJ         -0.119953         1.26406         5.08621
LJ          -5.81386          3.6075          1.1855
LJ          -2.56033        -6.06031        -5.18579
LJ           4.30606        -3.60141         4.42214
LJ         0.0952344        -5.69397        -2.34883
LJ          -4.61752         3.94785        0.159056
LJ           1.69472         5.15125       -0.223276
LJ         0.0331513         2.35437         -0.2616
LJ          -4.57051         1.06425        -3.63928
LJ           3.71642        -4.59852         0.89031
LJ            5.0895       -0.268474         1.72623
LJ          0.447733         4.96604        -4.92491
LJ           6.37779        -4.17417           6.171
LJ          0.890693        -1.35817        -1.91554
LJ           4.03467         6.00713         2.71883
LJ         -0.726904       -0.796868         4.91118
LJ          -4.31527         -2.1713         2.00143
LJ          -2.33305          3.9398       -0.876548
LJ          -1.86878         -4.8389         0.49477
LJ          -5.30806        -3.80334        -4.74114
LJ          -2.23794         5.49593        -1.39125
LJ           4.66551         0.39738        -3.87888
LJ           6.40373         4.48769         3.57396
