108
#Comment!
LJ           4.90206         -5.2175        -5.58236
LJ          0.205256         4.13543         3.12895
LJ         0.0594378        -3.42385        -1.89717
LJ          -2.62378        -4.74598        -1.55957
LJ           3.32321         6.02945        -3.28507
LJ          -2.07293        -2.09781        -4.22517
LJ          -3.64297        -2.12058        -3.03211
LJ           4.38189        -2.41172         6.18367
LJ         -0.914276         2.28243         1.39956
LJ          0.491054         2.07125         5.17577
LJ          -2.81672      -0.0237984        -4.63043
LJ             5.244        0.605992         4.81843
LJ           3.01307        -5.95027        -3.76907
LJ          -2.11368         3.14459        -1.97921
LJ          -4.70392       -0.413186        -3.63942
LJ           5.95261        -3.55308        -4.76491
LJ           3.54713         3.80766        -1.02958
LJ          -2.99771        -4.60875        -5.75518
LJ          -4.26841          5.9474        -6.13033
LJ           3.79243        -4.94176        -0.88839
LJ           3.58343        -4.83582         4.00987
LJ           2.85268         5.79397         3.99035
LJ            1.5454           1.568         -4.8682
LJ           3.63961        -1.70958        -1.91709
LJ         -0.685444         6.25079         -4.5907
LJ           1.49886        -5.69602        -4.32088
LJ         -0.503414         2.99651         3.50344
LJ          -6.09638        -2.26411        -3.33917
LJ           2.24115         6.10485        -4.30906
LJ           5.16137         2.17268        -4.45959
LJ           1.39832        -3.01943        -4.66456
LJ           6.35111        -3.30598        -2.84154
LJ           3.68965         2.76362         5.63409
LJ           1.75059        -6.29689        -5.12426
LJ           2.35732        0.850095        0.408285
LJ            -2.699        0.504402         5.29288
LJ          -3.86373         3.88584        -2.70307
LJ          -2.09983        -2.00593        -2.02434
LJ           6.06835        -5.92654        -4.42084
LJ          -4.65102        -2.55246        -2.58437
LJ          -5.34446         5.64928        -4.66799
LJ           -2.5209         5.08282         1.63458
LJ          -1.94897        -2.71697         4.11523
LJ           1.40567        -2.56838        -1.32043
LJ          -1.46934         1.50575        -1.95894
LJ           4.57291         5.22269         4.56575
LJ           2.03409        -4.37808       -0.775874
LJ          -4.13581        -3.50219        -4.33736
LJ          0.171483         2.91115         -2.1927
LJ         -0.731057         1.61227      -0.0996884
LJ           -1.3214        -6.33905         2.41766
LJ          -2.16675        -5.76068         3.22287
LJ          -4.01144         2.28477         1.98551
LJ          0.217676        -5.33385        -2.09732
LJ            5.8455        -5.18286        -3.57189
LJ           1.11122         3.83416        -2.95229
LJ            1.4397        -6.16057         4.15481
LJ            3.3067      -0.0788555        -5.44679
LJ           1.04362         5.56427       -0.147339
LJ          -4.81914         5.58973        -1.43947
LJ        -0.0765795         2.99932         2.29458
LJ          -2.89389        -2.57386        -5.72788
LJ           -3.9953         2.41251        -1.27441
LJ           2.57122        -3.60259         4.72812
LJ          0.928896        -5.29328         2.46275
LJ           3.33067        -3.68342          3.5186
LJ          -2.38123        0.782699       -0.579153
LJ          -3.73493          1.1777         1.65976
LJ         -0.203216        -5.29995        -3.67627
LJ          -3.00446         2.48681        -0.51459
LJ          0.560552          4.2111        -4.13577
LJ          -6.37285         4.37697         3.32788
LJ          -2.47992         2.98587        -4.86582
LJ          -5.76622        -2.90604        0.281485
LJ           0.96576       -0.193631          5.5381
LJ          0.917092        -5.30373          5.8451
LJ          0.367092         6.15518         -2.4944
LJ          -5.63253        -6.22125        0.931173
LJ          -4.09841        -1.87738        -3.97385
LJ          0.806946        -2.96271          2.8026
LJ          -2.99286           4.202        -6.43935
LJ          0.278448        -5.10393         4.09568
LJ           2.41706        -3.85808        -3.39507
LJ           5.69899         3.53411        -6.03153
LJ           -4.5129         4.83148       -0.573359
LJ          -2.12218        -4.26511         2.32158
LJ          -0.74861        -5.54412         3.53133
LJ          -5.61199        -2.55217        -2.53204
LJ          -3.82561        0.148716         2.02862
LJ           1.25665          3.4201        0.362446
LJ           4.23767        -5.91794         -1.8145
LJ           4.62851         3.37004        -4.53327
LJ          -2.06829       -0.294323      -0.0828602
LJ           1.79861          -4.596         4.98339
LJ          0.831747        -4.31161        -5.00446
LJ          -3.73276         4.96527        -2.13971
LJ          -3.55966          5.4612         3.37803
LJ           2.39542         3.91781         5.52202
LJ           5.26325          6.0872        -4.48823
LJ            2.4489       0.0783013         1.95708
LJ          -5.40319        -2.85516        -3.86146
LJ           1.64091          -2.165         -5.2903
LJ         -0.585613        -2.87852         3.60435
LJ            1.7145        -2.97881         5.56828
LJ         -0.841211        -3.89514         3.94767
LJ         0.0887104        -5.79024         2.05041
LJ         -0.838175         5.04038        -3.60154
LJ            4.1901        -5.86749        -6.27889
