108
#Comment!
LJ           6.16473        -5.59198         2.60384
LJ          -6.01456         5.65201        -4.63574
LJ          0.960435         5.83385         2.71389
LJ          -5.61262         1.22534        -5.97504
LJ           1.74195          2.3125         1.88193
LJ          -5.84767         4.11755        -1.86059
LJ           3.39274         4.29388       -0.963222
LJ           2.42019        -1.63494         -5.7977
LJ           4.67087         5.19513        -3.07007
LJ            -2.571         3.05531      -0.0895572
LJ           4.69446         1.94092        -6.10063
LJ          -4.69316        0.524918        -4.18847
LJ           3.55672        -4.05307       -0.367655
LJ           3.78794         1.63493         6.13794
LJ          -2.17851        -5.96094        -5.07415
LJ          -5.69363         5.78987        -2.93186
LJ           1.39846        -3.20637        -3.05945
LJ          -0.35921        -1.62527        -3.85414
LJ          -1.82733        -1.23669         6.16923
LJ          -3.80456        -1.03783         6.29448
LJ           -4.5791          4.5092         5.01234
LJ          0.403945        -2.13675         3.84374
LJ           1.79477        -5.88969       -0.716713
LJ            -2.603        -2.43819       -0.281443
LJ          -5.00945        -1.13148        -3.77693
LJ           2.41532       -0.931964       -0.590757
LJ           4.59146        -1.18283        -4.33382
LJ           4.73404        -4.15124         3.66141
LJ           2.58475        -3.98624         4.91378
LJ          0.666636        -2.70673         2.80917
LJ          -5.29621         4.92824        -2.22868
LJ           6.08489         4.53165        -5.40646
LJ          -4.39401         -2.7681        -1.91683
LJ           4.56009        -4.14524       -0.414907
LJ           2.58377        -5.41849         4.46298
LJ          -1.59232        -3.42864        -4.59896
LJ          -1.03673       -0.118242        -2.02476
LJ           5.87874        -3.43454        -5.19685
LJ          0.425145         3.55148        -2.99466
LJ           3.54926        -2.83327        -3.48358
LJ           4.40453        -6.18839        -0.85234
LJ         -0.815226        -2.60495         4.12976
LJ           3.20351        -1.22687        0.131255
LJ          -5.14943        -3.00758       -0.666971
LJ          -6.19643       -0.584829        -3.81673
LJ         -0.481405        -5.13305        -4.70053
LJ          0.676673       -0.146717        0.336618
LJ          -6.16906        -3.22505         3.11318
LJ           4.11137        -2.29523        -1.51663
LJ          -1.60161        -2.01533        -6.07448
LJ         -0.701802         3.34941         -6.4589
LJ           1.42586        -3.24559         1.19129
LJ         0.0711021         1.52206         5.68695
LJ          -4.80239        -1.71061          6.4331
LJ          -3.53313        -2.66968         3.33926
LJ          -3.20762         -4.1112        -3.88663
LJ           2.82526        -5.41774        -5.18175
LJ            4.5723         3.47371          3.3085
LJ           4.68328        -4.15272         1.30938
LJ          -4.56549        -2.93973         2.42465
LJ          0.344742        -3.05402        -1.56915
LJ           1.53742         1.94708         -2.8945
LJ           5.14662        -6.05274        -3.01949
LJ         -0.405018         2.25291          6.2485
LJ          -2.54319          6.3973         5.40643
LJ          -4.28011         5.86019        -2.82025
LJ           3.05467        0.350958         4.12701
LJ           0.94918        0.592905         2.32976
LJ          -1.79341        -2.29497          1.1675
LJ          0.752046        -2.58385        -3.76624
LJ           0.19091         2.14618         4.29972
LJ          0.721892      -0.0123731         1.51002
LJ          -1.95804        -1.69935         3.16404
LJ           4.84121         6.02314        -4.24102
LJ           1.67696        0.207334         3.21529
LJ           3.38993         -3.4936         1.62801
LJ           6.30669         5.52001        -1.37594
LJ           4.68579       -0.679786         1.69821
LJ           6.34733        -5.50235         1.57831
LJ        -0.0500726         3.79256         5.15707
LJ          -6.38389         2.42652        -5.34678
LJ         -0.706004        -2.17093        0.444315
LJ           4.17128        -2.68692         3.67932
LJ          -5.35297         6.10387        -3.84563
LJ           5.67843        -1.77189       -0.451129
LJ          0.559642       -0.193894        -5.49551
LJ          -1.48984        -3.77711        -6.34684
LJ           2.49784        -5.86506        -2.47482
LJ          0.339553        -2.73196        -6.36252
LJ          -1.37925        -3.58674         4.18974
LJ          -4.61293        -4.19339        -1.33154
LJ           6.05697         5.82471         2.80672
LJ           2.14721         1.84889         5.30345
LJ          -5.58542        -3.07859        0.835981
LJ          -2.49499        -2.41436        -5.25919
LJ           5.72768        -4.88902         6.29446
LJ          -2.47639        -2.56032         4.28988
LJ           5.31978         2.08288         -3.5694
LJ         -0.382857          2.0681        -2.05369
LJ           6.40864        -3.75753        -6.30705
LJ          -2.21836        -4.43594        -5.02026
LJ          -4.99229         4.66251        -4.10408
LJ           4.75324        -2.45548         4.67388
LJ           4.20166        -4.41939         2.75283
LJ           0.65986         4.09981         1.89545
LJ          0.825256        -4.73018        -3.31902
LJ           4.42249        -5.92604         4.59449
LJ           2.30844         4.27991         5.21805
