108
#Comment!
LJ          -1.57531       -0.883071         4.28993
LJ           5.58508       -0.474561         1.53032
LJ           4.19029         -1.4492        -2.07978
LJ          -3.41882         3.36523         1.13254
LJ           5.26788        -3.46082         2.93572
LJ          0.330809        0.530695         4.04078
LJ           1.16753          2.2971         5.90411
LJ          -5.60158          3.4024          -2.265
LJ          -1.60637         3.97683         -2.4151
LJ            1.8917         1.85366        -6.05312
LJ           5.80467           1.788         1.62105
LJ            4.4605        -2.44857         1.66587
LJ          -3.17643        -1.73155        0.315015
LJ          0.156328        -5.84658        -4.50663
LJ           5.74346        -4.01268        -3.75874
LJ           1.67895        -1.41135         -2.9177
LJ           2.49396        -0.17128        -2.35838
LJ          -4.82267         5.79583         -1.0399
LJ        -0.0483198       -0.458326         4.05817
LJ           3.81424         1.60709         6.36685
LJ          -1.25277          3.5574         -1.4775
LJ          -3.18275        -5.94985        -1.42039
LJ          -5.34258       -0.557683         -3.5442
LJ           5.02703        -3.90749         5.42024
LJ          0.541228          5.3115        -4.47597
LJ         -0.329029        -5.95879         4.71643
LJ            4.1225        -3.07639        -5.24344
LJ          -5.80618        0.641385        -4.59508
LJ           1.61683          2.0076         1.26668
LJ            5.4063         3.08723         1.78954
LJ          -3.26661        -5.39179        -0.27128
LJ           2.82784         -1.7842        -1.10632
LJ           3.16776         3.65073        -2.29244
LJ            2.0788         4.71087        -3.86038
LJ          0.307802        0.585641         5.83277
LJ           3.20512        -3.40688        -1.22484
LJ           2.74727          4.3309        -1.75862
LJ           6.06906        0.423937        -3.34758
LJ            -6.459       -0.432801         4.24258
LJ          -4.58737        -2.74872        -2.11171
LJ          -2.10833        -4.80455        -5.15946
LJ           4.84587        -3.11023        -4.26212
LJ         -0.885276         5.17529         1.33946
LJ           3.13801        0.905404       -0.717463
LJ          -6.00849         5.47286         6.42452
LJ          -5.33211       -0.374696        -1.13649
LJ           3.02431        -3.99388         4.69929
LJ          -5.10755        -6.32111        -2.97248
LJ          -5.32708        -5.29001        -3.59619
LJ          -3.44701         4.43923        -1.64783
LJ          -1.47939        -1.27017        -1.18798
LJ          -4.42169        -4.92769       -0.890189
LJ            3.5922         2.21939        -1.89693
LJ           2.63197         1.81956       -0.856451
LJ          0.651958         -3.4439       -0.919977
LJ           5.94448        -3.74875         5.88618
LJ          -4.57854         5.27534         3.88357
LJ        -0.0744628          2.9717        -2.83406
LJ           -2.5153         -6.0314        0.674244
LJ             4.667         1.24057        0.490683
LJ           4.96722        -6.04513        -3.61844
LJ          -4.24387        -5.94759         5.56508
LJ           1.65606        0.814856        -4.85377
LJ          -1.36394         2.36786       -0.583969
LJ          -1.86764         -6.4525         3.18317
LJ          -2.71118        -1.52267         3.22775
LJ           4.81394         3.69391        0.697374
LJ           4.82837          -3.241         4.61824
LJ            -1.405         1.27926       -0.776042
LJ          -3.06566         2.28577        -1.73891
LJ            5.0445        -1.21911        -4.83319
LJ          -1.33774         4.42516       -0.843591
LJ          -1.31258         2.00101        0.318894
LJ          -1.74883        -5.03774        -3.63059
LJ           5.82625         3.90468        -1.68054
LJ          -3.94879         1.53369         6.45338
LJ          -6.14576        0.824762          1.7356
LJ           1.63573        -1.21263         2.31181
LJ           4.81941         2.20743         1.28192
LJ           2.28955         5.66593       -0.194654
LJ           3.28167         4.16831         -3.2089
LJ          -4.96786         3.85245        -5.32299
LJ           1.74269         3.21767        -2.68954
LJ           2.22156         6.16435        -5.66084
LJ           1.52405         2.46039            3.18
LJ           5.56703         2.61213        -4.95295
LJ          -4.57451       -0.565915        -4.86505
LJ           4.30823        0.312402        -6.17382
LJ           5.77095        -1.26109         4.06675
LJ           3.46077         4.69722       0.0503734
LJ           4.62925         1.10951         1.86337
LJ          0.883121        -5.78157         -2.2171
LJ           -3.3009         6.23432        -4.33536
LJ             5.461        -6.44869         -1.1084
LJ           4.60985         5.46648      -0.0499535
LJ          -4.43336         6.44119          6.3267
LJ           5.95881         3.70369       -0.365318
LJ             4.678         3.08731        -2.24238
LJ            4.6314         1.63493        -5.12839
LJ           5.70651         5.86281          4.4135
LJ          0.611828        -2.61247         5.49916
LJ          -4.10402         -3.2265         6.26844
LJ          -5.50953       -0.225332         1.75357
LJ           4.85045        0.999194         4.68168
LJ          0.894358        -3.40218         4.63142
LJ          -5.20594        -5.29122        -2.26925
LJ          -2.70366          5.6236        -6.26686
LJ           5.33688         2.85655      -0.0271238
