108
#Comment!
LJ           2.11293        -2.20555       -0.369851
LJ          -1.17545         5.93126        -1.63518
LJ           5.38155         5.91628         5.13342
LJ           -1.7582         1.25836        -6.04055
LJ           5.37581         6.27175          2.7224
LJ           1.25806         4.94467         -2.6224
LJ           2.86001         1.34272        -5.17416
LJ           1.88136         3.52127        -5.51092
LJ           6.17049         2.89358         3.49915
LJ           1.42894        -4.82561         5.07183
LJ           -3.4792         5.73397         5.60765
LJ           6.34958        -4.31487         5.65425
LJ           1.69158         4.93806         3.96594
LJ          -6.07188        -2.81086        0.903944
LJ           4.55476         3.62908         4.89652
LJ          0.964489         4.41891         5.84027
LJ          -4.22134        -3.61972        -3.37229
LJ          -1.74918         2.62038        -4.50835
LJ         0.0463131        -4.89611        -5.03138
LJ           5.14088         2.56009         4.33354
LJ           2.96957        -3.38076        -2.20016
LJ          -1.72244        -1.38645        -1.58981
LJ          -3.11943        0.816795      -0.0359765
LJ        -0.0807951        -1.46754         5.86075
LJ          -3.25573        -4.55468         4.41276
LJ           1.49748         5.33977         5.95565
LJ           3.91808       -0.725834        -2.17854
LJ           3.02452        -6.06432        -5.06311
LJ          -2.44842        -6.07351         6.10025
LJ          -6.29873        -4.12007           2.974
LJ           6.44617        -3.67391          2.0036
LJ           6.42603        -6.06312         5.39199
LJ          -1.72883         3.22693        -6.40611
LJ          -4.26151       -0.622448        -4.69887
LJ          -2.74433         2.42988         1.51975
LJ          0.140568          1.6525         6.22209
LJ           -4.3938       -0.602365       -0.704987
LJ          -4.11165        0.629119         4.30981
LJ          -2.18669         5.37376        -1.77887
LJ          -2.95943         -3.0508         -5.7834
LJ          -5.89956        -1.22956        -4.33533
LJ         -0.227809         4.99243        -2.72509
LJ          0.493359         1.37732         0.98559
LJ           4.38404        -2.07665         0.80282
LJ           3.85695        -1.76124        -6.16231
LJ          -2.50921         -1.5639         0.40364
LJ           2.41789         3.65778        -3.08567
LJ         -0.299838       -0.443179          2.2324
LJ          -6.37347        -2.24977        -6.44218
LJ          -2.24084        -1.82791        -2.88954
LJ          -1.17615         3.92106         1.71649
LJ          -2.00993        -1.93075        -6.39067
LJ           -5.5119         2.81805        -4.94577
LJ           5.53476         3.74007        -4.47106
LJ         -0.712249         3.79737         3.70722
LJ          -3.41151          2.3465         -1.5176
LJ          -5.04556        -3.62953        -1.48349
LJ           5.72272         2.26108         2.00521
LJ           4.50208         3.59232        -5.34741
LJ          -2.50606         4.31936        0.499409
LJ          -2.14192       -0.242003         -1.2783
LJ          -2.90406        -6.13172         5.08839
LJ         -0.615895        -3.30636         5.73761
LJ          0.586876         2.05858        -4.71564
LJ          -3.83229         -6.2012        -1.81547
LJ          -1.79835        -2.62922         3.41847
LJ          -5.00789        -3.74267         -4.3753
LJ           3.19784       -0.446995         -5.8368
LJ           4.32367         -6.4198         6.07183
LJ          -5.07978        -5.94842        -1.97807
LJ           1.93287        -3.45934        -6.44532
LJ          -2.81353         5.30796         -3.9965
LJ        -0.0393901        -6.04396        -4.64987
LJ           5.31224         1.43759         2.73845
LJ           2.87409        -2.21432        -1.13059
LJ          0.862062         3.14195        0.387148
LJ           1.18116         3.13466        -4.06671
LJ           3.16375         6.22559        -2.26132
LJ            -1.978        -4.04825        -6.39749
LJ           6.43489        -4.19447        -2.58816
LJ          -2.20362         3.70292         3.02812
LJ          -5.20556         -2.9295        -5.46472
LJ          -1.50319        -4.84727         4.07121
LJ           2.46406        -6.25919          1.7514
LJ          0.141927         3.48597         5.25068
LJ          -2.60852         5.77231         4.87867
LJ           5.49435        -5.11391        -6.10515
LJ         -0.800057        -2.01023        -1.08176
LJ          -2.76084       -0.116684         2.50381
LJ          -5.32227        -4.93913         5.46692
LJ         -0.538135          3.3262        -2.83852
LJ          -2.89047        0.185239        -5.30107
LJ           2.44792       -0.306836        -3.27006
LJ           -4.3375         1.77414         3.06193
LJ          -4.84228          1.2593          2.1849
LJ          -3.64433       -0.746734        0.129968
LJ           3.85026         5.43205         5.32536
LJ           -4.0904         2.83802       -0.619228
LJ           3.94188         5.75802        -3.05566
LJ           1.36845        -2.26282        -6.20815
LJ           4.62529        0.925969         0.69939
LJ          -2.29454         6.34056        -5.64499
LJ           5.66927        -3.23953        -3.36973
LJ          -3.60284         1.96336        -5.06624
LJ         -0.445158        -5.38739         5.57248
LJ          0.117539         -1.6203        -5.28889
LJ          -4.07912         5.98025         6.40813
LJ           4.58169        -4.38662        -5.86751
