108
#Comment!
LJ          -3.65592       -0.297299         4.99257
LJ           5.92978        -2.77972         -2.9964
LJ           3.58465        -5.12098        -1.64112
LJ          0.889591       -0.204967        -5.23252
LJ          -4.75611        -5.66647       0.0848359
LJ           6.45713        -4.97549         1.47758
LJ           -3.9629         4.98655        -5.52686
LJ          -1.27804       -0.453363         1.65996
LJ           4.65656       -0.656548         5.61477
LJ           -5.2737        -3.86164         2.86336
LJ          -1.95044        -4.95495         5.83733
LJ           4.95427        -1.35218         3.44182
LJ           1.14781        -4.66781        0.420596
LJ           -2.6664         1.20886         5.65165
LJ           2.01621        -5.38311          2.8796
LJ         -0.380144       -0.851095         4.94767
LJ            3.9298         1.94658         3.95178
LJ          -2.95848        -1.97662         4.96168
LJ          -5.87438         2.48301         5.56023
LJ           -4.7757         5.23721        -3.09788
LJ          -4.10751         6.40054        -4.44426
LJ          -4.19215         2.37059        -2.55503
LJ           1.43025       -0.554289         2.28257
LJ           4.96162        -3.32848       -0.297942
LJ           5.11407       -0.717229        0.182444
LJ          0.266985           3.746         1.14715
LJ           2.05332         2.19748         5.79354
LJ          0.844561        -4.92301         5.16297
LJ          -5.44071        -4.90823         4.80863
LJ          -3.57399         0.44041         2.11392
LJ          -3.43564        0.895551         4.60102
LJ          0.469195         4.28961        -1.80199
LJ           2.55177         4.84441        -1.03556
LJ           5.92842        -4.78025         3.26383
LJ          -4.27768         2.83317        -4.04318
LJ           2.94453         2.94984         2.48332
LJ           5.42071        -2.91375         -4.2986
LJ           3.50709         -1.2843         4.56431
LJ           4.96913        -6.02527         6.40441
LJ           5.81755        -5.52879        -2.14394
LJ         -0.163754        -4.65224        -3.39529
LJ          -3.39775        -5.14855         2.93232
LJ          -3.52668        0.948919        -1.82822
LJ           -4.9153        -5.35652        -3.64802
LJ          0.615431         4.18162         6.18926
LJ          -5.81474        -2.65099       0.0475459
LJ           6.38259        -1.86103         4.47878
LJ           5.15202        -4.54798        -1.47794
LJ          0.572508        -5.65793        -1.74978
LJ           3.15591         5.36244      -0.0525242
LJ           4.37679        -4.81393       0.0226898
LJ           5.61579         -2.2247        -6.33339
LJ          0.353329        -5.85574         5.61574
LJ           5.12783          1.3398       -0.346132
LJ           5.98712       -0.294847        -2.35375
LJ          -6.11461         3.92696        -3.73901
LJ          -3.23249         1.27298        -5.66289
LJ          -1.65862        -1.64768         4.99002
LJ          -1.31367        -2.79966        -1.94422
LJ           4.67635         2.10612        -1.96919
LJ           -3.7354         4.14651          3.5746
LJ           5.85669         6.29729        -3.34943
LJ            2.4016         5.76499         -2.8599
LJ           4.47615       -0.303442        -5.11974
LJ          -1.43307         3.39291        -3.58606
LJ          0.832215        -5.86367        -2.95439
LJ           4.34129        0.540832        -2.41452
LJ           2.48245       -0.952942          2.5444
LJ          -6.03516        -1.46414        -3.51706
LJ           2.31075         1.42679          4.9408
LJ          -2.92906        0.132202       -0.650805
LJ           1.52853         5.82697       0.0230813
LJ          -3.87751        -5.56075        -6.01393
LJ          -4.86037         5.13951           3.505
LJ           5.94775          1.7475         -3.8634
LJ          -1.58367        -5.46955        -2.47186
LJ          -5.51942         -5.0802         3.04675
LJ           -3.1527        0.713371        -3.92291
LJ         -0.781053         1.35761        -3.78476
LJ          -6.05308        -2.13145         2.99353
LJ          -5.89333        -6.05181        0.510645
LJ          -3.07794         -2.8856         3.83873
LJ         0.0181722         1.03281         5.55814
LJ          -2.88041        -1.14668         6.40662
LJ          -4.24644        0.539343        0.701521
LJ          -1.91818        -5.49278        -1.44078
LJ          -4.50805       -0.495253        -5.28081
LJ          -5.68093         5.84657        -3.48717
LJ           5.01977        -4.07188        -3.89852
LJ           2.70352         2.47344        -5.73967
LJ          -4.46404        -3.06525        -3.34996
LJ          -1.85973        0.487208         3.16361
LJ          -0.41531       -0.298802         3.04234
LJ          -2.53324        -6.45198         2.92312
LJ          0.874918        -1.64119        -5.04833
LJ           3.06039        -5.86787        -2.73493
LJ           3.05455         4.87899         2.00715
LJ           2.00919       -0.388014        -6.14398
LJ           2.98828         3.34639        -2.50058
LJ          -3.61354         2.07754         4.68388
LJ           5.66941         1.17648         3.57209
LJ          -5.44113        -3.16495         4.73581
LJ          0.698027         5.35254        -4.67906
LJ           4.60114        0.360857        0.365301
LJ            3.2157         1.96345        -2.47574
LJ          -1.50209         3.18468         1.32454
LJ           4.05106        -3.68675         2.71663
LJ           2.14514         -5.5391        -1.10686
