108
#Comment!
LJ         -0.396768          3.2851         -2.1407
LJ          -3.65759        -2.76852         3.19822
LJ          0.013135         1.62549          5.4739
LJ          -5.69391        -6.22187         5.89128
LJ          -5.34859         5.34394        -5.48394
LJ          -2.59145        -1.46275        -5.03206
LJ          -1.86239          6.3464         4.34977
LJ            2.6093         -1.6724         -2.5734
LJ         -0.816286         2.71456       -0.129253
LJ           5.72666        0.996123        0.462665
LJ          -1.38687           2.704         1.88513
LJ            4.0195         3.60828         5.85235
LJ         -0.349998        -3.70952         1.25685
LJ          0.931665         2.94802         5.75036
LJ          -5.26979        -2.81134         2.27858
LJ          -4.11347       -0.768138         4.14637
LJ          -6.29589          1.1004         1.57916
LJ          -3.47445        0.607249        -5.92037
LJ          -2.70934         4.65951         5.72422
LJ           4.85249         5.74203        -4.99825
LJ          -2.88572         4.99271        -5.56865
LJ           5.10912         2.54936        -3.36532
LJ          0.810106          2.7586         1.70096
LJ           2.68793       -0.176479         2.77441
LJ           4.59506        -1.59922         1.61073
LJ           1.18159        -4.64026        -6.10644
LJ          -6.31111        -2.48539         -4.8972
LJ          -4.56306         3.76449        0.459095
LJ          -2.19952        -5.00592         1.80025
LJ          -4.40836         5.71946        -4.69798
LJ           4.92086         5.62951      -0.0469399
LJ          -1.68236        -5.73887        -1.88317
LJ           -4.8183        -4.96976        0.997676
LJ           4.27122       -0.420133         4.33655
LJ          0.606791        -5.32675        0.571182
LJ          -3.85722        -2.72818        -1.30502
LJ           2.88884       -0.668251          1.8518
LJ          -6.20472       -0.679146          2.8114
LJ           2.06741         1.39129        -2.45595
LJ           1.16775         5.49083        -6.30856
LJ           4.03659       -0.582062       -0.256747
LJ          -6.01017        -1.37681         5.88099
LJ          -5.85376         4.79017        -6.22258
LJ           1.05645        -2.61415         2.84602
LJ          0.131361        0.591464          3.7976
LJ            2.5887      -0.0623145        -1.71774
LJ          -4.10749          5.5129        -6.05941
LJ           4.51077         2.84593        0.343819
LJ           1.85336       -0.724864         3.74461
LJ           5.27817         1.09606         2.84373
LJ          0.096527        -4.10402       -0.847234
LJ           5.13897       0.0717649          -3.571
LJ          -4.85123         3.58142         2.78869
LJ           2.58978         -5.8563        -3.71127
LJ         -0.580569        -5.75132        0.456908
LJ          -4.02151        -2.77492         1.65937
LJ           4.36039        -1.96969        -1.84264
LJ           4.98653        -5.12551         4.09297
LJ            3.6491        -1.56412           5.595
LJ          0.794382           3.926        0.308751
LJ           2.61044        -3.56687         5.79263
LJ          -5.95371       -0.654827        -5.08027
LJ           2.81321        -6.35882         5.26175
LJ          -3.73218       -0.756826         5.39974
LJ           5.21158         2.99905         1.10649
LJ          -3.01767        -5.36578         3.32118
LJ          -2.48803       -0.207631        -2.41037
LJ          0.636164         4.67811          5.1757
LJ          -5.45424        -1.75634         4.98671
LJ       0.000791341        -6.04851         2.44487
LJ         -0.606481         5.73971         2.90293
LJ         -0.743776         2.89442         1.01335
LJ           3.61376         4.55177        -0.73704
LJ          -1.39271        -5.77033         -5.9287
LJ            2.2764         4.22097        -6.27854
LJ          -1.93321         3.49081        -3.44061
LJ           3.53615         -2.2804         6.37201
LJ          -5.92201        0.454068         -1.1107
LJ           4.42626        0.315805         -2.0962
LJ           6.22496        -6.31684         2.12069
LJ          -1.63689         3.64421         3.79037
LJ            5.6213         4.83708         6.37692
LJ          -5.41875        -2.78082         4.43563
LJ           6.00779         5.15063        0.311292
LJ           4.93546         1.02568        -4.74809
LJ           5.66243        0.259103         2.29119
LJ          -5.16344         2.93209        -0.75377
LJ           2.08947         6.34838         1.53245
LJ         -0.365215       -0.417202         4.46689
LJ          -4.55361         4.26887          3.6331
LJ          -4.75487        -2.90659       -0.341902
LJ          -1.28445         3.01457       -0.989112
LJ         -0.877216        -6.28856         3.61806
LJ          -5.83033         3.06227         5.33345
LJ           4.87097        -2.41366         0.43258
LJ          -4.57124        -1.12522        -2.67363
LJ          -5.21291        -1.15579         3.40359
LJ          -2.45342         1.83393        -4.46978
LJ           3.62742        0.133998        -3.25736
LJ          -5.57874        -5.44876         -5.2234
LJ            -2.504        -5.70553        -5.56479
LJ           -3.3199          5.6357        -1.16775
LJ         -0.705168         5.58159        -2.73037
LJ           1.21075       -0.656616       -0.328752
LJ          -3.08777        0.927214         2.26261
LJ           -4.0387         1.32132        0.665605
LJ          -5.69656        -1.25524        -2.67679
LJ          -3.04263         3.63605         6.39392
