108
#Comment!
LJ          -0.29001        -2.67473        -1.60563
LJ           5.32787         2.75025         1.35639
LJ           6.20174        -1.50967        -2.00099
LJ           3.25484        -4.88817         1.85027
LJ          -3.02317           -2.81         3.10658
LJ          -4.19616         5.95098         4.53305
LJ           1.75274        -5.54592         2.60221
LJ          -3.83991        -2.11332        -5.75229
LJ         -0.918122        -5.53745         -2.6799
LJ          -2.40278        -2.47143        -1.96142
LJ          -1.62289         3.17361       -0.578522
LJ           -4.9613        -1.49456         4.73614
LJ          -4.36318       -0.322554        -3.88049
LJ           4.79393        -4.64492         -5.4039
LJ          -5.69166         3.52698         2.32115
LJ          -1.62299     -0.00357752        -6.29133
LJ          -1.21314          2.7778        -2.97278
LJ          -5.12926           4.004        -5.64929
LJ          -3.41912       -0.728963        -1.87968
LJ          -1.74521        -2.80879        -4.24066
LJ          -3.27645         3.45634         3.51055
LJ         -0.290446         5.16575         4.54764
LJ           5.79763        -3.98831        -5.14656
LJ           5.70532         3.55873         2.72601
LJ            5.3615         5.31455        -4.13283
LJ           3.62051         2.43305         4.68692
LJ          -1.59599         3.97812        -3.96249
LJ          0.622163         3.74273         4.97282
LJ           1.01609        -1.43012         3.32611
LJ           3.65332        -1.95316        -4.00376
LJ           3.02917         2.44625        -1.80999
LJ          -0.52786         5.40926        -2.60378
LJ           4.54439         2.66092        -4.30077
LJ           3.07327        -6.23132        -1.00805
LJ          -2.29623         2.21635         1.09228
LJ          0.966575        -4.56426          5.1332
LJ          0.667029         -1.7861       0.0371031
LJ           1.07418     -0.00412343       -0.665344
LJ           5.60389        0.139751         4.52678
LJ          -1.98741         1.30521        -2.78036
LJ          -2.43894         2.74268        -5.87638
LJ           1.75004         3.06306         5.19711
LJ           5.63636         0.69297        -0.10775
LJ           1.55535        -1.35557         4.71528
LJ          -2.91288         2.79734         4.24722
LJ            2.4763        0.817184        -2.52358
LJ          -5.96375        -3.41436        -3.83863
LJ           3.22413       -0.131633        -2.84437
LJ           5.74628         4.46052        -2.38884
LJ           1.15172         4.60145       -0.850277
LJ           5.70945        -4.46446        -2.40552
LJ            -2.277         2.49061         5.56511
LJ           2.88826        -4.90059       -0.387856
LJ          -6.32424       -0.900779       0.0389236
LJ           -1.7216         4.78954         4.30258
LJ           1.20855         2.50333        -1.53773
LJ           -2.9699         4.33638        -3.68657
LJ          -3.13542         1.12713        -2.48293
LJ           1.03253        -3.69093      -0.0680627
LJ           -3.7367        -1.81342         4.20209
LJ           4.36113        -1.40894         1.95362
LJ          -2.79126         1.66617         6.20524
LJ           4.45049        -2.52775         3.21088
LJ           4.60304          6.2611         4.86242
LJ          0.339017         1.35311         1.99068
LJ          -2.13587        -1.75239         1.53152
LJ           6.44266        -3.82734        -2.74303
LJ          -1.70055        -5.13302         4.31575
LJ          -1.66609        -6.39407        -3.15607
LJ           2.05264         1.49261        -1.57482
LJ          0.284965        -2.07469         5.83081
LJ         -0.573806        -3.33289        -0.84686
LJ           2.76397        -5.91134          2.5397
LJ           3.99611         4.15369         1.73635
LJ           1.59848        -3.82518         4.17093
LJ         -0.367912         1.12892         4.94741
LJ          -1.56727        -1.54422      -0.0960895
LJ          -6.10811        0.905478         5.86609
LJ           -1.9462         5.42295         5.65587
LJ          -4.42459         4.73363        -2.43504
LJ           2.64596        -1.90388         5.98674
LJ           3.89697        -5.17471         1.18352
LJ           4.64501        0.125868         5.83938
LJ          -5.33875         3.87409         3.60213
LJ          -5.63054       -0.957995         4.16922
LJ          -3.35897        -3.21968        -4.88893
LJ           2.82424        -2.98303        -5.12291
LJ           3.40025         5.48623        0.408959
LJ           -1.4425         2.01879        -5.38683
LJ          -3.41152        -6.04297        -1.41754
LJ           4.23395        0.648248       -0.625532
LJ         -0.974295        -2.98553           3.596
LJ          -2.25015         4.41868         -6.0091
LJ          -4.85398        0.855876         3.53066
LJ          -3.66908        -1.48101       -0.696805
LJ          -3.31311        0.538826        0.717183
LJ          -5.28301         3.95077        -2.45192
LJ          -5.13446         6.44475         5.30462
LJ           6.25918        -3.89125         2.64972
LJ           -2.8715        -3.57897         3.87391
LJ          -2.52825         3.17089        -3.56507
LJ           5.79091        -6.19651         2.35403
LJ           2.21119          4.7711          -2.732
LJ           1.00384         1.36727        -1.98968
LJ          -3.83387        -0.81641         3.15008
LJ           -3.3397          4.1705         4.80704
LJ          -1.51447         5.54445        -3.01709
LJ          -2.50141        -0.28829        -4.14241
