108
#Comment!
LJ          -0.00213        -2.28175          4.3543
LJ           2.67084        -5.17819         3.73825
LJ          0.579717         2.61514        -3.28905
LJ         -0.999684         1.27504        -4.25603
LJ           5.78315         3.78204         1.55391
LJ          -3.54871         1.34697        -3.29329
LJ          -6.06509         3.71022        -5.01028
LJ           4.34198         2.78655         2.50615
LJ           5.68153         4.33647        -2.86899
LJ           4.93231         3.00614         5.46651
LJ           4.03461        0.309406         2.42558
LJ          -4.54638         5.21848         5.08299
LJ          -5.76003         2.43217       0.0254292
LJ          -2.67778         3.64248          1.0306
LJ           3.60587        -4.22088        -1.34031
LJ          -5.14083         4.05483        -2.66241
LJ           6.06269        -1.61243         2.13412
LJ           1.20473        -1.59413        -1.11798
LJ           4.44888         4.55371        -3.53099
LJ           4.66351         0.17197         5.22811
LJ          -1.34178         3.65075        0.692547
LJ           2.21791          2.2869        -2.81231
LJ          -5.02316        0.408561        -6.33802
LJ           1.80402         6.43961         3.81985
LJ          -4.35043         1.40098        -1.66432
LJ           5.66155        -2.64764        -2.72245
LJ          -5.42347         3.28992         4.93526
LJ          -1.53578        -1.79119        -4.07444
LJ            4.5061         5.07955         5.43292
LJ          0.375706         2.06711         3.09132
LJ          -2.79391        -2.57218        -3.08088
LJ           5.38356         5.21414         2.75479
LJ           5.30355        -5.72171         2.42472
LJ          -3.55818        -1.54416         1.00711
LJ           2.52038        -5.15766        -3.34796
LJ           1.41632          2.0279         4.71578
LJ          -1.53618        -5.69849        0.208829
LJ           6.43238         5.23767         4.61049
LJ          -5.47664         4.84192          1.7589
LJ           -2.2734        -3.05362         -2.2598
LJ           3.81563        -5.18523        -4.47033
LJ            3.1813        -1.49808        -4.50505
LJ          -1.22444        -1.53325         6.31065
LJ          -0.51668        0.505913        -2.17829
LJ           3.74928         5.68461         4.63521
LJ        -0.0637019         2.67789         5.95241
LJ          -4.17622         2.74166         2.86592
LJ          -5.27434       -0.752043          3.4975
LJ          -5.81168        -0.20874         -1.6283
LJ         0.0535287         1.55525         -4.2461
LJ           5.05509         1.00324       -0.753011
LJ            2.8228        0.453179         6.41591
LJ            1.3485         5.69162         3.37889
LJ         -0.660501        0.340318         6.39932
LJ          -4.45719        -5.96209          2.5408
LJ           4.87741        -5.85942         4.59621
LJ          -0.88799         2.47287        -5.91955
LJ          -4.24507        0.202009         3.18117
LJ             3.097         2.56261         5.95875
LJ          -1.11535        -5.83181         5.32268
LJ          -4.09981         4.57416       -0.792343
LJ          -3.16162         3.53497        -1.64939
LJ           -5.0264        -2.88809        -3.98494
LJ           4.17877        0.321163         1.16744
LJ           1.67117        0.598895         5.74809
LJ           6.10746        -5.15273        -1.31372
LJ          -3.90279         1.97581         4.63098
LJ          -6.19193        0.668306        -6.23576
LJ          -4.55834        -1.68348         3.32715
LJ           5.60431         4.13024        -1.19592
LJ           5.69529        0.149321         4.11776
LJ          -4.21277          -6.289         3.51844
LJ         -0.188217         -3.8873        -4.28917
LJ         -0.965672        -6.36855         4.00729
LJ          -1.36151         5.69737        -2.33925
LJ          0.033516         4.16639        -4.99944
LJ          -4.62406          4.4424         1.78172
LJ           0.44511         4.33163        -5.85361
LJ           2.33889        -6.38063        -4.46741
LJ          0.551201         -4.4937        -2.38614
LJ          -4.53616         1.97116        -6.09392
LJ            4.5302        -2.62584        -3.58719
LJ            5.6258         3.27953      -0.0126719
LJ          -4.03619        -1.08923        -6.08178
LJ          -2.92949        0.821813         5.52739
LJ          -1.68372         4.18017         5.75833
LJ           -5.0128        -1.18232         5.15743
LJ          -6.05151         3.47129        -1.42741
LJ           2.81155           5.211        -6.05365
LJ           3.44066         -6.3399        -5.00001
LJ             1.071        -3.69684        -3.01147
LJ           4.30646         5.01376        -2.16115
LJ           2.71503         1.82139        0.267387
LJ          -4.61934        -4.48051         1.86866
LJ           5.89588         3.04965         5.97987
LJ           2.96783         4.91817        0.728373
LJ          -4.37996        -3.01495        -2.58707
LJ           2.47055        -3.30475       0.0284314
LJ           2.29481        -4.35704         1.27707
LJ          -6.19366         3.74059        -3.45685
LJ           5.38979          5.1785         5.97173
LJ           5.94288       -0.694617         0.24533
LJ          -5.61764         3.91582         2.30972
LJ          0.964679        -3.72296        -5.27471
LJ           1.92119         3.46023        -5.84395
LJ         -0.719299         5.88528         2.83347
LJ           2.50782       -0.366385       -0.721372
LJ           1.25023         5.79856        -6.11551
