108
#Comment!
LJ           2.80184         4.58966         2.07001
LJ          -6.08327         4.37407         1.18348
LJ            1.3188         3.09224        -1.74112
LJ          -3.32202        -4.57146       -0.124241
LJ           1.55317        -6.11589        -5.29025
LJ          -2.78602        -1.43224         4.71493
LJ          -2.58173        -6.01395         2.71637
LJ          -2.78844        -4.61885        -5.00845
LJ           2.23575         5.16639         4.34324
LJ           1.38421        -2.87968         6.06075
LJ           6.21909       -0.848791         3.98032
LJ          -6.45809         2.02749          5.2483
LJ           5.00321         0.57671         3.58495
LJ          -4.51756        -3.29251         1.19057
LJ          -3.90324         1.93085        -2.26424
LJ           1.73928        -5.41321         2.74099
LJ           6.32001         1.80009       -0.366345
LJ          -4.26151       -0.419217         1.77799
LJ          -2.96225        -4.70158         5.08174
LJ         -0.982428        -2.65138         6.18538
LJ          -2.04303        -1.99297         6.23011
LJ           2.48226        -5.90553       -0.491921
LJ          0.651559        -3.49152        -1.41858
LJ          -2.96623        0.372516         -5.7291
LJ          -5.43445        -3.95275       -0.407198
LJ           4.27765        -4.45264          1.7147
LJ          -2.48255         3.04436        -6.33492
LJ           1.26531         1.36742        -1.21222
LJ          -4.61881         5.67378        -2.26083
LJ           3.92456        -4.82711        -3.49005
LJ           6.27212        -1.51316         3.12608
LJ           3.70939         -6.2391        0.979865
LJ          -6.28684        -4.60036         -4.6479
LJ          -2.19535         5.83836        -4.78095
LJ          -2.92274         5.59828        -2.78207
LJ          -5.52637        -5.01186        -1.99802
LJ           5.80842        -3.18771        -1.56046
LJ          0.217544        0.311588        0.511656
LJ          -3.52193         2.60707         1.19483
LJ          -3.67199       -0.801296        0.279173
LJ          -4.95193         4.17511        0.235222
LJ           -2.5833        0.081725         2.02649
LJ          -1.61215        -5.87111         5.35727
LJ           0.53866         1.39774        -2.04949
LJ          -4.52169         5.70577        0.477768
LJ          -2.23885       -0.676202        -1.63387
LJ          -1.91843        -3.11618         3.29358
LJ          -1.78418         4.34272        0.255592
LJ          -1.18906         -6.3686         3.48703
LJ           4.78715        -0.12803        -5.53282
LJ          0.691199         4.27192        -1.58469
LJ          -2.58523         3.75493        0.768338
LJ          -5.88618         6.30821         6.06328
LJ           1.50566        -4.49477         2.81529
LJ          -4.57546         0.25932        -3.81636
LJ            5.3939         2.86654        -2.74645
LJ           0.13475       -0.229964         1.79648
LJ           5.39916        -3.63416         3.63879
LJ           2.93353        -1.65474        -2.47379
LJ          -3.36901        0.302204         1.03179
LJ           2.06125        -6.13265         3.46357
LJ           3.61948        -2.05982        -6.10468
LJ            3.6635        -5.72842        -4.44435
LJ          0.655854         6.19895        -4.91187
LJ        -0.0959207         4.93428         5.68903
LJ           2.54327        -4.46839         4.38225
LJ            4.5845         1.20756         4.80204
LJ          -3.03546         5.22878        -5.08481
LJ           6.40067        0.523178        -3.39837
LJ           5.48412         1.43974         2.41508
LJ          -4.90425         6.08811       -0.529413
LJ           3.31086        -4.31229         3.26567
LJ           1.50801         5.02628       -0.408591
LJ           5.90196         -1.6888        -4.80809
LJ           1.15142        -4.27307         5.61433
LJ          -6.15894       -0.554084         5.02326
LJ           1.83359        -2.50793         4.08114
LJ          -2.93434        -3.25769        -4.23221
LJ          -1.20356         -1.5267         3.82346
LJ          -2.11316       -0.276069         4.99436
LJ           3.44324        -2.65149         5.95636
LJ          -1.08619        0.073047         4.32481
LJ           6.27545         3.59177         2.17776
LJ          -3.22029        -3.71678        -5.14296
LJ           6.36795         2.51175          1.0267
LJ         -0.768332        -5.24358        -1.00955
LJ          -4.57045        -4.69121         1.42205
LJ          -4.57817       0.0207817         2.70294
LJ          -1.37514        -3.93612          4.8959
LJ           4.59289         4.32665        -4.58514
LJ         -0.259966        -5.91964         1.18676
LJ           4.83808        -1.77361        -6.26608
LJ          -1.84623         3.69272        -3.45105
LJ           0.24675        -5.04991          5.4133
LJ           4.81266        -2.68503         3.30377
LJ            6.0421        -6.22511         1.16233
LJ          -1.98317       -0.478286         3.62748
LJ          -1.72578         3.02647         3.84206
LJ           2.87502       0.0806121         4.17713
LJ          0.581351         4.39877        -4.51902
LJ          -1.55036         0.54203        -4.11965
LJ          -5.54853        -2.93999        -4.69536
LJ         -0.690234         5.55689        -1.84735
LJ           1.60716        -5.78527        -1.62221
LJ          -5.12273         2.15826        -3.94846
LJ           2.75559         4.35345         1.02157
LJ        -0.0947334        -0.60907        -5.46318
LJ          -6.22572         1.13108         4.11979
