108
#Comment!
LJ           3.29214         6.18419        -3.00183
LJ           4.11213         5.52773         1.07723
LJ           3.28216        0.909111      -0.0406042
LJ          -3.31606         4.21924         4.00208
LJ           4.42139        0.510036        -4.67754
LJ           -1.4194       -0.124637         5.30502
LJ         -0.828763        -5.53791        -4.67986
LJ         -0.380779       -0.868892         5.64638
LJ          -4.69401         3.34567         5.70033
LJ           -5.4437        -2.64554       -0.211398
LJ          -5.81399         3.94674       -0.873438
LJ           5.40837         1.43321        -1.10295
LJ          -4.92259        -3.65189         5.63251
LJ          -2.92101        -2.14982         3.66099
LJ         -0.519774         3.63894        -1.41153
LJ          -3.05854         5.39397         6.33403
LJ           4.39125        0.545718        -1.85708
LJ           3.47045          1.8101        -2.78316
LJ          -2.21089         4.37604        0.436165
LJ           -5.9058         2.26167          1.2912
LJ          -3.62558         5.70598        -3.38258
LJ          -2.69743           3.368         1.87232
LJ           2.70924        -3.81311         4.53738
LJ           2.39274        -2.93335        -3.65511
LJ          -6.26763         1.07525        -2.15743
LJ          0.856559        -5.36793        -2.63191
LJ          -5.78572        -4.00566         3.97113
LJ          0.435372         2.92867        -3.39893
LJ          -5.72444         2.52007         3.54643
LJ          -1.35623         1.79366         5.64027
LJ           5.32189         6.13724         5.45423
LJ          -2.17021        0.320055        0.942109
LJ          -2.42533        -1.24683        -5.27567
LJ           3.77336         1.06672         6.41049
LJ          -2.57221        -4.25427        -6.02199
LJ          -6.12217         4.07059         4.87228
LJ           4.38476          4.2621        -3.43882
LJ          -3.47232           1.361         3.30733
LJ           6.12085        -5.91333         4.28977
LJ           3.79092       -0.231665         2.43061
LJ           3.60101       -0.055452        -6.40387
LJ         -0.968665         4.30995         2.51066
LJ          -2.83061        -6.34789        -5.18376
LJ          -1.59637        -1.32741        -3.99473
LJ          -3.02153         5.67762          -4.835
LJ           1.94921          2.1854         4.00388
LJ         -0.262491        -1.67019        -4.71924
LJ          -3.21786         2.87191        -5.09072
LJ           4.56053        -4.44736      -0.0891988
LJ           5.10547          4.2173        -2.18134
LJ          -1.98468         3.96195        -2.69435
LJ           3.37075         4.01095        -1.84782
LJ          -3.37587        -3.15935       -0.969961
LJ          0.251028         1.17487        0.628376
LJ          -2.66816        -3.01175         3.03122
LJ           3.53621        -2.76383       -0.363321
LJ           3.90707        -3.50561        -3.96635
LJ          -1.01208       -0.447554         -5.4689
LJ          -3.64786         6.05067       -0.784937
LJ           4.69627         2.86778        -2.41868
LJ          -5.29161        -2.04177         6.06371
LJ           -1.3821        -6.44616        0.492571
LJ        -0.0791482         -3.1404        -1.09409
LJ          -5.59419       -0.300855        0.265497
LJ         -0.396426        0.114025       -0.896282
LJ         -0.400692         2.63163         -5.3511
LJ           -3.8537        -2.86689         1.89447
LJ           5.86617       -0.164392         5.89838
LJ           1.70929         2.50895        -4.59032
LJ          -1.25553        -2.68556        -4.21549
LJ          -3.47204        0.354476        -6.05257
LJ           5.06679         1.86549         3.88343
LJ           1.36778       -0.931536         1.12341
LJ          -3.69254        -4.60709        -4.68024
LJ           6.04751         3.59203       -0.740369
LJ          -1.01185         6.26261        -3.15649
LJ           5.02297        -4.00154        -2.66521
LJ           5.39546        0.935596        -6.23193
LJ          -3.75499         4.01294        -5.66745
LJ            5.6893        -3.87773         5.13784
LJ          -1.69959         5.19556       -0.545051
LJ          -1.87833        0.710244         5.69037
LJ         -0.498928       -0.937007       -0.969334
LJ          -5.15898         1.62755        -5.45177
LJ           2.29699       -0.374075         0.67214
LJ          -4.70341         3.42281         1.17611
LJ           2.24851         5.40672         6.17476
LJ           3.84807         -5.7585         4.43867
LJ         -0.199845        -4.83707        -1.17003
LJ          -2.88869        -3.14554          2.0943
LJ          0.907743        -3.05544       -0.924973
LJ           3.44287        0.498595         3.00229
LJ           5.02976        -5.24032         4.63789
LJ            5.0728         4.19588         4.82882
LJ          -3.14732        -5.19222         3.53598
LJ          -1.98367        -4.73327        -4.14482
LJ           3.43612        -4.74704        -6.31439
LJ          -3.32721         4.56089         2.53706
LJ          -6.00411         2.78375        -6.11832
LJ          -5.81466         6.27936        -4.56342
LJ           -4.1915        0.632408         3.78627
LJ         -0.436957        -2.41689        -3.61869
LJ          -2.88538        -3.86729        -4.83074
LJ            3.6784         6.13324         4.68318
LJ           6.03803        -1.64511        -2.09284
LJ          -3.09018         -2.0984        0.833849
LJ           4.68966        -2.00108        -5.72657
LJ          -5.51424        -3.31723        -1.81212
