108
#Comment!
LJ           5.90073         4.97042       0.0726983
LJ           5.45711         5.42148          3.5482
LJ          -1.31731        -1.81557         4.98846
LJ           -1.5152         -5.5127         3.94385
LJ           1.52885        -3.09903        -1.33879
LJ          -3.35535        -5.60175         3.44313
LJ         -0.846055        -4.45355         6.25377
LJ           5.94948        -4.21485         6.45718
LJ           1.51517         3.26837        0.169277
LJ           4.10006         5.90701       0.0345677
LJ           4.38819         0.94125         3.00083
LJ          -3.90276         6.22953         2.32763
LJ          0.810601         3.17927         4.72317
LJ           -3.9106        -4.94521         2.37917
LJ           6.01422         5.67774        -6.02084
LJ          0.314927         2.26616         2.43885
LJ           0.30137         5.81928         1.06004
LJ          -3.78433         6.00125        -2.15757
LJ          -5.59771        -2.91751        -5.42832
LJ           4.95831         5.98217        -4.45491
LJ          -1.17919         4.06035        0.644504
LJ           4.72536        -5.93236         3.09304
LJ          -5.63344        0.334858       -0.889575
LJ         -0.190356        -6.46294         1.97263
LJ          -5.46575         5.91814         6.02665
LJ          -1.53797         4.80235         4.15921
LJ           2.73206        0.796935        -5.39616
LJ           4.10877         1.76817        -0.82548
LJ           1.77944        -1.86545         2.91221
LJ           2.94405         3.20936        -3.20087
LJ           0.74802        -1.60506        -1.91199
LJ          -4.25901         2.31818        -1.43126
LJ         -0.854031       -0.146505         3.94497
LJ          0.208859         4.66947          1.1271
LJ           1.40584        -2.38489        -2.09595
LJ          -3.93101     -0.00862482         6.16666
LJ           3.01352         5.15496         2.11791
LJ          -1.40912        -1.57461        0.443055
LJ          0.772237         2.05848         5.47376
LJ           5.24554        -5.86413        -5.21045
LJ          -3.73531        -6.44089        0.271237
LJ           4.85205        -2.21208         2.15755
LJ          -3.97153        -5.56681        -4.05714
LJ           5.04386         1.62084         1.88401
LJ          -6.10371        -5.40228       0.0261667
LJ          -2.79898         2.39199         2.00532
LJ          -4.41991        -6.27251       -0.735786
LJ            5.4139         1.81295         3.43208
LJ           4.04294         3.44792         1.87414
LJ           6.28511         4.84215         2.26086
LJ          -5.13467         3.85989         2.52684
LJ           1.16393        -5.12526         2.79054
LJ          -4.39062        -2.17036         4.64295
LJ           5.09179        0.168703         3.02649
LJ           5.49013         5.84465         2.43935
LJ          -5.07932         2.25161         4.02032
LJ            2.3695        -1.01089          5.8546
LJ           5.58788        -4.92652       -0.449477
LJ          0.716861        -1.85173         1.67721
LJ           2.22632         4.53146         1.07386
LJ           2.73253        -4.83035        -4.49404
LJ          -1.89018        -5.72569         4.91528
LJ           3.00667        -2.58641        -1.83853
LJ          -4.85261           3.893         1.31291
LJ           1.85273        -3.28702          5.7063
LJ          0.554917        -2.95727         5.41839
LJ          -4.11151       -0.333813        -2.07072
LJ          -3.51961        -3.80973        -6.13705
LJ           6.40752        -1.93971        -5.16735
LJ          0.581153        -4.48174         1.04361
LJ          -5.06917        -4.90188          1.2774
LJ          -6.31934         1.72418        -2.77868
LJ          -6.35243         5.60303       -0.880553
LJ            1.2371          3.1857         3.68734
LJ           3.29111        -1.88182         3.99984
LJ           1.81691        -0.56814        -1.39144
LJ           5.52819          1.2367        -4.56149
LJ          -1.20831         2.45109        -3.10557
LJ          -2.03437        -6.10601        -6.09845
LJ          -5.44141         6.05628        -1.38698
LJ           4.62457        -3.69541        -0.38953
LJ         -0.668874        0.857435         -1.6088
LJ         -0.441475         4.98091         6.16298
LJ          -5.23103         1.09681          2.9094
LJ           5.66996       -0.719058         4.21586
LJ          -0.53789        -2.79419         3.24084
LJ           4.73528         2.74813         1.01056
LJ           1.47335          1.5785        0.632956
LJ           5.97906         2.89731         4.58762
LJ          0.327015        -1.38957        -3.72051
LJ         -0.551725          3.7655         5.97474
LJ            3.9781         3.85032        -2.68466
LJ         -0.786636         1.19384        -4.68412
LJ          -6.05171         1.88447        0.999578
LJ           2.27294          4.7275        -4.80102
LJ           1.17989        -6.21927        -4.84474
LJ           3.98335         3.69482        0.678886
LJ           5.55345        -2.25389         6.33367
LJ          0.998063        -1.72067      -0.0548036
LJ           2.34767         2.36076         -3.4608
LJ           4.47139         2.00706         4.92774
LJ          0.407773        -3.28871         2.00274
LJ           -2.4681         4.93401        -3.09214
LJ           2.32361       -0.398789         1.91936
LJ           5.33844        0.643943         1.60156
LJ           6.13506         3.68865         6.01502
LJ          -6.10794         3.39198        -1.06237
LJ          0.807895        -3.48219        -3.31506
