108
#Comment!
LJ           2.85444         4.62029         2.16773
LJ          -6.09005         4.31725         1.29199
LJ           1.31909         2.99721         -1.8078
LJ          -3.31634        -4.59836       -0.161262
LJ           1.49867        -6.16088        -5.28181
LJ          -2.85407        -1.40667         4.82304
LJ          -2.55039        -5.97128         2.55003
LJ          -2.70751        -4.66043        -5.06119
LJ           2.21716         5.20864         4.43115
LJ           1.31133        -2.82696         6.01796
LJ           6.10423       -0.816652          3.9389
LJ          -6.41211         2.04872         5.15049
LJ           4.98221        0.528202         3.54727
LJ          -4.58463         -3.4636         1.09994
LJ          -3.95707         1.90052        -2.19285
LJ           1.86553        -5.55985         2.70753
LJ           6.42851         1.83065        -0.26872
LJ          -4.32049       -0.345525          1.6392
LJ           -3.0304        -4.71246         5.14437
LJ          -1.00727        -2.60895         6.29958
LJ          -2.00078        -1.98142         6.16558
LJ           2.53925        -5.82965       -0.424813
LJ          0.739901        -3.60346          -1.317
LJ          -2.98444        0.447926        -5.69947
LJ          -5.29174        -3.76656       -0.441731
LJ           4.30009        -4.39939         1.66923
LJ          -2.44285         3.19317        -6.37229
LJ           1.27687         1.51777        -1.15714
LJ          -4.72815         5.54524         -2.3276
LJ           3.88192        -4.87249         -3.4707
LJ           6.27172        -1.52877         3.19435
LJ           3.72068        -6.29896         1.00216
LJ          -6.18701        -4.54715        -4.61388
LJ          -2.15519         5.95836        -4.70945
LJ          -2.89296         5.61218        -2.85208
LJ          -5.53221        -4.98551        -2.08063
LJ           5.71996        -3.29347        -1.44262
LJ          0.183538        0.341171        0.507162
LJ          -3.32057         2.71571         1.16158
LJ          -3.74616       -0.942841        0.333769
LJ          -4.95907         4.21887        0.195918
LJ          -2.61167       0.0168262          1.9922
LJ           -1.7653        -6.01953          5.3193
LJ          0.514984         1.38718        -1.97104
LJ          -4.59875         5.56675        0.397019
LJ          -2.27009       -0.724243        -1.68112
LJ          -1.92727        -3.07651         3.25196
LJ          -1.73881         4.43583        0.166232
LJ          -1.17954        -6.38112         3.56014
LJ           4.57461       -0.189661        -5.38451
LJ          0.684682         4.26693        -1.64575
LJ          -2.63279         3.86996        0.829451
LJ          -5.93827         6.34676         5.96947
LJ           1.44723        -4.53666         2.93537
LJ          -4.56658        0.269659        -3.93783
LJ           5.30645         2.68919        -2.55005
LJ           0.14833       -0.314094         1.73943
LJ           5.39435        -3.50829         3.66083
LJ           2.95138        -1.68955        -2.48667
LJ          -3.41349        0.309961         1.00982
LJ           2.09867        -6.10554         3.49932
LJ           3.68182        -2.10316        -6.05039
LJ           3.48895        -5.65637         -4.3987
LJ          0.664216         6.18044        -4.87156
LJ          -0.23424          4.8741         5.74938
LJ           2.48487        -4.37995         4.42838
LJ           4.49061         1.26211          4.7699
LJ             -2.97         5.15019        -5.09526
LJ            6.4495        0.601778        -3.36155
LJ           5.46948         1.46191         2.37434
LJ          -4.85378         6.05667        -0.46677
LJ            3.3826        -4.35839         3.21899
LJ            1.5008          5.0027       -0.311309
LJ           5.87322        -1.69419        -4.81659
LJ           1.09902        -4.29011         5.57995
LJ          -6.03621       -0.597725         5.09741
LJ           1.78521        -2.62075         4.00945
LJ           -2.8424        -3.20352        -4.11594
LJ          -1.20947        -1.68822         3.80639
LJ          -2.05335        -0.36007         4.86285
LJ           3.55556        -2.53416         5.89704
LJ          -1.09852     -0.00658429         4.34425
LJ            6.2188         3.61661         2.13814
LJ          -3.23975        -3.69884         -5.2265
LJ           6.38916         2.39029         1.08204
LJ         -0.658647        -5.22723        -1.00783
LJ          -4.56583         -4.6874          1.3663
LJ          -4.66068       0.0603623         2.63994
LJ          -1.37711        -3.83483         4.96586
LJ           4.57061         4.26457         -4.6012
LJ          -0.28351        -5.86697         1.14056
LJ           4.79987        -1.84452        -6.27131
LJ          -1.77877         3.74647        -3.55375
LJ          0.318695        -5.13742         5.55762
LJ           4.83026        -2.70374         3.34523
LJ           6.01189        -6.22157         1.25745
LJ          -2.04769       -0.511123         3.59558
LJ          -1.70578         3.02271         3.81573
LJ           2.87166       -0.124555         4.20474
LJ          0.551514         4.41625        -4.55071
LJ          -1.57382        0.434262        -4.06635
LJ          -5.58483        -3.04644        -4.72799
LJ         -0.797927          5.5006        -1.80552
LJ           1.76059        -5.78092        -1.47933
LJ          -5.15098         2.23329        -3.90859
LJ           2.68646         4.34551        0.952861
LJ        -0.0285572       -0.692136        -5.41109
LJ          -6.19419         1.18451         4.34165
