108
#Comment!
LJ          -3.87291         -5.3349        -6.30377
LJ           2.35576         1.59928         3.66683
LJ           1.31194         4.35799         4.78208
LJ           4.36325         6.22692       -0.600706
LJ          -2.86389         3.54251         3.55645
LJ          -3.95237        -5.11725        -1.84143
LJ          -1.94592         5.15782         6.13387
LJ          -3.84042         2.31121         2.98054
LJ          -3.59659         2.63118         2.03812
LJ          -5.79806        -4.73365         2.27512
LJ           2.53969       -0.659298        -3.69555
LJ          -1.86773         3.39978         2.99614
LJ           4.73952         3.56241         6.32128
LJ          -0.43793        -4.80342         5.95542
LJ          -6.31132         5.00191         4.50999
LJ           1.93739        0.196915        -3.17219
LJ         -0.575774         -4.4578         -1.3252
LJ             2.254        0.186143         1.53516
LJ           1.49817        -2.22516         6.15491
LJ           -1.6487        -2.89031         1.98061
LJ          -5.45323         4.84878        0.424326
LJ          -5.03504         4.84932        -6.34135
LJ         0.0846799       0.0588259         4.07758
LJ          -4.63689        -5.60643        -5.60497
LJ          -5.50817        -4.37239        -6.28375
LJ          -0.80212        -4.90598        -4.34655
LJ          -1.27754        -3.54735         5.74717
LJ           5.26715         2.18641         4.15795
LJ            6.3124        -2.23895        -3.17461
LJ           3.84134        -3.88235         4.78799
LJ          -1.59358        -5.86982         1.35561
LJ          0.379012        -4.17749        -4.54574
LJ           4.17799         2.98556        -1.85409
LJ          0.910004         0.79714        -2.73274
LJ           1.05505        -2.73472        0.342806
LJ          -6.12936         3.66929        -2.36299
LJ            2.7966         5.11703         4.34645
LJ          -2.84472         3.39518        0.506339
LJ          -3.74904        0.782753        -4.73583
LJ          0.884728        -1.61509        -6.21259
LJ           1.96182         3.47164         5.19898
LJ           5.82578       -0.424421        -2.41573
LJ          -2.97935         3.50716         1.76491
LJ          -3.07108          2.0851         4.97997
LJ          0.943874        -5.14524        -3.38223
LJ          -3.13226         5.08553         1.07613
LJ           3.88592         -6.1464        -4.70498
LJ           2.16607        -3.40635        -4.52119
LJ          -5.27506        -2.48175        -4.25109
LJ           3.94145         5.49475         4.43467
LJ           3.17148        -3.25255         2.57169
LJ           2.62401         3.20409         3.66127
LJ          -3.94236      -0.0166905        -5.49549
LJ           3.31194         -5.4234        -2.80819
LJ           1.37237       -0.586902         1.63073
LJ           5.93998         4.31535         3.27974
LJ           4.77941        -5.38151       -0.198438
LJ           1.54461        -2.66806        -4.28056
LJ          -5.54402         1.77977         4.16757
LJ          0.519265       -0.415129        -4.98061
LJ          -2.91882        -2.60168        -4.51739
LJ           4.87274       -0.197166        -2.97848
LJ          -2.62307         6.32567          2.6393
LJ           4.55125       -0.611932       -0.350003
LJ           -3.6034         2.64817        -4.65634
LJ           1.99262        -1.57077        -4.43625
LJ          -5.17387        -3.38193        -3.43546
LJ          0.688392        -2.64915        -6.07351
LJ           6.10968         1.84934         5.93258
LJ           -4.2482         4.51814         1.21912
LJ           3.53771         4.55815         5.50912
LJ           6.41984         3.56268        0.684507
LJ         -0.087308        -1.50439         3.02457
LJ          -2.13933         4.05339         4.19833
LJ          -2.88454        -5.20484        -4.27922
LJ          -5.64616        -3.47336         1.63834
LJ           2.58535        -3.78111         3.99035
LJ           4.51998         2.80555        -4.07273
LJ          -4.14759         2.66196        0.852624
LJ           4.84928         5.27358         2.52019
LJ          -1.54659         5.48619         4.93759
LJ           4.32894         1.32111         3.20156
LJ            -6.062         3.32385         -3.4308
LJ           2.54649         2.43705        -4.25708
LJ           -4.9539         4.82788         -1.8066
LJ          -5.35387         3.63256        0.893325
LJ          0.420417        0.492868       -0.844737
LJ           3.52906        -1.77074         3.03012
LJ          -1.28042        -1.82962         2.66415
LJ          -1.94714        -6.03265        -5.35403
LJ           1.43073         6.20498         3.71412
LJ           4.38639        -2.91018        -5.69087
LJ           4.60598         4.38565        -0.99692
LJ           3.77805         -1.4505        -2.30825
LJ         -0.514632         5.73073         5.80852
LJ         -0.424095         -1.2368        -5.35457
LJ           5.75723       -0.908362       -0.854862
LJ          -2.32867         6.14529         1.36441
LJ            4.7623         5.09152        -2.98593
LJ          -3.86554         3.62563        -0.56735
LJ         -0.282612         6.16427        -6.17425
LJ          -2.12479         6.41799         6.43132
LJ           5.70573         6.24235        -2.51749
LJ          -2.39714        -2.23098        -5.28056
LJ          -5.08516       -0.548971         5.08793
LJ          -4.02726         1.72385        -4.23072
LJ           2.17104        -5.66572        -0.85883
LJ           4.77918         5.81682        -4.22821
