108
#Comment!
LJ          -5.63642         4.22191        0.413874
LJ           2.62897        0.486371         5.20412
LJ             1.106        -5.42145         5.87644
LJ             2.045         1.77118         4.39529
LJ           1.40663        -4.18177       -0.455675
LJ          0.259569      -0.0469119        -3.22704
LJ          -2.16861         6.24143        -3.38332
LJ           4.02096        -2.91373          6.0084
LJ          -2.66558        -1.07389       -0.842937
LJ           6.09116      -0.0720909        -4.08375
LJ           1.64365          -0.594        -1.69818
LJ           6.28094         -5.2455      -0.0207579
LJ          -0.78286         2.60041         4.91624
LJ          -5.14957        -4.95519        -6.32131
LJ          0.794278         4.24395        -3.38741
LJ           4.58153         1.65575         5.41182
LJ          -2.14506        -3.47102         3.95331
LJ          -5.80977        -3.58311        -5.87644
LJ            5.5965        -5.97149        0.786152
LJ           4.35641         5.99425         -5.9998
LJ          -1.30104         5.28665         5.26179
LJ           -3.3448        -5.13736        -5.68013
LJ           5.93791         2.16188            1.57
LJ          -1.16264         -3.2893         1.07793
LJ          -2.38307         5.27597         5.43336
LJ          -3.96669        -5.59921         2.73853
LJ           4.59011         3.25048         -5.8315
LJ           1.35992          1.6275         3.07138
LJ           2.29976         -5.6181         -5.2139
LJ           5.73412        -5.85471         6.15932
LJ          -3.80004        -3.30471         2.12565
LJ          -5.20946        -6.22698       -0.108173
LJ          0.247278        -2.65988          5.0958
LJ           2.36959         5.53926         2.39192
LJ          0.834808        -3.60735        -2.96936
LJ          -1.00621        -6.07898        -5.61434
LJ           2.01214        0.582349         -2.6354
LJ           6.06529       -0.751279         2.75529
LJ          0.865223        -6.44268         3.63473
LJ             2.496         -4.9846         1.85363
LJ           -3.0187        0.843623         0.71517
LJ          -5.78864        -1.30135         3.81701
LJ          -5.79629        0.926987        -4.69475
LJ           5.08237        -1.19297          2.3567
LJ           -4.2318        -3.40721          5.5231
LJ          -6.18838         5.67693         1.79424
LJ         -0.670594        -1.46288        -3.50993
LJ          -3.32933        -1.89041          5.7852
LJ            3.5629          3.9009        -1.42811
LJ         -0.735148         4.80799        -5.57527
LJ          -1.56771         1.12541         1.54002
LJ          0.688295         1.01581         1.87682
LJ          -2.57771        -5.28005          5.4884
LJ           3.31568         1.23721         4.06653
LJ          -1.55257       -0.802371         -5.3278
LJ          -5.23665        -6.00309         5.60484
LJ           3.61974         4.70797        -2.23873
LJ         -0.140172         4.93055         0.49554
LJ          -1.82495       -0.563549         4.94842
LJ           2.18055         3.38871        -6.42731
LJ           1.36818        -5.03409          1.5237
LJ          -4.97248          6.3881        -3.41335
LJ           1.49077        -5.02258        -5.90121
LJ           6.02999          5.7268       -0.196681
LJ            1.5386        -3.75459          2.3576
LJ         0.0402553        -3.51368         5.81491
LJ          -2.28942         -2.0773         -4.8353
LJ          -2.92648        -3.27889         3.06215
LJ          -5.10527       -0.434726        0.904161
LJ         -0.949191         6.42813         3.81598
LJ           6.42186        -3.15656         5.93524
LJ         -0.297129        -5.54345        0.423636
LJ          -5.33258         3.98039        -3.46078
LJ           1.09498        0.387587         4.64685
LJ           5.70852        -2.61644         4.71685
LJ           1.60139        -4.68398        0.469155
LJ           5.12897        -1.52052        -4.72499
LJ          -1.66623        -5.82683         5.75591
LJ          -4.28496        -5.12567        -4.93043
LJ          -4.39024        -3.97135        -5.07474
LJ           4.05361        -6.17942       0.0845333
LJ           0.71085         4.22694         1.23608
LJ           3.53027         3.32409         3.71099
LJ          -4.95654         3.57321         6.08703
LJ           6.45953        0.536948       -0.907064
LJ          -5.64364        -6.31783         2.50253
LJ           4.61672         4.36408         2.52746
LJ          -2.28466         3.96558        -1.57032
LJ           5.24768        -4.62522        -4.09388
LJ          -3.44869         5.22794        -3.21744
LJ           1.95879        -6.27915         -4.2572
LJ           5.15491         1.32382        -2.06175
LJ          -5.34606         3.03136        -2.96376
LJ           3.35466        -2.20412         -2.5894
LJ         -0.280215        -5.18763        -5.19671
LJ           1.05912         5.80878       -0.992446
LJ           6.15836         3.82513         1.23761
LJ          -4.32997        -2.37292         6.11996
LJ          -1.77139        -5.35666        -2.49356
LJ           1.09527       0.0409529        0.551842
LJ         -0.990094         3.18828         2.46741
LJ            5.4819        -3.14849         6.10595
LJ           -2.4157        -2.01629        -1.33217
LJ           2.68525        -3.86259         3.25791
LJ           4.04779         -2.6403         3.15539
LJ           5.66631        -5.83847         5.10663
LJ         -0.956832         3.14263        -1.28588
LJ           2.90046         6.09415        -4.99965
