108
#Comment!
LJ          -3.87632        -2.01256          5.4863
LJ           4.18851        -1.64547        -5.50488
LJ          0.456373        -3.35088        -3.32903
LJ           0.31763        -4.48039        -6.14975
LJ          -6.03395        -5.09538         -1.0589
LJ           1.82731         3.52362         3.86085
LJ         -0.386768         2.42584         0.70986
LJ           5.66084         5.43546         1.41024
LJ           2.78234      -0.0787304        -3.61414
LJ           -2.2054        -2.67024         -4.8298
LJ          -5.16567        -5.85356         5.87888
LJ           5.75311          6.1843         2.24026
LJ            3.4871        0.150708         0.35067
LJ           5.06335          6.1821         3.96046
LJ          -4.55014       0.0843421         6.18988
LJ           -2.4679         2.33608         3.56483
LJ         -0.591812         2.34709        -3.81844
LJ         -0.237074         1.46408           2.012
LJ          -6.08791         4.96575        -4.12456
LJ           -1.8588         2.41579        -2.67795
LJ           -3.2512        -1.81324        -5.35594
LJ           2.94536       0.0634601        -2.51911
LJ           6.37145         4.14242         1.38445
LJ            2.3943       -0.826829         6.29047
LJ          -5.38902        -4.29414        -5.58806
LJ          0.760952         -3.1718       -0.998829
LJ           4.30297         3.10388        0.183499
LJ           6.31746          4.0692        -4.39443
LJ          -3.58025        -2.09544        -3.28001
LJ         -0.270799         2.76416         3.67812
LJ          -6.08306         6.15431       0.0657432
LJ          -4.36576         5.93054         1.39673
LJ          -5.94821        -3.63981         5.40133
LJ           6.10291        -2.64639         4.30229
LJ           4.25261        -5.40303         2.32124
LJ         0.0622671        -3.00177         2.62909
LJ          -5.45741         4.49173        -6.38739
LJ           3.07436         4.28062         4.06403
LJ          -2.02937         4.67642        -2.57175
LJ           5.83045        -1.93393        -1.05981
LJ         -0.890173         2.93884         2.42129
LJ         -0.800932        -3.03958        -1.89109
LJ          -2.54394         3.30656        0.270451
LJ           3.83061        -1.46819        -4.12824
LJ          -6.19686      -0.0630434        -3.85133
LJ           1.35626        -5.44499         1.75571
LJ          -4.42923         3.02108         -6.3088
LJ          -4.56119        -4.11085       -0.621247
LJ          -5.40047        -1.24697        -1.04435
LJ           5.27779         1.17239          6.3828
LJ           5.61693         3.58161         1.82753
LJ           2.29764        -4.87211         4.81591
LJ            2.2277         1.90748        -3.75789
LJ           5.87943        -4.25247        -3.32524
LJ          -4.22461        -1.77396         3.17775
LJ          -1.38402        -1.33828       -0.106298
LJ         -0.751851         5.19016          2.6573
LJ           2.11535         2.07028       -0.996854
LJ           2.33502         5.74634         4.80592
LJ          -4.11004        -5.38011       -0.483058
LJ         -0.527022         3.64687        -2.12342
LJ          -1.50931         4.01451        -4.65585
LJ          -1.39588        -4.75014          1.2905
LJ          -1.26555        -2.88534         2.71999
LJ          -2.70138        -4.35555          4.2209
LJ          -3.42278         5.55098        -1.14346
LJ          -4.80948        -1.40084        -2.15126
LJ          -4.54195       0.0714925        -4.93759
LJ           5.36959        0.689998        -2.67145
LJ          -4.76938         3.13406         3.57327
LJ          -4.58074        -1.63368        -5.83372
LJ           2.71082        -4.97605        -1.92294
LJ           2.81521         2.99664         1.34433
LJ          -5.62788        -6.32964        -5.02619
LJ           2.12224         5.27249       0.0326218
LJ           1.70293        -4.24115        -3.36669
LJ          -3.28322        -2.71416        -4.35166
LJ          -6.40785          3.6646         -6.1976
LJ           5.38364        -2.36331         2.33735
LJ          0.292803        -6.40154          5.3994
LJ             4.045        -5.32305       -0.512828
LJ          -5.04562        -4.77289         1.93782
LJ           1.28119      -0.0554934       0.0808517
LJ          -6.15958        0.448723         4.01816
LJ          -3.43838         6.09511         1.20041
LJ          -3.25338       0.0654856        -3.69869
LJ          -2.37766         1.38157        -1.71303
LJ           2.20855        -6.18349         1.52946
LJ         -0.570464         3.54443        -4.46187
LJ           5.12768        -5.91534         1.97758
LJ          -2.23205        -5.90362        -4.42891
LJ          -5.29735        0.676575       -0.381725
LJ           1.46493        -5.10834        -6.35451
LJ          -2.80654        -2.03195        0.778027
LJ          -2.77292        -1.28537         -3.8668
LJ          -2.01066         2.68968        -5.60605
LJ          -5.39485         3.90079        -4.25951
LJ            1.1715        -5.30003        -4.52449
LJ           5.86431        0.725432       -0.898493
LJ           5.40247          2.3037        -5.97336
LJ          -2.18194         -3.1747         3.54827
LJ          -6.39379         6.45875          4.5111
LJ         -0.770798         1.36126         3.56882
LJ          -5.99173         5.04683         5.79521
LJ          -6.43069         2.25169         2.91936
LJ           5.04445         2.54593         4.47921
LJ           -3.4127        -1.15384        -2.36654
LJ           5.59009         4.88308        -4.31367
