108
#Comment!
LJ          -2.27033        -1.19642       -0.589013
LJ         -0.718747         6.28819         3.19945
LJ           4.29666        -3.80869         -1.5796
LJ            1.4895         6.42521         1.01893
LJ           5.77444        -1.75626         3.87992
LJ           2.62428         5.66291       -0.573169
LJ          -2.89959        -4.18592        -5.79426
LJ          -3.25527         1.59407         4.20572
LJ           4.36958         2.49047         6.42927
LJ           5.51077         -1.7107        -3.71641
LJ          -5.66231         5.83634         6.28941
LJ           5.28084        -5.58851         -2.6205
LJ           2.91082        -6.34036        -1.03552
LJ          -2.42769        -2.68865         4.30461
LJ           2.72666       -0.174695        -1.05061
LJ          -2.69817        -0.86945          2.7627
LJ           5.91262        -4.22242        0.882071
LJ           4.91038        -1.07623        -4.87553
LJ           -1.0329        -1.55381       -0.305253
LJ           5.09428         0.49778           2.376
LJ          -5.93866        -3.53795          0.8343
LJ          -3.21562         1.30406        -1.98308
LJ           3.02058         2.96557         -5.0171
LJ          0.011432       -0.895855        0.641227
LJ          -3.76865        -3.73522         5.93972
LJ          -2.12106         4.60401       -0.787317
LJ           1.25429        -3.93283         5.83875
LJ            3.8694        -3.23788        -6.17417
LJ          -1.78055        -4.50654        -4.16559
LJ           6.06865         -3.2165         3.09436
LJ          -3.19166       -0.838991        -1.98326
LJ          -1.65481        -2.95767        -2.16338
LJ          -4.08348         3.92401        -4.78443
LJ          -3.52633        -6.31745        -4.60745
LJ          -0.15874        -4.89469         4.63062
LJ          -1.29934        -3.93774        0.153997
LJ          -5.56245         5.98224          4.0222
LJ           4.98862         4.76077       -0.898713
LJ          -1.56563        -5.53822         -5.9136
LJ          -1.07006        -1.94352        -1.68494
LJ          -2.12946        -3.80928         3.92684
LJ           3.52577        -4.25634       -0.738064
LJ           5.19819        -6.40833          2.4832
LJ           3.91548         -6.1752         1.95445
LJ          0.764383         3.37361       -0.434671
LJ          -1.07876       -0.350466        -5.61221
LJ           1.13505          5.2115       0.0183417
LJ          -3.51236         2.32938        -1.04957
LJ           -3.2551        -2.60477         2.54862
LJ           3.94416         1.88751        -4.47184
LJ           1.34094         3.74429        -5.22339
LJ          -3.76266        -1.06474         1.39671
LJ          -3.13041        -2.21388        0.959607
LJ            6.2866        -1.58192        -5.36627
LJ            4.0916         2.73837        -5.17559
LJ           3.71211       0.0286729        -3.44658
LJ          -3.26374         4.36173         1.64964
LJ           2.90311          4.8528         -1.1055
LJ           4.09106       -0.869559         2.42985
LJ          -3.10579          2.7081         3.48112
LJ          -4.58297         4.50465         -2.2938
LJ          -1.77148         4.49592        -6.18741
LJ          -1.00764        -4.66209         4.35056
LJ           5.86919       -0.682772         1.35189
LJ          -1.27135       -0.459202         3.94745
LJ            1.3922        -3.79272        -1.13916
LJ           4.29786        -5.65782         3.03969
LJ          -4.83304        -4.29545         3.14636
LJ          0.591577        -2.88103        -2.68843
LJ          -5.13767        -3.81493        -3.46675
LJ           2.14893        -3.94455        0.597279
LJ          -4.43718         3.71066        -1.32343
LJ           1.86848         6.16739        -1.17474
LJ           5.91579        -6.21416         -6.0494
LJ           5.42069        -4.39856         1.93138
LJ           1.92271       -0.534467        -1.67535
LJ          -5.01829       -0.331282        -1.52629
LJ           6.25311         5.31177         4.93073
LJ          -5.58355         3.00445        -2.91733
LJ           4.49643        -3.65716         4.64398
LJ          -3.22767         2.91716        -5.39573
LJ           4.96144         4.52892         2.14563
LJ         -0.238313        -4.53903         1.44648
LJ            1.6211        -4.42445      -0.0839524
LJ          -5.04938         4.76968         6.41837
LJ            1.7912        -0.92076         5.41769
LJ           6.37262        -3.10701        -2.49901
LJ           4.70823        0.752419         -6.2079
LJ           4.96302         2.01945        -3.82063
LJ           1.25985        -5.77071        0.142825
LJ          -2.73834        -1.11518         0.73615
LJ          -5.12898         3.54944        -6.20574
LJ         -0.916252       -0.640693        -3.08787
LJ         -0.675901        -4.98484        0.669336
LJ           5.02491        -4.35055        -1.11047
LJ          -4.22138         2.24752        -5.46098
LJ          -3.44474         3.42103        -2.68746
LJ          -4.42049       -0.529244        0.199524
LJ           2.46147         0.94965        0.669099
LJ          -2.50626        -1.54921        -2.74268
LJ          0.059217       -0.965103        -6.13196
LJ          -2.46405         3.79555        -5.40934
LJ           3.62119          -2.082        -4.13507
LJ          -1.10365         -2.3978         1.22662
LJ           5.33351       -0.565551       -0.234713
LJ           6.35784         1.08247        -5.19091
LJ          -1.01083        -4.21418         6.41159
LJ           6.31219        -3.13088        -1.32387
