108
#Comment!
LJ          -1.08635          5.6518         5.33816
LJ          -5.59506        -5.29517         4.80141
LJ           6.24124           3.725         3.27221
LJ          -1.89744        -2.62442         -5.0773
LJ          -3.77949        0.874259          4.5137
LJ           6.26686        -5.13742          5.1782
LJ          -2.94478        -6.30539          1.2837
LJ          0.985155        -5.20802         -3.7637
LJ          -2.44689         2.37145         -2.6728
LJ         -0.637487        -1.91811         2.88299
LJ        -0.0481467         2.14003        -1.93814
LJ            5.4067         1.14336         3.29982
LJ          -4.25393        -5.98917         4.05474
LJ          -4.30261         6.05924        -1.34535
LJ          -3.73633        -3.97576          6.4445
LJ          0.822227        -3.77271         3.06815
LJ          -2.43203          5.9149         4.82822
LJ           1.94766         1.26316        0.173056
LJ           0.68764         3.76408         0.97011
LJ          -3.86699         5.50934         1.02546
LJ          -4.54107        -5.01824         3.67885
LJ           1.66397         6.21401         4.00369
LJ          -0.81159         5.95404         3.67283
LJ           1.60581       -0.491728        -5.51271
LJ          -3.71835         4.50506        -5.85072
LJ          -4.87106          4.3899        -4.52541
LJ           1.46396         3.61619         3.84575
LJ          -4.65566        -5.01394         -1.6726
LJ          -5.11602         6.37208         5.48098
LJ          -2.68805        -6.03449         4.48104
LJ          -6.41205         3.31611         -4.2273
LJ           4.31866        -6.13377        -5.12766
LJ          -4.08071       -0.864092         4.56763
LJ           2.79614        -5.39168      -0.0718758
LJ           6.41267         3.90581         1.44491
LJ           4.14474        -5.33579         4.39171
LJ           5.65774        -2.95676        -5.95739
LJ          -2.49227        -4.75858         4.97759
LJ          -3.80296         6.44859         2.25578
LJ          -3.80474         5.87193         4.57692
LJ          -3.51728      -0.0303729         3.48182
LJ          -3.86139         4.71519         3.72111
LJ           1.82152         4.73643       -0.531126
LJ          -4.35458        -1.55332        -3.67617
LJ          -1.01496         5.64053         2.67291
LJ          -5.09427        -3.72918         2.15121
LJ         -0.400624         4.04719        -6.34837
LJ           -3.2986        -3.00397        -1.38092
LJ           4.41643          5.8159         2.68694
LJ          -3.30483        -2.24753         3.08162
LJ          -2.33757         3.39287        -4.83632
LJ          -6.09286       0.0223565       -0.697721
LJ          -2.03203        -4.22547        -2.86535
LJ         -0.674861         6.36465         1.42139
LJ          -4.58486        0.477799        -2.96794
LJ           4.06542        -5.13051        -4.95621
LJ          -6.26209         4.91866        -1.41075
LJ          -2.84727         4.73051          -1.645
LJ           2.86498         5.70377         5.62063
LJ          -1.29414         2.64996         4.58391
LJ            5.3597         2.14896       -0.107035
LJ          -1.21559        -5.04795        -3.19119
LJ           5.55278        -3.86382        0.518482
LJ           4.95029        -3.58062        -2.54768
LJ           6.09341        -4.54823         1.80769
LJ           4.00636        -0.95313        -4.86296
LJ          -2.11292         1.05974         3.93202
LJ          -4.44658         4.14759         4.85925
LJ           4.94903        -6.37399        -3.71617
LJ           2.59352          5.7305           4.631
LJ           4.91261         1.40358        -4.35661
LJ           -5.9905         5.01963       -0.480893
LJ          -4.16966        -4.45803          -5.394
LJ           2.81786          3.4964        -1.12353
LJ          -3.35942        -4.94066        -2.08228
LJ          -4.58908        -6.26704        -2.10509
LJ           5.90615        -1.62178         5.08261
LJ           5.06625         5.40458         -4.0587
LJ          -3.23657         1.50466         6.25136
LJ          -3.58871         4.35046       -0.941896
LJ           -3.4282        -4.29647         1.30816
LJ          -2.47513         -6.2075        -3.01036
LJ           4.98436       0.0741452         4.65731
LJ           4.78311        0.850162        0.377186
LJ           -2.9771         1.58048        -4.16925
LJ          -5.84435         3.23956        0.725802
LJ           3.06553         3.81739         2.85127
LJ         -0.806185        -4.47161         3.66431
LJ           5.86284         2.37976         6.10547
LJ          0.787781        -6.18572         5.16683
LJ          -3.93007        -5.75498         0.55369
LJ            5.2633         4.31727         3.24577
LJ         0.0703749        -2.26463         3.49444
LJ           2.59301         4.10726        -2.52335
LJ          -3.81635       -0.684563        -3.09121
LJ           2.60487         3.70515        -5.72707
LJ            4.2726       -0.206045        -3.80976
LJ           2.76185         1.91113         1.46944
LJ           4.34984         2.17322         2.41383
LJ         -0.333708        -5.20215          4.7016
LJ           3.83433         3.36657        -5.68959
LJ         -0.346921         2.28161         4.02993
LJ           4.45139         1.30739        -6.18139
LJ           4.99466         2.74237        -2.57754
LJ            2.1741         1.14442        -2.53285
LJ            5.6105        -4.25383         3.15857
LJ          -5.19158        -0.73535         1.01566
LJ          -5.63568        -2.32006         5.11376
