108
#Comment!
LJ          -5.67779         4.71629        -5.80086
LJ           3.61508        -0.99042      -0.0306189
LJ          0.685463         1.49124        -4.83838
LJ          -1.79397         4.72324         -4.5851
LJ            4.9179        -6.43733       -0.559636
LJ          0.100768       -0.333876         2.00263
LJ           6.38889         5.47085        -3.37721
LJ           0.52704        -2.27053         6.35735
LJ           5.76246         4.01483        -4.11561
LJ           1.71797        -1.19205        -5.06858
LJ          0.398084          5.1746        -2.23484
LJ           1.70668         5.04996          2.0573
LJ          -4.57084         5.87018          3.4617
LJ          -5.81751        -1.03472         3.72325
LJ           6.18672        -1.83185        -1.83925
LJ          -3.65702         1.42062        -1.93823
LJ          0.536856        0.836819         5.67547
LJ          -3.07504        -2.57917         4.92174
LJ           3.73517        -3.71923         3.44856
LJ          -5.93466         3.32651         5.88318
LJ            4.4735         4.84254         3.57647
LJ           -4.6875        -4.38512         -3.7124
LJ         0.0654865         3.18404         1.30441
LJ           4.87631       -0.404091         1.10911
LJ           -4.1488        -4.75989         1.05795
LJ           2.28644       -0.305405        -1.82777
LJ          -1.96318        -4.48517        -4.02703
LJ            1.4544        -3.95203       -0.328289
LJ          -3.63514        -4.68337         5.53821
LJ           4.57548        -2.65394        -2.39335
LJ          -3.28442         3.15301      -0.0303353
LJ           2.79032         2.15812        -5.23782
LJ          -6.07757         1.87706         6.17878
LJ          -2.72285        -2.71085         3.72074
LJ          -3.46751         2.45476          2.6214
LJ          -2.18448         -4.9166         1.19179
LJ           2.95055        -6.42473         1.23069
LJ           3.65603        -2.51511        0.151513
LJ          -2.02945        -3.07151         4.49584
LJ           5.26516        -4.69817        -2.62423
LJ           1.36187         3.35414        -2.92788
LJ          0.644406        -3.42828        0.678231
LJ         -0.551648        -1.97267         3.93278
LJ           6.17519        -6.16855        -1.19198
LJ           1.80181       -0.503608         2.34888
LJ          -2.66916        -6.25819         1.36847
LJ          -3.76017      -0.0319952        -2.22321
LJ         -0.591741        -3.95975        -1.60514
LJ           5.03176        -6.25068         5.93834
LJ          -2.68812         2.75587        -2.26422
LJ           -4.6159        -2.11997         1.78218
LJ           4.17139          5.2987        0.239208
LJ         -0.201353        0.725507         2.95389
LJ           6.03003        -4.72449         3.85411
LJ          -1.43888        -3.25108        -3.64146
LJ         -0.176757         5.27877         5.82272
LJ           2.08598         -5.8588        -1.25451
LJ          -3.53267        -5.61474          2.5222
LJ         -0.210696         1.41265        -3.88214
LJ           -4.0525        -1.32834        -2.88377
LJ          -3.07774        0.532135         1.10225
LJ           4.89414         -1.4595         2.63392
LJ           5.33139         3.62229         2.18565
LJ          -3.26568        0.344093         6.31764
LJ          -3.68095        -2.04838         0.72234
LJ           4.42325         2.83779         0.87901
LJ          -6.14344        0.286954        -3.73821
LJ           1.14302        -2.07057         4.00587
LJ           5.08032       0.0727495        -1.01784
LJ          -6.17646        -4.13877         -1.1414
LJ          -6.22319        -2.81842         4.44792
LJ           1.15742        -5.45424        -5.99425
LJ           3.71823        -5.51857         -5.7863
LJ          -2.96458         4.36306        0.033525
LJ           1.41384         1.75233        -3.09543
LJ           1.93889        -4.58929        -4.56911
LJ          0.375201         2.12369       -0.696419
LJ          -3.91922          2.3755         3.87396
LJ          -5.49256         3.30191         3.21906
LJ           5.60455        -1.73068          1.5288
LJ           5.38034         5.47248       -0.257687
LJ           -1.3853         1.53344         1.60873
LJ          0.530342       -0.606286        -4.78373
LJ         -0.710676          -3.786         6.35326
LJ          -1.93512       -0.739597        -3.63375
LJ          -3.49595        -4.91715         3.46586
LJ          -2.14299        0.845709        0.333422
LJ            4.6506         2.81808         -3.9566
LJ         -0.236163        -6.04633        -6.13317
LJ           2.46014         1.19498         5.38553
LJ           4.91702        -4.55864        -5.98958
LJ          0.196842        -3.35083         4.74962
LJ          -3.46954         4.10568         3.51309
LJ          -2.40168         5.08011        0.858284
LJ          0.602035         3.40787       -0.803702
LJ           2.78518         6.16617         -3.5945
LJ           4.04701        -6.28366        -4.52943
LJ           5.79198        0.194404        -3.06975
LJ          -1.77715         3.85729       -0.930531
LJ          -4.54435         5.62196         2.01796
LJ          0.584523         2.80189       0.0906972
LJ           4.17593         4.49194         2.63457
LJ           6.18118        -5.04284        -2.85692
LJ           5.69346         4.93067        -1.60568
LJ           3.42799         2.59764        -3.92567
LJ          -2.96355         3.33257         1.28273
LJ           3.43596        -1.83047         1.08918
LJ           1.63899         4.33729          5.6709
