108
#Comment!
LJ          -6.22144        -6.04526         6.36252
LJ          -2.88387         1.10758        -5.50252
LJ         -0.716592        -1.71043        -2.89461
LJ         -0.886419        -5.87388         -1.8569
LJ           3.72971          4.5341       -0.910833
LJ         -0.421947         1.70416       -0.291655
LJ           0.25134        -5.64915        -2.39646
LJ           2.50337        -3.66775         3.94579
LJ           4.12767        -5.09395         -2.4357
LJ          -5.24717        -2.16015         5.93472
LJ           3.90433        -1.97656        -4.58139
LJ          -4.81435        0.733033         4.58087
LJ           1.66373         2.13549        -1.33407
LJ           1.80961         5.19913         5.35944
LJ          -4.71611         1.74066        -0.34585
LJ           1.83641         3.65081         3.70742
LJ          -2.63716         3.54044        -4.39506
LJ           2.98075        0.643129        -2.35345
LJ           -5.6607        -4.13741        -3.05435
LJ          -4.77225         4.00872        -2.47358
LJ           2.01258      0.00678539        0.769234
LJ          -3.43828         1.79447         4.99741
LJ           5.01013         2.66865          3.5951
LJ          -4.34492         4.88642         -2.8366
LJ           3.90871        -5.14937        -1.25812
LJ           3.98965        -3.17106        -2.17995
LJ           1.08437         -5.2564         6.10599
LJ           2.10449        -3.94407        -2.55967
LJ          -1.73002        0.102489        -4.59958
LJ         -0.422775         2.34772        -4.96704
LJ           4.24511        0.756712          5.9684
LJ          -1.52831         1.65605        -1.06349
LJ          0.873578         6.27149         -2.7987
LJ         -0.450441        -2.97662        -5.30748
LJ          -1.52547        -5.02323        -4.61241
LJ           5.28344        -3.26142        -6.27577
LJ          0.398797         2.30375         6.34655
LJ          -1.24693         1.00167         1.30684
LJ          0.933957        -3.36565        -5.91962
LJ           5.73767         4.20431         4.68084
LJ           4.22514        -4.31113       -0.689089
LJ           3.59952        0.240936       -0.205044
LJ             2.479        -2.15929          2.1523
LJ           2.69059         1.09844        0.604124
LJ          -4.86665         5.71179        0.139483
LJ          -4.00467         4.79714        0.244685
LJ          -4.01436        -1.43825        -1.00086
LJ         0.0676075        -4.00924        -1.31102
LJ         -0.885206        -5.35281        -5.44785
LJ            2.0868        -5.17717        -3.70014
LJ            2.1401          2.1789        -5.62757
LJ          -5.18248        -3.52031         4.72372
LJ          -5.82867        -3.06426         2.52309
LJ          0.696167         6.44531         2.87466
LJ          -0.65365         1.86766         1.62889
LJ        -0.0539475         -4.7253         6.40413
LJ           1.11723        -2.27581         1.57837
LJ          -2.51854        -2.18458         4.45175
LJ            3.3702        -4.17843         -3.5873
LJ          -5.36626        -1.38534        -1.59078
LJ           4.08872         4.36445        -2.17508
LJ           5.65716        -5.56486        -3.36602
LJ          -3.35963         -5.4719         3.22291
LJ          -2.08378         1.98034        0.563156
LJ           3.85831        0.492946        -5.61812
LJ          -2.98527         1.14004         3.60615
LJ          0.570668         1.70409         1.90971
LJ           1.33866        0.857494        -5.75154
LJ          -4.15102         1.93827         1.47649
LJ          -6.10205         1.53338        -1.13671
LJ          -4.55751         5.12639         1.11304
LJ          -6.13345         5.85166         1.36363
LJ           5.28691        -4.00531        -3.80961
LJ           2.94473       -0.812097        -5.68512
LJ          -4.30313        -5.44174        -3.13798
LJ          -3.82533        -3.40143        -4.65004
LJ         -0.789662         3.77525         3.59964
LJ          -3.28386       -0.717939         3.53539
LJ         -0.468924         3.62449         5.45553
LJ           -2.7771         2.77662         4.08659
LJ           -2.6962         3.25527         1.58118
LJ         0.0379846        0.239387         2.32229
LJ           0.91216        0.643137      -0.0920211
LJ           -2.0391        -3.71427         5.00834
LJ            1.2287        0.844955         2.53392
LJ          -3.99599        -5.74089         1.66321
LJ         0.0515484         3.76118       0.0942513
LJ          -4.19176         1.72888         6.28202
LJ         -0.630409        -2.99698        -3.51715
LJ           2.19009         1.45247        -4.09803
LJ          -3.57171        -3.47745         -3.7265
LJ          -6.09544        -2.15934         3.41355
LJ          -4.56069         5.38345         6.02887
LJ           4.55582        -5.58217        -3.72532
LJ          0.404651        -1.39075         1.96134
LJ           1.13158         5.70985         4.73225
LJ           4.38831        -3.08916         1.09147
LJ          -2.28115         3.98919         2.54724
LJ           1.49075        0.668706         3.79051
LJ          0.773717         5.98635         6.15657
LJ          -2.64293        0.160226        -4.26278
LJ           3.51669        -4.54893        -4.98933
LJ           4.34815         1.03116        -4.14173
LJ           4.95694         4.91188         3.17547
LJ           -3.7239         4.14511        -3.59281
LJ          0.629482         2.81654        -1.05708
LJ            5.2078        -5.34196        -1.45379
LJ          -6.44739        -2.43464        -1.19769
