108
#Comment!
LJ          -1.66472         4.85009        0.685242
LJ          0.402163          1.3985        -2.16892
LJ            5.9747        -6.22835        -1.37889
LJ          -1.36102        -5.59046         5.56649
LJ          -4.31684          6.3105        -5.52572
LJ           1.78525         4.02171        -2.96599
LJ          0.412666        -5.47394        -5.98166
LJ         -0.501449          6.0958        -3.23857
LJ         -0.238451        -6.29751        0.145194
LJ          -6.25049         6.13637         4.18097
LJ          -3.96792        -5.52321         5.76661
LJ        -0.0715937         5.46657        0.620901
LJ           6.43728       -0.984378        -6.14248
LJ          -5.11072        -1.62514        0.744984
LJ           5.86927        -4.78801        -3.46241
LJ           2.36865        -3.24657        -3.16363
LJ           2.10222        0.391608          4.0691
LJ          -5.29813        -5.53918         3.30895
LJ          -4.23021       -0.791296        0.372964
LJ           6.44874        -3.92028         -2.0933
LJ          -3.36668         3.08345        -3.61591
LJ           4.95233         1.85043         3.72231
LJ           6.39022        -1.88015        -1.97576
LJ          -4.78339        -2.92289        0.312667
LJ          -4.86596         5.58951        0.144351
LJ          -1.00299        -2.33695         4.03676
LJ           3.22611         2.90026         2.67794
LJ           3.73916        -6.40191        -4.64378
LJ           3.90958         4.20875        -1.26531
LJ          -3.60063        -2.12657          1.5924
LJ          -2.82773        -4.18968       -0.320933
LJ          -2.47922         -4.1891         3.27557
LJ          -5.99318        0.791283         5.90187
LJ           -1.9691         3.64221        -1.25004
LJ           1.34581         4.43896        -4.90831
LJ         -0.873457        -4.97418         1.65481
LJ          -2.17854        -3.28761       -0.169284
LJ           -4.8145         5.19202        -4.75458
LJ          -3.91926        -4.55925         -1.4985
LJ           4.18356        -5.59836        -2.46939
LJ          -3.36975           3.637         5.65509
LJ          -2.58394          1.9395        -1.92145
LJ           3.44419         2.90797         0.53231
LJ          0.119199         6.31211          2.3118
LJ           5.74121         4.45011         4.93693
LJ         -0.482633        -4.62029          3.8045
LJ         -0.742793         2.17397         -4.8841
LJ           1.21542        -1.15018         2.49332
LJ         -0.653763         4.11693        -3.89655
LJ         -0.786459         0.28662       -0.949012
LJ           5.65498        -1.98258         5.72614
LJ          -4.20457         3.07835        -4.21966
LJ           1.00029         5.70259        -1.69502
LJ          -3.82845          1.6691         4.01666
LJ          -1.69581         2.58576        0.208829
LJ            1.2147       -0.437296         5.19954
LJ          -1.32332         6.43011        -5.63845
LJ           6.17481       -0.561997         -3.8016
LJ          -3.81204        -3.13108         2.98215
LJ          -4.36698        -3.19148         5.90243
LJ           5.77393         5.08949         1.41832
LJ          -2.62784          2.0202        -3.31836
LJ          -3.62873      -0.0275763         0.80013
LJ          -5.75034        -5.74034        0.579222
LJ           3.50693        -6.42931        -1.59005
LJ           4.37733        -1.87861         6.06931
LJ         -0.876253        -2.42208        -2.89227
LJ          -2.72165        0.551911        0.803536
LJ           5.83534       -0.245908        -4.71278
LJ          -5.26466         2.38363          -1.786
LJ           4.01872          6.1552        -3.32294
LJ          -4.68156        -2.42501        -5.26892
LJ          -2.09802         5.91447        -3.39413
LJ          -4.68332        -4.79454        -6.45525
LJ            5.3131        -2.37246        -6.35958
LJ          -2.81213        -5.57353        -6.38458
LJ          -4.45326       -0.246352        -2.40679
LJ           1.02545         2.74537         -5.2958
LJ          -3.45094         2.50762        -2.76448
LJ          0.612543        -1.46615        -1.98109
LJ          -2.70669        -1.61583         1.83449
LJ           1.63657        -1.71092        -4.51924
LJ           2.26852        -5.23342          2.6314
LJ          -1.86111        -5.89264         2.79416
LJ          -4.58094        -3.55786        -5.93626
LJ          -3.54293         4.61968        -0.78938
LJ           4.12002         4.73437         3.85845
LJ           -5.4535         5.54475         3.28015
LJ           0.60367        -4.97882        0.116738
LJ          -1.25978         1.87261        -3.66423
LJ          -2.67301        -4.11114         6.06572
LJ            6.0695        -4.00411         5.81836
LJ           5.44483        -6.20492         3.27147
LJ           -6.2325         -1.3097        -2.99076
LJ          -6.09811         2.63782        -5.61078
LJ          -4.03212         5.93677         1.38979
LJ           4.01943         -3.9357        -3.22564
LJ          -5.32669         1.45378        -3.66567
LJ          -3.33791         1.31665        0.948485
LJ           1.84543         2.10761        0.789442
LJ          -5.02719        0.246256        0.256889
LJ           4.33805         4.37796        -5.95694
LJ          0.233512         -4.6496        -1.84208
LJ          0.200161        -1.61838        -4.68638
LJ           2.36899        0.145646        -2.23021
LJ          0.336494         -5.8159         1.03552
LJ          -1.10751         4.50873      -0.0907427
LJ          -6.07823         5.00962         1.40041
