108
#Comment!
LJ           2.77796        -3.09758         3.00409
LJ           2.80842         3.57522         1.59508
LJ           -2.2632         5.06351         2.24566
LJ           2.62002        -1.48949         3.12209
LJ          -6.32534        -5.06684       -0.949877
LJ          0.817832         5.16725        -4.29547
LJ           5.28036         5.87823       -0.604945
LJ            -2.912         2.80094        -3.97396
LJ           4.30921        -3.89633         6.10455
LJ         -0.883899        -1.85511        -1.64463
LJ          -4.36849        -4.86984        0.958303
LJ           1.31272          3.8842        -0.34008
LJ          -2.92403        -4.37943        0.262413
LJ           5.81034         5.24278      -0.0530784
LJ           4.79769           5.123        -3.05002
LJ          -4.84234        -5.48892         5.30281
LJ          -1.17307        -1.23321          1.4845
LJ           -2.5004        0.869018        -4.81292
LJ           5.49115         6.25986         5.65483
LJ           2.74484         -3.5247        -5.29915
LJ           3.60204          1.2526          3.1255
LJ          -5.85061         5.40612        -6.31434
LJ          -4.25298         5.08106         2.38646
LJ           6.04393         4.91466         1.24569
LJ          0.101685        -3.01453        -3.00263
LJ           4.60562         5.97916         4.86673
LJ          -2.96849         -3.9507        -3.48925
LJ          -3.54819        -2.68303          4.7485
LJ            4.4552        -3.61113           1.205
LJ          -2.60241         1.23211       -0.277732
LJ           5.03247         4.93779        0.939577
LJ           -0.9933        -6.23826         2.90316
LJ           4.71098        -1.44689       -0.302465
LJ          -3.76452        -4.95692        -0.43934
LJ          0.651425        -2.28739        0.224425
LJ          -3.12872          4.5878          4.6017
LJ          -5.58971        -4.09107         -4.7522
LJ         -0.211041       0.0799233        -1.69005
LJ          -4.22505        -0.35683       -0.481576
LJ         -0.665913        -2.15581          1.7104
LJ          -5.06685        -1.73117        0.599144
LJ           6.35116        -2.58831         4.02709
LJ          -6.19902        -5.72611        -3.08514
LJ           2.28273         5.14238         3.00419
LJ           -5.7848         -3.5983        0.476665
LJ          -3.14947        -5.01363         3.32818
LJ          -1.34209         0.94405        -5.28748
LJ          -2.38319         6.18352        -6.35493
LJ          -6.22734         2.44958         1.29087
LJ           3.26083        -1.92878         2.43565
LJ           1.82218         2.75422         0.37622
LJ          -1.07606       -0.857774        0.300547
LJ          -3.51627         3.78784         6.05272
LJ          -5.82685         2.44527        -2.92539
LJ           4.20673         6.32517         6.18138
LJ         -0.248981        -1.05943         2.74662
LJ           5.59837         2.19761         5.52855
LJ          -1.64607         1.60558         1.83845
LJ           1.02112        -5.05833        -3.06579
LJ           3.31917        -1.51673         0.43655
LJ           6.34429        -0.62867        -6.15128
LJ         -0.391376         2.52731         2.80402
LJ           2.76255         4.37096         5.77195
LJ           1.91277        -5.64173         3.18858
LJ          -5.73773         3.96935         3.96969
LJ          -1.35818        -6.05552        -3.61136
LJ          0.661003        0.792056       -0.820118
LJ          0.535775         -4.3757        -4.35407
LJ            2.1269         1.33489         5.50643
LJ         -0.274451        -6.30713        -6.00317
LJ           5.69212         4.64835        -5.98576
LJ           5.64305         3.02512       -0.211382
LJ            -1.837       -0.152483        0.619409
LJ          -0.76046        -1.97002         5.73327
LJ          -0.90332         5.04975        0.982975
LJ           2.57577         2.42589        -3.23927
LJ           5.93117         3.89079        -2.32801
LJ           2.18878        -5.51961          6.2158
LJ           2.16472        -6.36947        0.420946
LJ           2.72359         1.85994         3.12081
LJ           2.39432          2.7123         4.50102
LJ           2.45451        -5.96744        -3.18504
LJ          0.271444         1.18998        -2.34389
LJ           3.22027        -4.16347       -0.195295
LJ           4.22278        -2.19628        -5.25733
LJ          -3.41854        -5.65831        -4.41004
LJ           3.14032        0.542034         4.19812
LJ           6.25401        -6.42255         4.62297
LJ           2.37229       -0.173478        -1.92152
LJ          -2.98528        -2.82152        -3.98091
LJ          -5.03238         6.31617         1.81159
LJ           6.21347        0.215611        -3.64261
LJ          -1.09454        -5.84865         6.06123
LJ           4.95171        -3.25954         4.75793
LJ           3.40976        -5.62653         2.85054
LJ           4.32265         2.11964       -0.866377
LJ           3.90167         -0.3729        -1.74158
LJ          -2.47931        -3.00236        0.441676
LJ          0.619405          2.4615         4.76525
LJ         -0.593594        -1.75812        -2.99199
LJ           2.91355       -0.918966         -3.0146
LJ          -4.37648        -0.95251        -3.46081
LJ          -3.22371         1.82314        -4.44676
LJ           1.26761         5.50403         -1.5887
LJ           5.02966        -5.15289         2.76121
LJ          -5.61318         5.37355         2.23748
LJ          -3.59956       0.0977203        -2.00315
LJ           3.57179         4.23516       -0.695294
