108
#Comment!
LJ          -3.88272         3.50445        0.533671
LJ            3.4258         5.13657         2.97572
LJ           6.15653         3.34664        -1.40016
LJ           4.93339         -4.8266         -2.7288
LJ          -2.27548         1.65692        -4.30846
LJ           -4.7705        -4.66236         1.18363
LJ           1.53228        -4.53146         3.22072
LJ           4.70807         -5.7494        -3.43206
LJ            5.3012        -4.72875         4.65726
LJ         -0.969905         2.68759          1.1423
LJ           6.13046         5.04093        0.773071
LJ           3.73601        -4.56459         -1.3361
LJ           2.50567        0.780683        -2.66213
LJ           3.06119       -0.662446         -3.7978
LJ            5.2639        -6.09726         3.75333
LJ         0.0614568         5.42989        -1.20491
LJ          -3.74517        0.995263         1.17599
LJ          -4.28871         1.55161           3.222
LJ          -3.99816        -6.01743        -4.83656
LJ          -3.62323         4.12985         4.03312
LJ           1.95803         2.73563        -4.33545
LJ         -0.151468         5.71099       -0.297208
LJ          -5.55892        -1.42685        -2.30568
LJ           6.03466         1.00369        -4.65784
LJ          0.827132         5.88841        -3.59133
LJ          -6.39519         2.23782         -2.3393
LJ          -2.20994         2.99922        -4.07442
LJ          -4.78651         1.01541        -3.28819
LJ          -4.08629        -1.55848         5.48244
LJ         -0.261835        -4.03492         3.15003
LJ          -5.07609         5.24098         1.19517
LJ          -1.57222        -5.29849        -6.26818
LJ          -6.12934        -6.23026         1.00914
LJ          0.734443        -4.28002        -6.22266
LJ          -4.98755        0.277655         -6.1026
LJ          -3.90979         2.45773         2.23982
LJ          -2.30268         2.28019        -2.59366
LJ           2.69677        -1.09997         1.86239
LJ          -1.11898         5.50746       0.0696159
LJ          -4.78463        -6.01729        -2.59947
LJ           4.55822         1.97878        -6.30445
LJ           3.33217        -3.10531       0.0658158
LJ        -0.0872706         -3.5442         6.36266
LJ          -4.58154        -6.27499        -3.82448
LJ          -5.32256        -4.41944        -5.79768
LJ          -5.26128        0.230626         5.88636
LJ          -2.69938         5.44816          5.1187
LJ            2.8132        -1.05588         4.37127
LJ           2.54971         5.56918        -4.88152
LJ          -1.70631       0.0474156        -4.62639
LJ         -0.556843        -4.51589        -5.55647
LJ         -0.505527        -6.10871         2.64511
LJ           4.87496        -2.04052        0.240235
LJ            1.8767        -6.26205         5.83578
LJ          -1.54225        -3.10411         4.01787
LJ          -1.24925        -1.11371        -5.08362
LJ           4.13199         2.40394         2.01017
LJ           1.12452         -4.1757       -0.281825
LJ           3.99019         6.33005         3.92991
LJ          -3.92216         2.40561        -5.00146
LJ          0.866242         -5.5687         6.34196
LJ            1.5496         3.04851         5.95282
LJ            3.3782         1.51324       -0.923717
LJ           5.66291       -0.552614        -2.19162
LJ           3.18675        0.903835        -4.88245
LJ           1.26106        -2.77529         4.58452
LJ            1.5787         1.15487        -1.38128
LJ          -2.92106         5.32377       -0.430911
LJ          -3.87711        -2.94428        -3.78747
LJ          -1.00407       -0.557237        0.774317
LJ           6.44432        -3.21743         4.15425
LJ          0.313573        -5.84729         3.74369
LJ          -4.24197       -0.761994        -3.78176
LJ          -6.16452         1.82782        -5.08712
LJ           6.38671        -6.12684        -1.30338
LJ          -2.75483         6.25063        -2.65681
LJ          -5.92951         5.67179         1.37147
LJ           4.94295        -3.68158         6.09713
LJ          -2.91215        0.394451        -5.51609
LJ          -3.26667        -5.90252        -5.97812
LJ           2.10409         6.02983         3.10707
LJ          -1.82661         3.78778        -4.82449
LJ          -5.61732        0.351466        -2.41112
LJ          -1.42046        -3.70189         5.00572
LJ           3.34868        -3.80256        0.809297
LJ           3.64611        -3.69854         2.79204
LJ          -2.94399        -1.93921         5.58979
LJ          -4.77213        -2.29723        -3.25115
LJ          -5.43477        -2.63732         1.73827
LJ           0.31686        -1.28652         3.15735
LJ          -4.53136         2.63185         4.05434
LJ          -1.70634        -2.07524        -2.08417
LJ           0.52465         4.07517        -1.68104
LJ           5.17303        0.742156        -6.12057
LJ          -6.22059        -3.57147         -1.7206
LJ         -0.329861          3.4884         2.75958
LJ          -5.47676       -0.260668       -0.961982
LJ         -0.897607        -5.78001         5.90373
LJ           4.53962         4.14781        -4.01456
LJ           6.03943         6.36233        -5.06673
LJ          -5.53366         3.83471       -0.743515
LJ           3.29966         1.63818        -4.07885
LJ           4.33511        -3.94471         1.41032
LJ           5.57222         5.46067         3.96039
LJ          -3.32853         6.23867          4.5641
LJ           4.12607        0.791286        -1.01999
LJ          -4.60615       -0.907509         4.43216
LJ          -2.91358        -5.64511        -2.33278
