108
#Comment!
LJ          -3.00315         6.46101         4.60588
LJ          -3.05684        -1.06279        -3.99609
LJ          -1.04991         -1.0889         2.03332
LJ           3.13032         1.59162        -2.17762
LJ          0.473521         4.94736         -2.1969
LJ           5.42583        -5.45949        0.285806
LJ           3.54913        -3.33175         2.64805
LJ           5.89136        0.986589         5.41794
LJ           4.76094         4.47116         4.89752
LJ           -2.1731        -6.35521         3.25844
LJ           2.91609        -4.24456         4.09791
LJ            5.3664        -6.25297        -4.08663
LJ           5.01591       -0.105218        -1.83287
LJ         -0.864471        -1.90156        -2.71754
LJ         -0.764872        -4.23428        -1.16689
LJ          -2.10802         4.87931         5.46707
LJ          -0.92453        -1.16752         2.98229
LJ          -5.54712         1.12693         2.13479
LJ           2.45257         4.82332         4.07051
LJ           6.36805         3.08028        -5.43932
LJ          0.780772         3.11527        -1.89915
LJ            2.5774        -6.22116         2.52427
LJ         -0.582648         5.25342         5.09802
LJ           5.94779        -1.13582          3.9256
LJ           -2.5166        -2.19939         5.15542
LJ          -5.53432        -5.50206        -5.14129
LJ          -6.12879         4.53064         6.14646
LJ          -1.75199        -1.61306        -5.26919
LJ           1.24193        0.772664         3.46079
LJ         0.0225946       -0.278837       -0.810248
LJ          -3.99262        -5.06619       -0.719371
LJ          -3.30438         2.44237        -2.49137
LJ           3.64511       0.0982285        -0.71489
LJ           2.65585         4.22154        -1.43443
LJ           5.76474        -6.36948         -3.0554
LJ          -1.66129         4.30621        -3.12044
LJ          -1.23088       -0.120933         2.73172
LJ           3.41208        -5.68088       -0.970205
LJ         -0.501508        -2.01863         1.85227
LJ           5.07754         0.56231         3.12605
LJ          -5.85216        -4.93764        -2.68188
LJ           3.84955         5.89951        -5.74668
LJ            5.2488         2.80854         4.13644
LJ         -0.182973          3.8329        -4.58328
LJ          -3.05272        -4.29675        0.856971
LJ          0.437685        -2.47814        -4.51161
LJ          -1.27015        -2.03897         3.19425
LJ          -2.94648         1.34259        -2.03015
LJ             3.949         1.27634       -0.963943
LJ           3.83436         2.44955        -1.32788
LJ          0.341119        -4.33438        -2.07962
LJ            5.6179         1.85316        -1.51375
LJ          -5.82142            3.99         1.53279
LJ           1.27217        -1.27518        -6.06354
LJ          -4.22137         3.34371         3.73376
LJ            3.0264         3.07694       -0.993458
LJ           4.15443        -4.69358        -5.15891
LJ          -5.23392        0.555366        0.500811
LJ          -5.73689        -6.13338        -1.18259
LJ          -2.85633       -0.732596        -1.30989
LJ          -6.22134        -5.25013         4.04987
LJ           5.29897        -5.32789        -2.03255
LJ          -0.19137         5.54581        -1.71175
LJ          -3.46169        -5.11415         5.58043
LJ           3.80033         2.60795         4.06432
LJ           4.59956         3.77713         2.44816
LJ          -4.29704         2.63897       -0.995788
LJ           5.51341       -0.384656        -4.14053
LJ           6.39529        -5.71301        -5.02976
LJ           3.94698         3.61255        -3.36502
LJ           2.60988         6.29172        -2.41133
LJ          -2.51962          2.4516       -0.356914
LJ          -3.25743          5.7235         3.78126
LJ           0.18109        -1.50999        -3.10639
LJ           2.12425       -0.131103         1.94045
LJ          0.105284        -1.25962        -5.98697
LJ          -2.34921         5.49383        0.994898
LJ          -2.91294       -0.448103         1.46749
LJ          -5.18343        -4.69169        -4.05731
LJ          -4.69994        -1.08733        -3.69625
LJ            5.5272         3.47701        -2.69605
LJ          0.986217         3.88331        -4.07492
LJ          -1.88331         2.55472         1.06556
LJ         -0.950296        -4.16453        -4.02897
LJ          -6.24167         -4.3928        -5.16894
LJ           4.44377        -3.35569        0.889974
LJ           5.31982       -0.647637         2.33863
LJ           5.06547          1.3318      -0.0920579
LJ           2.08989         2.20992         3.32544
LJ           -3.7007         3.66247         2.65433
LJ           2.96625        -4.18487        0.687441
LJ          -5.35044        -3.81478         5.33255
LJ           1.47589          6.1482         4.34171
LJ           5.25792         2.79862          2.2192
LJ          -2.36914       -0.682016        0.258573
LJ          -2.71298         -1.9457        -2.25797
LJ          -1.88853         5.70865         4.48822
LJ           2.12999        -3.74431        -4.52064
LJ          -1.01611         3.32946       -0.256054
LJ           2.09699         3.33923         -4.2706
LJ           5.69442         2.93301        -1.95034
LJ          -0.55224        -2.36882        -1.34042
LJ          -0.18568        -2.41709        -6.30376
LJ          -3.94939       -0.298316        0.711025
LJ           3.93091         5.58355         1.29911
LJ          -5.35155        -1.85545         -6.4314
LJ          -5.23882       -0.604671         4.47542
LJ         -0.699536        0.239924         4.16681
