108
#Comment!
LJ            4.2453        -4.83654        -5.18706
LJ          -3.23251         6.31393         4.96518
LJ           2.21625        -3.35719         0.40809
LJ          -2.11854         1.30262         5.86882
LJ          0.654201        -3.94418        -3.53954
LJ           5.01848        -2.59665       -0.160437
LJ          -5.62197         3.20315         4.71501
LJ           4.09985        -1.64307         6.38376
LJ           1.72559        -3.37757         4.56669
LJ           2.84907       -0.466153         1.90391
LJ           4.98543        0.478948        -2.82478
LJ           3.34708        0.825247        -6.03682
LJ          -5.13409        -5.57678         2.04745
LJ           -0.0414         3.39507        -4.03756
LJ           -3.8697         5.35621        -5.31229
LJ          0.389583        -1.17975         2.90268
LJ          -4.88749        -1.60441          5.6157
LJ           -6.0668        -2.04231        -6.16119
LJ            2.3205        -4.40363        0.535008
LJ          -2.06147       -0.234037         4.66595
LJ          -2.83279         2.04885         1.05071
LJ           2.85959        -1.73392         2.11659
LJ           1.73576         1.91686         3.36005
LJ           5.31804        -3.92395         5.59922
LJ           3.91768        -5.34749        0.920135
LJ          -4.73088         3.54761         6.34036
LJ          -3.65942        -5.49463         4.83755
LJ          -4.94158        -1.49463        -5.61674
LJ           5.04227         3.29141        -4.94972
LJ          0.249561       -0.314725         2.08669
LJ           1.08304         3.60995         1.71145
LJ           5.51002        -5.88754         3.59148
LJ           5.54086         5.59835        -1.33566
LJ           1.35567        -1.65702        -2.51363
LJ           3.38435         5.29824         2.79685
LJ           4.76477         5.31686        -3.48069
LJ           1.10078        -3.52439         3.44685
LJ          -5.18717         6.09521          1.4088
LJ          -5.06823        0.588818        0.596118
LJ          -4.33062        -6.45197         4.58327
LJ          -3.94351       0.0516074         2.06587
LJ          -3.72038         2.59738         4.95321
LJ            1.2675        -6.05397         2.80666
LJ           3.93625         1.76159         -4.7764
LJ         -0.348211         4.24618         4.17342
LJ           3.04694         4.06126        -5.73315
LJ           2.06944         2.07063        -3.80257
LJ           2.87301        -4.88009         5.68788
LJ          -5.26112        -6.37993         6.33003
LJ          -2.86202        -2.51715       -0.645585
LJ           2.84637         4.04203          4.6803
LJ          -3.07034         1.53434         5.36397
LJ           -2.9176        -5.51808        -4.36476
LJ            4.3238        -1.46403        -1.38067
LJ          -3.94299         1.70512       -0.948078
LJ          -4.94131       -0.430425        -0.61277
LJ            3.8002        -6.36149        -3.35346
LJ           4.00946         1.97968        -1.17414
LJ          -2.47119         4.90971        -4.82673
LJ            3.6287         4.03145         3.85541
LJ            -6.187         -1.5462        -4.13422
LJ           1.16431        -5.90183       -0.809371
LJ          0.873387         5.17884        -1.67044
LJ          -3.15595        -4.91493         5.88989
LJ          -4.84706          4.0747         0.91897
LJ           4.46197         -1.5338         3.74432
LJ           4.95465        -3.80177       -0.191883
LJ          -1.06256        -1.02612         1.00014
LJ            3.4742        0.419018        -1.62658
LJ            3.7664        -2.96192          2.7755
LJ           3.70111         2.90625        0.996753
LJ        -0.0324551         4.20631         1.06983
LJ          -2.56229         3.51721        -4.18319
LJ          -3.17003         1.46896        -1.97437
LJ           2.59893        -5.31599        -3.15228
LJ           -4.5226         -2.4577        -4.71646
LJ          -3.88028        -0.91729         4.25011
LJ            1.6706        -5.92926        -3.47089
LJ          -3.77637         5.87837         2.78954
LJ          -4.83403        -3.11621       -0.992983
LJ           2.01544        -4.83255        -6.45865
LJ          0.507507         2.58834        -2.45809
LJ          -5.07433        -2.90086         2.67862
LJ          -4.74949       -0.673357         1.02494
LJ           2.64081        -1.46934        -4.79235
LJ           3.16292         5.91729         6.32412
LJ           6.20551        -5.45379         2.10447
LJ          0.362802        -2.31834         5.21534
LJ           5.63822        0.475617         1.07927
LJ           3.16793        -5.99597         4.63422
LJ          -3.76628         1.54862        0.561205
LJ           6.44003        -1.82447         -5.1282
LJ           3.30661       -0.597889         2.91482
LJ          -3.34865        0.612803        -2.81354
LJ          -6.12426        0.203636         3.18694
LJ           1.05779        -3.49264        -5.43322
LJ          -1.50311        0.459819         5.53386
LJ           2.78064        -2.65544         1.07356
LJ           1.78616          -2.519         1.51105
LJ          -2.92318         5.70586         5.91714
LJ           1.00806         1.95685         -5.1127
LJ           1.67151         4.44958        -6.13863
LJ          -5.03143        0.566597        -4.64322
LJ          -4.46549      -0.0830976        -2.75115
LJ           3.27922        0.239075         -4.9513
LJ         -0.183917        -3.98412        -6.27163
LJ          -6.31463        -1.75904          3.9433
LJ          -6.19276       -0.243417         4.06302
