108
#Comment!
LJ           3.47309       -0.877673        -5.19155
LJ          -3.67989        -2.36767          2.6791
LJ           -2.8035         3.53699        -1.50145
LJ          -6.11385        -1.41464         5.48192
LJ           1.85419        -1.75123          2.0176
LJ           3.28775         5.12834         -1.8248
LJ         -0.512781       0.0748967        -1.47488
LJ           4.18827       -0.255754       -0.898101
LJ          -2.81349         4.77519        -6.13745
LJ           2.17632         -3.0587        -6.19375
LJ            5.4668       0.0880188        -6.09816
LJ           6.06983         2.46773        -4.38563
LJ          -2.20133         3.69704         -3.8481
LJ           -4.2621         1.66775        0.685052
LJ           3.20228          2.2112        -4.80899
LJ          -3.10033        -5.14328       -0.250673
LJ          -1.65687        -5.51692         5.64235
LJ          -6.16436         2.39173        -0.55794
LJ           1.13624        0.343651        -5.46459
LJ           1.22391         1.91375        -6.07004
LJ           2.21534         6.14481         3.22965
LJ          -5.28339         4.04016         4.82299
LJ          -6.01855         2.24638         1.97298
LJ           2.79091        -3.18683         2.55703
LJ          0.779045        -5.41316         1.21518
LJ           5.62051         4.61683         4.19442
LJ          -1.74428        -2.59913         1.22385
LJ           5.77326         5.20477        -4.52887
LJ          0.204996        -5.89463         5.70824
LJ         -0.520209        -3.15115         2.18904
LJ          -5.47884         1.37393         1.18126
LJ            -4.535        -4.80644         4.41546
LJ            5.2016        -4.85035        -3.10516
LJ           5.94275       0.0744699        0.642588
LJ          -2.66129        -1.67962        -4.42807
LJ          -6.15934         2.25099        -2.65751
LJ           4.38087        -5.60278         4.41098
LJ           3.55992        -1.45465         1.62826
LJ          -5.68021         4.50059        -1.29588
LJ           4.70071        -3.65588         1.71015
LJ          -5.55209        -4.43294        -1.61125
LJ          -6.34337        -4.95354          3.0941
LJ          -5.57463         -5.9743         5.47766
LJ          -1.42402         -5.8461       -0.879555
LJ          -5.99071          3.8867       -0.410322
LJ          -2.64618          -4.617          3.7433
LJ          -5.51691       -0.850897        -2.35037
LJ           -5.2043        0.851141           6.207
LJ           -5.3126           4.222         2.35783
LJ           3.75261         4.28592         1.23414
LJ          -1.06433        0.777045        -4.74812
LJ          0.703963         0.10323         6.08551
LJ          -2.77502        -3.75778         1.15448
LJ          -1.25159         4.52914        -3.94513
LJ            2.2409         2.61359         -1.1067
LJ           3.53529         -5.4441         -2.6709
LJ          0.982186        0.927586        -3.66583
LJ           5.49959        -5.54241         2.53681
LJ          -6.03721        -3.15546         1.52347
LJ           6.40601       -0.710892        -6.19732
LJ          -6.33856        -2.15772         1.48916
LJ           1.75719         -4.4274         -4.3999
LJ          -3.87314        0.808471        -3.37275
LJ           6.07664        -5.49784       -0.593665
LJ          -2.47373       -0.761872        -0.42006
LJ           1.83917        -5.47159        -6.14077
LJ           5.07058        -1.53121        -5.70771
LJ            1.0855    -0.000411742        -2.62349
LJ           3.32746         -4.2275        -3.68643
LJ           3.24657        -4.18445        -1.42139
LJ          -1.00769         6.05755        -4.29571
LJ           3.98736          2.7517         -5.3712
LJ          -4.79175        -2.08843         3.29635
LJ          -5.95391        -3.97309        -4.74461
LJ          -6.31276       -0.834239        -4.65307
LJ          -3.96136       -0.109084        -4.90473
LJ           5.10955         1.65818         -6.2652
LJ         -0.892809         -5.1169        -4.10749
LJ          0.893864         1.29531         4.44993
LJ          -5.40218        -5.23028        -5.17243
LJ          -6.31328         4.41829        -2.59686
LJ          -1.50369        -5.84897         4.71118
LJ          -1.22998         3.14626        -5.33542
LJ          -3.15136        -3.44846         -2.4761
LJ         0.0041273         4.13226         -5.2006
LJ           0.65991       -0.936403         4.05435
LJ           6.43505         3.69248        0.560874
LJ          0.227525        -5.17006        -6.08203
LJ          -5.90696        -5.32843        -6.16694
LJ         -0.372656         5.11941        -5.58417
LJ            6.0415         3.25892       -0.935237
LJ            2.4464         4.14785        0.516414
LJ          -2.45226         4.42762      -0.0749133
LJ          -3.36132         4.50799        -3.67329
LJ           2.73394         5.23116         1.09742
LJ          -5.44989        -2.47715         4.19207
LJ          -1.71992        -5.71946        -4.00303
LJ           5.83835         -2.9045         5.34594
LJ           -1.0572       -0.306448        0.321637
LJ           2.16576         5.96244          1.9394
LJ         0.0596075          2.1311         4.65648
LJ         -0.771491       -0.216795        -2.50857
LJ          -2.73058         3.68575        -2.71808
LJ          -1.64973         5.94628        0.769517
LJ          -4.21257        -4.76306        -5.06256
LJ          0.151779        -6.26245        -3.06525
LJ           5.16236        -3.94018        -2.07914
LJ           6.05046         1.88829         3.55784
