108
#Comment!
LJ             3.974         5.45838        -4.35074
LJ           3.67651        -5.35835          2.6956
LJ          0.750756         2.52403        -5.80056
LJ           3.83084        -5.14339        -3.96443
LJ           5.43686       -0.922071         2.04089
LJ            3.2813        -2.31852        -2.67065
LJ           4.29959        -4.95136        0.886161
LJ          -2.52479         1.47819         5.96218
LJ          0.126337        0.909402        -5.48713
LJ          -3.65308        -1.12903        -3.76842
LJ           4.43108         2.74418        -4.70786
LJ           1.51156        0.999225        -1.77276
LJ          -4.22936         2.98988        -4.29881
LJ          -3.11164        0.565398        -5.54509
LJ           4.66767          2.8847        -6.31301
LJ         -0.305292          3.1306         5.17707
LJ           -2.9167        -4.13268         1.81563
LJ           3.07166         6.42393         6.34324
LJ          -1.09415        0.074478        -2.15309
LJ          -6.27918         1.68944        -4.04343
LJ          -4.66354        0.872879          5.8162
LJ           5.25091         3.32694        -4.34496
LJ          0.962596         1.72536         2.65752
LJ           5.67065        0.656049        -4.88573
LJ         -0.860115         5.83235          4.7315
LJ          -1.81097        -6.42011         2.46071
LJ          -3.21361        -5.15046        -1.61659
LJ          -2.85671        -2.10421        0.630394
LJ           5.26238        -3.84281         3.31368
LJ           -2.8375         5.05016         5.57077
LJ          -3.47175         3.35699        -5.44145
LJ          -6.25637       -0.536345        -2.52118
LJ          -1.90419          4.3293         2.03034
LJ          -4.23191        -5.18138        -1.10122
LJ          0.819911        -6.39731        -2.98821
LJ          -4.36015        -4.08218        -3.02374
LJ          0.789624        -0.64307          -5.517
LJ           2.19347         5.68838         2.59481
LJ           1.19655        -6.16707        0.790086
LJ          -2.85329        -1.71831           4.937
LJ           3.76336         1.83824         1.05435
LJ         -0.587426         2.32325         2.21106
LJ           4.20391         6.45408         5.17874
LJ          -5.65412          -5.245        -4.39437
LJ          -3.10314         -3.9604      -0.0341817
LJ          0.871288         6.28697         5.13209
LJ           2.60223         1.72098         6.07376
LJ           3.60127         3.13255         1.32334
LJ          -4.11663         4.59982        -5.51747
LJ           3.85514         3.49241         2.43726
LJ          -4.33174         -1.3062        -4.54033
LJ           1.45555         2.10031        -2.26736
LJ          -5.02986          3.6548        -3.54006
LJ         -0.550227        -1.42935         1.16778
LJ          -5.98987        -2.19849        -0.95803
LJ          -1.22071       -0.359897         2.39932
LJ          -4.11191         3.78756         1.13526
LJ         -0.540904         4.79399          1.2478
LJ           6.23884         4.02203         3.78943
LJ         -0.933439         3.50935        -5.69774
LJ          -1.21616        0.576775         1.48416
LJ          -4.76162        -4.56656         1.15707
LJ          -4.73718         5.69131        -2.10089
LJ           6.45538        -2.56055         5.23995
LJ          -4.49049       -0.739139          5.0881
LJ          -6.43779        -4.43676        -4.45785
LJ           5.37843         -5.9618        0.641533
LJ           1.94217        -5.51832        -3.69073
LJ           1.35184         6.12812        -3.83313
LJ          -3.88302         1.19614        -5.56767
LJ           2.73848         4.41314         6.20847
LJ         -0.117699        0.204166         4.92617
LJ         -0.941591         4.31971          6.2715
LJ           2.85621       -0.809401        -2.56203
LJ          0.167752         4.66671        -5.55138
LJ           6.06261        -5.32298        -2.36482
LJ           4.25486       -0.522002         1.77996
LJ           2.89367        -2.39652        -1.07425
LJ           3.26296           1.287       -0.365969
LJ            1.5939        -1.70946         1.52356
LJ           1.56119         3.58948         1.72809
LJ          0.331485         1.10225         3.68863
LJ             3.265        -1.44042        -5.12574
LJ          -2.45722        -3.25569       -0.538521
LJ           1.61685        -2.63843        -1.88459
LJ         -0.524628         5.43791          6.0885
LJ           1.89726        -4.23328         5.98771
LJ          -5.84347         1.71648         3.69066
LJ          -3.00063         -2.2964        -3.64662
LJ          -3.23557         2.69777         5.08983
LJ          -4.56214        -1.13176          4.0949
LJ          -5.17395         4.24476        -6.38397
LJ           1.11356         3.19373        -3.52047
LJ          -1.74426        -5.65482        -1.00805
LJ          -5.98586        -5.03143         3.87332
LJ           6.02705        -3.05716        0.588556
LJ           2.73541         5.14574       0.0994685
LJ          -4.90516        -1.93125        -2.26657
LJ          -2.88553         6.24196        -2.28754
LJ           3.73533         3.18072         -1.4689
LJ          -2.43174         3.93783         3.51008
LJ           6.43382         3.81948         1.41642
LJ          -5.89249        -3.93325        -2.70287
LJ           3.81542        -5.41349       -0.480245
LJ          -3.27088      -0.0123924        -3.36193
LJ          -5.62846        -6.03254         4.40038
LJ          0.511191         5.82627         6.46269
LJ          -4.42349         2.03069          4.6233
