108
#Comment!
LJ          0.811077        -4.40548          2.6754
LJ           2.70786         3.44942        -5.67163
LJ          -3.05538       -0.139484         4.91914
LJ           4.63061        -1.78489         4.38046
LJ         -0.888766         2.26845            6.03
LJ          -5.84136          5.3186       -0.558662
LJ         -0.759478        -1.68234         1.72227
LJ        -0.0909051        -1.54168        -4.19493
LJ          -2.44072        -1.53075       -0.546537
LJ            4.3449        -4.77985          5.5931
LJ           4.57742        -5.25368         1.59431
LJ          -3.92458         4.38706         3.07964
LJ           5.61059         -1.7508        0.884612
LJ          -5.33129        0.215813         1.23564
LJ          -5.13527        -5.31315         3.04691
LJ           6.31611         4.13609        -5.22206
LJ           1.90764        0.692775        -4.47413
LJ           2.71177         -5.1616         3.68824
LJ            3.2183          5.3015        -4.27624
LJ          -3.47585       -0.107696         1.89017
LJ           1.84023        -4.30837           6.123
LJ           2.89353       -0.498968         2.93455
LJ           -2.5757        -1.98959        -4.74063
LJ           5.51336         3.86378         1.70769
LJ         -0.173375        0.847636        0.224806
LJ           4.34892       -0.608834         4.60008
LJ          -3.71006         6.40944        -0.58767
LJ          0.705266        -1.36349        -5.83621
LJ           5.83795        -6.35816         2.19695
LJ           2.29479         5.70042        -6.27914
LJ           1.46078        -4.78224        -4.02435
LJ          -1.07999         4.86802       -0.270212
LJ           5.19646        0.483102         1.86399
LJ          -1.83689         1.99902         6.13907
LJ           1.41209         4.14098         1.77689
LJ          -3.90684         1.36114         4.72933
LJ          -3.97516         6.39066        -5.11466
LJ           1.24845        -2.88269         -3.4493
LJ          -5.75421        0.669188         -5.4182
LJ           1.57391        -2.66672       -0.275109
LJ          -2.56078         6.24195        -1.07106
LJ            2.8743        -2.67038        -5.71902
LJ           5.04833        -4.96119        -4.41627
LJ            6.1366        0.102011        -2.31254
LJ          -1.55814        -5.45341         3.93216
LJ           5.81104         5.49947         5.92981
LJ          -6.30108       -0.198154         5.97375
LJ            4.4819         1.67854         5.38071
LJ          -4.42006        -2.27305         1.81453
LJ           1.89447        -1.86465        -2.14096
LJ          -2.79683         3.08491        -1.65663
LJ          -4.89274        -1.25023        -1.80249
LJ           4.45315         4.14197        -5.73734
LJ           3.35957         4.36947        0.182501
LJ          -2.19566        -3.73355        -4.83816
LJ          -1.31909        -5.38802        -2.89596
LJ             -2.78         4.29386         -3.4964
LJ           2.10525         4.78698        -5.59742
LJ           3.65032        -6.30566         3.56634
LJ           0.88028        -4.30306        -2.86361
LJ          -5.95469          1.6953         6.34853
LJ          -3.65553        -4.20882         4.76619
LJ           3.14772         4.02437         4.05029
LJ           -3.6545         -1.0478        -3.71715
LJ           6.02602       -0.474248        -3.80284
LJ           3.37777       -0.512118         -5.1658
LJ         -0.997601         5.63249           1.202
LJ            4.9479        -1.33009        -0.61935
LJ           3.45423         4.95779        -1.92833
LJ          -1.64298        -1.53271         2.29009
LJ           -1.3091         1.30055         -6.2095
LJ          0.566906        -3.12667         2.08193
LJ           5.39856          4.5331        -1.13702
LJ         -0.295267        -6.31518          4.5101
LJ           1.57542         3.60049        -6.35632
LJ          -2.13031         2.58416        -2.94644
LJ           3.61333        -5.98165        -4.72954
LJ           4.74261         5.56945         6.39115
LJ           1.77354         6.26991        -2.34645
LJ           2.64744          3.7816         5.05185
LJ          -1.81542         4.96778         3.96214
LJ           1.95817        -1.15989        -5.77189
LJ          -3.80973         3.29721         4.27735
LJ            4.0882         5.22387         2.15057
LJ           3.53971       -0.681669         -4.2451
LJ           4.64758         5.37429         4.63928
LJ          -5.28859       -0.650291         4.47026
LJ           1.82295         2.70601         5.15293
LJ          0.718156         2.15295        -1.93775
LJ         -0.317753        0.869391        -1.43048
LJ          -1.40515        -2.77121          4.3133
LJ           1.34046          -1.425         2.42267
LJ           6.23621         2.16799        -5.83964
LJ          0.201936        0.116345        0.817563
LJ          0.173266         3.68966        -5.73022
LJ          0.660128        -2.00061         5.93712
LJ            2.0399         2.19258        -5.95285
LJ           3.53263        -3.89162        -2.40963
LJ         -0.353359        -5.78298        -6.12976
LJ           4.43351         2.39899        -3.71097
LJ           6.32723        -2.97339        -5.34121
LJ             4.017         1.14474         1.53941
LJ            1.5525         0.50746        -3.29887
LJ          -3.97763        -2.84437       -0.428207
LJ          -4.28005        -1.73029         3.59006
LJ           5.74663        -5.88766        -5.36033
LJ           3.98274         4.66499        -4.90325
LJ          -3.84619        -5.41123        0.154869
