108
#Comment!
LJ           5.00361        -4.38355        -4.76421
LJ           2.36456         4.44353        -5.83294
LJ           -1.4739         4.09221         3.16914
LJ          -4.39547        -6.33239        -5.50945
LJ         -0.502671        -2.88667        -3.27174
LJ           2.46319        -2.47825         2.24681
LJ          -4.48488        0.115422         6.38962
LJ           4.84018         2.50027       -0.992268
LJ           -5.2428        -4.31317         5.31367
LJ           1.65753        -3.22368         0.75122
LJ           6.38619         -1.4282        -4.53406
LJ          -4.10721        -4.76061         6.02116
LJ           -5.2643        -1.11982        -2.80441
LJ           1.15923         2.11725        -2.60534
LJ             4.667         2.33499          6.0699
LJ          -4.02998         6.01913        -3.07023
LJ           5.50855        -6.36674        -4.67317
LJ           -5.5931         4.26279         5.59329
LJ           5.35717            6.46         3.35611
LJ           1.22998        -5.50787         0.14108
LJ           2.48492        -2.56938         3.41759
LJ          0.876437         3.19317         -3.4648
LJ          -3.65132         -1.8137         1.21809
LJ          -2.41443         6.08365       -0.841564
LJ          -4.24638       -0.147145        -5.30888
LJ        -0.0109845        -3.83087        -4.57315
LJ           3.40383         1.30562        -2.93319
LJ           5.31389         3.52697      0.00531159
LJ           2.85454        -5.68392         4.55446
LJ          0.784399        -2.12651         6.21167
LJ           3.87169         4.28561         5.03366
LJ          -2.85897        -4.65705        0.508564
LJ           4.32916         1.40651         1.87309
LJ          -3.77511         4.65592         6.26763
LJ           5.71673        -6.17715        0.285175
LJ          0.660596        -2.56247        -3.37331
LJ          -1.76695         -4.7714         1.58249
LJ          -2.58424         -5.5324         1.10065
LJ           2.55597         4.36458        -1.76056
LJ          -3.97714         3.26287       -0.715921
LJ         -0.853247         4.19646        -3.65137
LJ           2.40662       -0.523943        -1.74028
LJ          0.190849         -3.2621       -0.222951
LJ          -3.96174        -2.69416        -3.04843
LJ          -1.17441        -4.51878         4.89985
LJ          -1.29374        0.703512        -4.90139
LJ          -5.46447        -1.99683        -4.90424
LJ           2.11408        -4.02435         1.31451
LJ          -2.16409        -3.78578        -2.12346
LJ          -5.37222        -1.62793         5.55104
LJ          -4.67698        -1.41598        -6.28547
LJ           4.13123         2.77418         3.71754
LJ           6.25602        -2.83306          4.7703
LJ          -5.17248        -4.10663        -5.88509
LJ           5.40985        -1.19056        0.751367
LJ          -4.31123        -6.02226        -1.28883
LJ         -0.645369         4.41231      -0.0728483
LJ           0.28439         6.45307         1.54874
LJ          -4.40593        -3.98973        -1.53308
LJ           3.81066         5.39421        -6.15787
LJ           4.50308         0.56471         4.30696
LJ          -5.22771         5.88974         1.66514
LJ          -6.11882        -0.69864         5.44732
LJ           1.37018          3.3292        -5.88385
LJ         -0.724564         2.11258         2.69918
LJ          -1.22149         2.37614         3.95339
LJ         -0.790318        0.308644        -6.12825
LJ           2.19306        -1.88785         5.96226
LJ          -5.48497        -6.39489         -5.9833
LJ          -0.49519        -3.42558         1.38377
LJ          -3.42382        -5.53735       -0.841681
LJ           4.04015       -0.826173         5.51418
LJ           -5.3333        -4.45011         2.28997
LJ          -5.81942        -1.59427         4.17227
LJ           2.07304         -3.7883        -2.78909
LJ           1.48439         3.14009         6.00604
LJ           5.97688        -4.42686         3.29413
LJ          -3.69895        -5.16925         1.63255
LJ           6.42184        -2.93725        -5.57689
LJ          -5.76689        -4.85055         4.62576
LJ          -1.86363        -2.45435        -4.22297
LJ         -0.925796         2.16288         6.44678
LJ           1.49511        -3.25988         6.45921
LJ           2.13211         3.23441         4.74145
LJ          -1.10866         4.61366        0.971474
LJ           -4.7694        -3.70487         4.65138
LJ          -3.73524         3.93743       0.0012047
LJ           -3.1043        -4.47204        -6.31865
LJ           2.29981         1.44158           1.528
LJ           4.19538         5.24661        0.358365
LJ           4.64074        -1.79254         2.18868
LJ           4.69092         1.79306         5.06718
LJ          0.555014         -3.1955        0.844145
LJ          -1.17256        -3.69503         3.20048
LJ           3.70302         1.86214        -1.11049
LJ           -5.8986         -5.7896        -2.68384
LJ          -5.85773         2.53919        -1.74646
LJ          -2.91054       -0.449523        -3.23913
LJ           1.19522        0.299778        -3.84991
LJ          0.765735         5.94521         2.37973
LJ          -4.21019        -5.67135        -2.46145
LJ          -5.53888        -5.46369         6.33139
LJ          -3.61864        0.433629         4.63444
LJ           3.27267         1.04034         -4.0446
LJ           1.52536         2.92338       -0.731257
LJ           3.93801         6.31497        0.374665
LJ          -3.85759         5.94109        -1.55262
LJ        -0.0113649         3.71332        -6.17682
