108
#Comment!
LJ            4.8784        -3.85063        -4.89661
LJ          -1.04373         5.38514         4.23408
LJ           1.46504        -4.39988        -1.76316
LJ           -3.2815        -3.70894       -0.811346
LJ           2.22228         3.50257        -3.94042
LJ          -1.66187        -2.76817        -3.87878
LJ          -2.39185        -1.76404        -2.92252
LJ           4.34489        -3.69226         5.09506
LJ          -2.26917         2.40684        0.721393
LJ          -1.07096         1.37169         4.63339
LJ           -2.6473        -0.90692        -3.77532
LJ            5.1307         1.40297         5.03045
LJ           2.27981        -5.34194        -2.11934
LJ          0.284609         3.27672        -1.77854
LJ          -4.55029       -0.392224        -1.61797
LJ           5.27494        -1.91473        -5.23804
LJ           5.04285         2.90191        -3.32985
LJ          -4.10395        -4.59239        -4.32536
LJ          -5.08578         5.17311        -6.06748
LJ            5.5157        -5.25266        0.736107
LJ           3.94144        -4.18665          3.8611
LJ           1.72604          6.0292         3.49586
LJ         -0.493803         1.22379          5.7185
LJ           2.24288        -1.53061       -0.332011
LJ         -0.457761         -6.3401        -3.24699
LJ           0.67814        -4.72736        -2.38228
LJ          0.403831         2.74043         5.40234
LJ          -6.38491         -2.6224        -3.44498
LJ           3.14091        -5.66666        -4.20588
LJ           5.37389         2.86383        -4.20261
LJ           1.90525         -4.1688        -4.01274
LJ           -6.4018        -3.48901        -2.52934
LJ           3.46203         3.17692         6.32912
LJ          -1.04483         4.53469        -4.27239
LJ           2.15647         1.71274        0.119606
LJ         -0.970793        0.101544         4.26645
LJ          -1.82834         2.81935        -1.69802
LJ          -2.50559        -5.24558        0.704191
LJ           4.90488        -6.02651        -3.77975
LJ          -3.78633        -2.28305        -1.17476
LJ          -4.63608         3.33335        -5.46848
LJ          -1.99739         5.55012      0.00918491
LJ         -0.934219        -4.42267         3.68546
LJ           2.80698        -3.27548        -3.12287
LJ          -1.45582         1.38205        -2.64592
LJ           4.56458          5.6582          5.8051
LJ           0.37562        -3.78828     0.000761131
LJ          -4.84458        -4.00435        -3.36464
LJ           1.27904         3.65909        -2.93942
LJ          -1.97725       0.0987512        0.410886
LJ         -0.605433        -6.27642          3.5026
LJ          -2.34813         6.37513         3.75625
LJ          -5.93173         3.86116         3.35376
LJ          -1.48911        -4.25799        -2.20333
LJ          -4.96742        -5.83434        -2.81518
LJ           1.40378         -6.4486        -5.02067
LJ          0.511143        -6.35077         5.12097
LJ           3.70802        0.163835        -3.75384
LJ           1.07559        -5.04509        -1.13184
LJ          -4.62596         2.71387        -3.07779
LJ          -1.46005         3.05301         1.56684
LJ          -1.01176         -3.2728         6.01858
LJ          -3.85932         1.33495        -1.54683
LJ           2.38516        -2.47828         4.33397
LJ           1.27842        -4.34272        0.644416
LJ              2.93        -4.19154         3.04425
LJ          -2.05364         2.22248         2.05892
LJ          -5.79124         1.30622           1.255
LJ          0.350193        -6.00492        -4.37906
LJ          -4.80661         2.77319       -0.971176
LJ           1.08228          3.6955        -4.62221
LJ          -4.74188         5.14909         3.44375
LJ          -3.22272         2.59193        -4.27584
LJ          -4.66368        -3.59725        0.544235
LJ          0.792699        0.473176         3.65414
LJ           3.01826          6.1731         -5.7157
LJ          -2.50011        -5.00224        -1.85586
LJ          -5.88964          6.0442        0.168958
LJ          -3.09319        -2.47216        -4.94625
LJ           2.28155        -5.97489         2.23357
LJ          -3.65379         3.03894        -6.16761
LJ           1.12854        -3.95308         4.13953
LJ           1.77412        -5.57313        -3.85849
LJ           5.13363         3.18085        -6.33159
LJ          -4.90472         4.84224        -1.15268
LJ          -2.10788         -4.1578         1.84967
LJ           1.29768         -5.4429         3.83902
LJ           6.44677        -4.30292       -0.984555
LJ           -3.5735        0.346628         3.05886
LJ           0.86447         3.55991       -0.611379
LJ           4.37984         5.66379        -2.14862
LJ            5.8455         3.77414        -4.94557
LJ          -1.70341        -2.24363        -1.18717
LJ           1.59566        -6.29831         4.84192
LJ         -0.322201        -3.64182        -3.79051
LJ          -4.63863         5.92773        -3.43557
LJ           -4.1198         5.99172         2.80854
LJ           1.87985         5.06358        -6.24834
LJ           5.40728        -6.44401        -2.12759
LJ           1.05328       -0.986866         2.74546
LJ          -5.57853        -4.74405        -3.85874
LJ         -0.501715         -2.4873        -6.27069
LJ          -0.29528        -4.22035         2.91271
LJ           1.41441        -1.78497         3.91929
LJ          0.310211        -4.80821         3.75194
LJ          -0.30168        -5.16757        0.694247
LJ          -1.63473          4.9322        -1.17478
LJ           3.54005        -4.10912        -4.13532
