108
#Comment!
LJ          -5.14879         4.84949        -6.23821
LJ           3.83858         1.79697        -2.19224
LJ           -1.2146         3.88274        0.545032
LJ           2.12863         1.89957         6.06565
LJ           2.98109        -6.08372       -0.141799
LJ           3.93752        -1.00851         5.01824
LJ          -1.25635        -3.42672         2.11948
LJ          -2.79136         5.46449       0.0719163
LJ           5.14248       0.0473454        -0.95446
LJ          -4.93609        -5.60088         4.58209
LJ           6.21749        -1.13489        -5.16425
LJ          -4.74285         6.44346         5.76742
LJ           3.79012         2.13614          1.4466
LJ          -3.90768        -3.77333        -5.33586
LJ          -2.32061         1.52793          4.2373
LJ         -0.326757         1.67514         -3.6123
LJ           6.25984        -2.41353        -1.98524
LJ           1.30523         3.61743        -2.87452
LJ           4.32314         -2.1898         5.37214
LJ          -1.97484        -5.57392         5.00148
LJ           1.67394        -1.66005         3.73618
LJ           5.55329         2.54141         2.03308
LJ           3.40498         4.76428         -5.6174
LJ          -4.48848         4.20619         5.38187
LJ           3.54106        -4.08367       -0.308361
LJ          -3.87797         6.41138         -5.7707
LJ           1.67936       -0.593982        -5.08735
LJ          -3.87405         3.07859         1.37608
LJ           -2.4843         3.09281        -4.07765
LJ          0.929739        -0.93776         4.30889
LJ           1.04723         2.93818         5.43324
LJ           4.99099        -6.18159        -1.14207
LJ           1.55253         1.02018         -1.0043
LJ           4.24743        -2.28997         3.33759
LJ           5.40953         1.04034       -0.642659
LJ          -4.30571        -5.49345         1.24645
LJ          -3.08103        -1.96744        0.675453
LJ          -4.33342       -0.964982         6.29974
LJ        -0.0716621        0.213895        -4.30375
LJ          -2.81743        -2.64709        -1.79076
LJ          -6.19495          1.3792        -1.54132
LJ         -0.137312         5.46156         1.89673
LJ            1.0276        -2.41021         4.10573
LJ          -5.11602         1.98074         1.46332
LJ          -1.35086        -4.29656         3.84536
LJ          0.608241          5.6984        -4.88284
LJ            -2.336        -6.25419         4.12492
LJ           4.48073         -3.1917         2.84788
LJ         -0.223649        -5.12154         3.00709
LJ           2.71878         5.48014        -4.06516
LJ          0.575009        -5.22328        0.577554
LJ           4.60832         -4.5463        -0.37265
LJ         -0.950471         2.15956         4.02481
LJ           4.41248        -6.16758        -5.68592
LJ           6.25917       -0.907128         4.02858
LJ          -4.22732        -4.86917        -5.36179
LJ          -4.97163        0.427367        -4.73919
LJ           -5.5934       0.0860536         1.57843
LJ           5.69119       0.0638933         5.40408
LJ          -5.38692          6.3361         4.36783
LJ         -0.481961        -3.95408         1.54352
LJ          -4.72338        -3.19489         -4.8774
LJ          -0.44025         0.19158        -5.54343
LJ         -0.787625        -3.70574         2.90198
LJ           1.86552         5.09156        -5.43994
LJ           2.74404        -5.24966        -3.37944
LJ           1.79502         1.71498        -4.35239
LJ          -5.76811         4.19653        -3.12767
LJ          -1.03634         -5.8872        -5.22934
LJ         -0.985164         3.95457         1.97144
LJ          -1.72995        0.551477         2.04245
LJ          0.212143         -1.5539         5.73764
LJ          -1.49745       -0.978042         1.80438
LJ          -3.68288         5.48287         -1.0758
LJ           -2.3345          4.0467        0.363789
LJ           5.84238         5.01008         4.27407
LJ        -0.0417956       -0.819337         2.47928
LJ           2.17982        -4.31494        -3.61421
LJ           6.34321        0.549238         3.61974
LJ          -2.56709        -6.07734        -3.50875
LJ          -2.99034         3.14727          6.0334
LJ          -1.54983        -2.95518         3.03439
LJ         -0.451169        -1.80199         3.57661
LJ          0.129457        -2.38195         2.34964
LJ           3.95445        -3.60771         3.75603
LJ           3.71073         3.21296        -4.62448
LJ           3.07326         4.10247         4.59844
LJ          -3.38817         4.09022         0.36908
LJ          -6.03426         2.69045        -2.27597
LJ           6.23826         3.47653        -3.56861
LJ          0.859517         2.95921         2.44857
LJ          -2.38396        -5.89741        -5.22324
LJ           6.15241         1.46869         4.44451
LJ           1.10686          1.5787         5.91131
LJ            5.8862        -1.26169        -2.06658
LJ           -2.2262        -6.36231         1.74905
LJ            2.3951         2.15622        -5.20379
LJ           1.80215       -0.146926          2.2037
LJ          0.363856        -5.24132        -5.50214
LJ          -4.23808          4.7967        -4.79213
LJ           3.57751        -3.85187         2.25822
LJ          -3.24725        -3.06782         2.88885
LJ           5.26365         1.81253         4.10794
LJ           1.30545        -3.87601         1.07874
LJ         -0.995325         2.52061        0.285783
LJ          -4.39851       -0.391436        -1.94435
LJ          0.806141          2.3709         4.35511
LJ         -0.916696        0.199316       -0.546589
