108
#Comment!
LJ           4.53307        -1.65798         1.69875
LJ          0.137236        -4.23144       -0.665023
LJ           4.70307         2.14274         1.76762
LJ          -4.35177         2.20133        -5.35026
LJ          -2.87706        -2.06965        -1.91711
LJ           3.90486         5.97752         0.33365
LJ           2.50813         6.23074        -1.59901
LJ           1.95392         3.34893        -4.59975
LJ         -0.777542         4.70339         2.91681
LJ           4.31568         0.50147        -5.72002
LJ           1.32034        -5.98564          5.7457
LJ           5.28388       -0.347424        -2.55269
LJ            4.3606       -0.520742        -3.88758
LJ          -1.00618        -5.02362         5.63003
LJ          -4.34552         2.13223         2.81785
LJ          -5.92779        -4.62332         -3.9762
LJ          -2.92915         2.58337       -0.771595
LJ           5.25086         2.23608         -4.0097
LJ          -2.88791        -5.77766         3.95602
LJ           2.59549         1.74859         5.01815
LJ          -1.81434         4.18638         3.39776
LJ          -5.67864       -0.838175        -3.11753
LJ           3.26963        -4.20972         3.36061
LJ          -1.10201         2.35981        -5.55653
LJ          -2.06695         4.96157        0.654347
LJ          -1.59232        -5.23964       -0.166311
LJ          -6.04239         2.84948         1.13543
LJ          -1.12373        -1.89137         4.87864
LJ          -4.42214         2.92913        -3.08517
LJ           1.86088        -2.83346        -1.13393
LJ          -3.28551         4.66853         1.72736
LJ           4.04811         -2.5228         5.70336
LJ           2.94367        -2.58559        -2.49401
LJ          -1.46851        -3.06037       -0.698138
LJ           -3.3702       -0.803034        -1.67214
LJ          -2.84239         2.03373        -5.46417
LJ           3.15954        -6.26534       -0.581905
LJ          0.502097         3.06964         6.23302
LJ           3.11706        -2.39803         3.48309
LJ           5.55763        -2.08744        -2.87825
LJ          0.577995        -4.37798        -1.97251
LJ           4.88286         4.16282        0.482457
LJ           6.05352        -3.73347         2.73113
LJ         -0.102237         4.69695         1.99271
LJ           2.14832        -6.23353         2.45786
LJ           1.31783        -1.11801        -5.09777
LJ          0.200551       -0.869639         2.65209
LJ          0.642692     -0.00322425         5.65152
LJ          -4.91675        -3.28852         1.19528
LJ          -5.92436         4.17632        0.088258
LJ           2.93431        -3.77418       -0.782158
LJ            5.7975        -5.22245         4.38399
LJ            1.3074        -2.72684         3.45574
LJ           2.52532       0.0673081         6.24768
LJ          -1.60813        -4.37257       -0.770175
LJ           4.54005         2.25913          6.0952
LJ           2.14218         1.80071         2.78438
LJ          -3.83637         5.91928         4.33311
LJ          -6.04416         -3.4269        -3.43168
LJ           1.00613         1.25775         5.79653
LJ           5.07823        -3.20695         1.53792
LJ           5.90704        -5.46415        -4.96371
LJ           2.96649        0.730563          1.0259
LJ           4.76354        -5.20525         2.27411
LJ           4.86001         3.86278         2.93407
LJ           3.65936        -3.41788        -1.46248
LJ          -2.87216         2.24956          2.8476
LJ           6.21402        0.647236        -1.03591
LJ           2.67001         5.04868         -5.0335
LJ           6.43621         1.63075         3.28286
LJ          -3.16509        -3.30183          2.1107
LJ           -5.5018        -4.04408        -6.04826
LJ          -2.86407       -0.489048        -4.74375
LJ          -5.15622         1.51485         3.34816
LJ           1.82851        -4.56906        0.444315
LJ           3.48164        -1.52703         5.39271
LJ          -6.31042        -5.07235         5.35745
LJ           1.12714         5.59103         2.75508
LJ           3.29068        -6.02814         2.96496
LJ          -1.21205        -4.95933        -5.38356
LJ            3.8046        0.493017         2.98113
LJ           3.38841         3.12473         4.96518
LJ           3.94404         5.69233         2.08525
LJ           5.77321        -1.77588        -5.85849
LJ          -2.32708        -1.78146       -0.693544
LJ          -5.75821         2.74543         4.58282
LJ          -1.60492        -3.83091        0.815648
LJ           1.81281        -1.63052         3.10383
LJ          -3.78669        -2.81956         1.20201
LJ           3.97216        -4.65559         1.72115
LJ           6.39716         4.70137        -1.28075
LJ          -5.13026         5.04385       0.0236818
LJ          -4.25198         3.15306         -1.0642
LJ           4.99123        -3.61692        -2.17615
LJ           2.39545        -3.10097        -3.47018
LJ            2.0794        -2.42147          5.9378
LJ           2.61752        -4.86044         2.05381
LJ           1.60136        -4.02163       -0.783015
LJ           6.15803        -1.78375        -4.20899
LJ           4.87614        -1.26099          3.2168
LJ           5.23373       -0.275153        -5.44527
LJ          -2.43184         3.32159        -5.64295
LJ           5.36972         4.36804         1.45972
LJ          -5.46245         4.38316         3.97868
LJ           -1.7479        -2.23733         2.07079
LJ          -4.20916         1.74776       -0.963884
LJ          -2.80085         3.43571        -1.35955
LJ          -1.76863        -3.39668          2.3169
