108
#Comment!
LJ          -6.41516          5.2917         3.31991
LJ         -0.850849         4.67159         2.94252
LJ          -4.34491        -3.60103         3.23981
LJ           2.49425        0.993054        -5.27569
LJ          -2.69359         4.68619         -3.3846
LJ         -0.536503         5.00762         6.45562
LJ            4.4685        -5.92197        -1.95869
LJ           1.70281         4.08611        -3.09735
LJ           4.16783        -3.22783         5.61243
LJ           -1.5063      -0.0370805         -3.9344
LJ          -4.99732        -2.14956         5.02522
LJ          -6.10702         4.27446        -3.94852
LJ         -0.601981        -4.60249        -2.77725
LJ          -3.58722        0.206261         1.85013
LJ          -3.09667         4.29112         4.53505
LJ           5.01284        -2.12992          -5.716
LJ          -2.47846        -4.98618         -0.9278
LJ          -1.41915         4.74533        -5.26849
LJ           5.21615         3.72188         5.56724
LJ           4.05515        -2.20238        -4.41832
LJ           3.34446         1.20816         4.40624
LJ           4.92036         3.82605        -4.72957
LJ          -4.95118        -6.00152         4.82532
LJ           5.34998          4.0225          2.8632
LJ          0.890672        -3.88985        -2.81195
LJ           6.32245         2.73246         4.22375
LJ          -3.38205        -5.27021        -2.75892
LJ          -5.56537        -2.35201        -6.08226
LJ           2.80036         1.81815         2.34878
LJ           3.05969         1.91086        -1.04819
LJ           3.89904          5.2158        0.230274
LJ         -0.738242        0.976924         4.73571
LJ           3.85571        -2.50929      -0.0323137
LJ          -6.36976        -5.32892         3.09449
LJ           5.24472        -2.83404        -1.96859
LJ          -4.42996         4.85268         1.08054
LJ          -3.56867        -3.68628        -4.30283
LJ         -0.434758        -1.48905        -2.95236
LJ        -0.0285685        -1.77163        -1.82913
LJ          -1.13063        0.354614         3.99768
LJ          -4.95678        0.297642          3.4176
LJ           3.13814         2.76519           4.445
LJ           2.75727         5.36105        -5.12773
LJ         -0.811029         5.50875         3.90258
LJ          -5.35559        -3.28311         2.42649
LJ           4.32278         5.13762        -1.72463
LJ          0.570368        0.942483         6.24776
LJ           -2.6536        -3.04592         5.50931
LJ           5.45289         3.82783         1.42116
LJ           2.42698         -1.4341         4.12957
LJ          -5.38019         4.99864            -4.5
LJ          0.218003        -3.99404        -1.63976
LJ           1.37527          4.7423          4.0081
LJ          -6.21475         3.33024         6.27352
LJ           4.61151        -1.46818         3.03276
LJ          -1.55386         3.62048         1.73535
LJ          -4.11108        0.404597         5.29866
LJ          -1.95396         6.10058        -1.30393
LJ          -3.41806        -4.68024        -5.07575
LJ          -0.38042       -0.597867       -0.350397
LJ           6.16861        -3.30474        -5.51875
LJ          -1.67919         4.43874          6.0183
LJ           4.11363         5.12759        -6.35555
LJ            3.7147        -2.34662         1.98688
LJ          -5.78865         3.20347         3.60305
LJ          -1.83742        -4.31422        -2.79842
LJ          -2.21526         2.89541       -0.580624
LJ          0.749179       -0.915806        -3.43254
LJ           2.08515         4.26292        -5.52645
LJ           2.09237         2.94609         4.05258
LJ             5.547         4.65961        -6.28941
LJ          -5.74796         1.56866      -0.0074368
LJ          -3.50126         4.50941         3.73591
LJ          -1.44203         1.76034        -5.58075
LJ          -1.95583         4.58091       -0.974699
LJ         -0.601319         1.68286         6.38773
LJ          -3.70739         0.35436        -1.05778
LJ           3.25733        -4.21985        -6.09068
LJ         -0.576032        -6.30959         4.30142
LJ          -3.45431         2.93598        0.233896
LJ          0.757542         3.13056        -5.91388
LJ          0.436515        -5.52825        -3.42139
LJ           1.06188        0.175144        -5.04277
LJ           5.99704       -0.881845        -2.73533
LJ           4.55896        -1.10839        -3.47334
LJ           -2.4043        0.566944         2.64708
LJ           4.13981         4.41802         4.45565
LJ           6.12967        -5.78578         2.02241
LJ          -5.16725        0.321935         1.80445
LJ           -2.7079         2.01336         5.75783
LJ           5.63219         3.12932         3.44412
LJ           2.17008         3.15927        -5.54054
LJ         -0.273852        -2.59234        -5.24489
LJ           5.14188        -1.45016          5.3547
LJ           3.31917        -2.55289        -1.02971
LJ           -6.2775         2.60751        -3.21595
LJ          -6.31885        0.757268        -4.09572
LJ         -0.993811        -4.58443          -1.632
LJ           1.06627         1.50514         4.13557
LJ          0.316959        -0.60381        -1.91513
LJ           4.36409        -2.31195         6.23818
LJ          -3.78203         2.77253         -5.1092
LJ          0.560706         3.11385        -2.47892
LJ          -2.34166        -6.06674        -3.98647
LJ           3.71472        -4.16241         2.00408
LJ          -2.23227         3.49324         3.15491
LJ          -4.09704       -0.832609          1.1609
LJ           5.82633        0.998515        -5.91741
