108
#Comment!
LJ           3.32588         3.75637         -3.0558
LJ           4.03786        -1.64414       -0.101479
LJ          -2.57341        0.839467         2.13427
LJ          -3.31062         2.24961        -4.90122
LJ          -6.40388         -3.8585         5.45513
LJ          -1.07039         4.41765        0.787946
LJ           1.95572          4.7653         -2.5097
LJ            2.4439         2.18331        -1.12846
LJ          -2.14107        -5.30276        -2.60051
LJ           5.05369         3.19991       0.0733081
LJ           5.11415         1.77566        -4.59629
LJ            5.8872         4.81789        -1.88523
LJ          -6.43229        0.604457        -2.21276
LJ           1.23196         1.54456         4.98131
LJ          0.622608         2.35346         3.51264
LJ           4.84211       -0.510553        -5.24953
LJ           5.96417         2.66977          0.9618
LJ           5.35386         4.54194         4.92121
LJ          -3.82466         3.67455        -4.67137
LJ          -4.44006        -1.57296        -4.15337
LJ          -1.21781        -3.49117         4.12572
LJ          -4.66393        -3.74066        -5.69059
LJ         0.0714933        -1.28584         3.29738
LJ           4.93983         1.32658       -0.717587
LJ           -4.4948         5.47626        -1.86368
LJ            -2.013        -5.18895         1.51594
LJ         -0.952897          4.0831         4.20566
LJ          -2.75782        -3.60212        -0.89864
LJ          -5.45517         4.94442        -3.96443
LJ         -0.804868        -1.83855         3.98558
LJ           4.80924        -4.27253        -2.95882
LJ          -5.06259        0.962386         4.14374
LJ          -2.67326         4.05544        -2.58407
LJ          0.962476         -5.7382         4.11841
LJ         -0.906033        -5.60502        -1.69327
LJ          -1.82354        -5.75838         3.88763
LJ           2.46279          4.6758        0.256271
LJ           1.89929         1.11688         5.82631
LJ           2.92466       -0.826269         5.82561
LJ         -0.905888        0.253816       -0.625066
LJ          -3.75519        -3.84226         -1.6495
LJ          -5.33511        0.110307        -3.31983
LJ           4.10746         4.78834           4.274
LJ          -2.89638        -5.73004        -4.69946
LJ           6.31378         6.31564        0.974629
LJ         -0.426026       -0.287902         6.20061
LJ           2.85698         1.37465         3.61708
LJ           2.01286        -2.20749         2.29685
LJ          0.532464       -0.237177         1.39451
LJ            4.4523        -5.85099        -1.75798
LJ         -0.418492         -5.9858         6.10127
LJ            5.0668         4.69062        -4.40687
LJ          0.631402        -0.32317         -0.7557
LJ          -5.72332         4.72599        -1.05104
LJ         -0.925607        -3.80937        -6.24385
LJ           1.42315        -5.76805         -1.9036
LJ          0.534451          4.5631       -0.364941
LJ          -3.84095         2.86692        -5.53675
LJ            6.3458         5.22401        -3.54294
LJ           2.55925        -2.37151        0.337282
LJ        -0.0688755         5.57643       -0.865442
LJ           4.00261         4.18659         1.11813
LJ            1.4314         -6.3236         -3.3135
LJ          -1.87172         4.69304        -6.02633
LJ           0.42007         6.06711         4.64104
LJ            2.1719        -3.99575        -6.00153
LJ         -0.911767       -0.659439         5.33794
LJ          -6.19769         5.04942        -6.43553
LJ           3.36881        -4.87084        -3.49823
LJ             2.235        -4.60219         4.59666
LJ          -2.76975        -4.37277        -2.25601
LJ          -5.32642         -3.8121         4.94192
LJ           4.58978         6.45308         3.31545
LJ           4.27566         4.51073        -2.70316
LJ           5.41691        -6.24812         -1.2898
LJ          -6.45869         2.19105         3.37284
LJ            3.2076        -3.52052         6.42924
LJ          -2.33094          4.5681         4.73551
LJ           6.21978        -2.38075       -0.352395
LJ           1.53144        -2.36235        -5.99066
LJ           2.63477        -1.52505          3.9858
LJ           5.39821         -1.7092         5.10314
LJ         -0.856055          2.2092        -6.32649
LJ           3.20859        -3.99582          -5.422
LJ         -0.303589         2.42188        -2.71415
LJ          -4.24271        -4.86932         5.71319
LJ          -1.21119          3.4729         3.11109
LJ           4.26214        -5.40957         1.86867
LJ           1.34433       -0.399188         2.03408
LJ           5.02951       -0.961327      -0.0162306
LJ           4.05342       -0.947362         2.50092
LJ          -0.17412         4.02553        -4.89375
LJ          -5.74626       -0.925733        -2.41916
LJ           3.83962         5.66796          3.4246
LJ           -5.7261        -3.45766        -1.90289
LJ          0.681367       -0.866235         4.55133
LJ           1.97595         6.09901         3.47604
LJ          -1.08157         -2.6303         4.72725
LJ          -2.86361       0.0833855         6.26824
LJ          -5.61156        -2.47159        -2.01681
LJ          -6.09006        -6.32383         -1.0283
LJ          -3.10587         -1.8962         6.26696
LJ          -5.67731          2.5224         2.89485
LJ          -2.96059         3.42186         -5.7541
LJ          0.205163         4.63843        -4.18156
LJ          -1.42213          5.9668        -2.11802
LJ           3.38189        -3.58655        0.194379
LJ           1.90119        -4.31442       -0.124772
