108
#Comment!
LJ            2.7496         1.97922         2.95211
LJ           1.00546         1.37429        -4.64965
LJ          -4.78587        -1.35504         4.55572
LJ           2.29076         1.76778          4.4916
LJ          -3.53705         3.83255          3.3605
LJ           1.34053        -1.15789        -4.95708
LJ            4.6111         6.33731        -2.64823
LJ           -4.6405           5.608       -0.731062
LJ           3.88437        0.136765         6.41445
LJ           5.74217        0.806112        -4.44757
LJ          -6.30414         4.00565         5.39463
LJ          -5.16156        -4.24554         6.26403
LJ           -0.8224         5.20924          2.9543
LJ           5.06425         1.64165         4.08504
LJ           5.69082         1.94275        -1.63107
LJ          -4.27482        -2.23491        -3.78801
LJ          -4.10934        -5.98211         4.36266
LJ           4.78433        -4.79769         3.50666
LJ         -0.277393         5.61318        -5.66249
LJ          -1.35446        -6.43337         1.38023
LJ          0.989401         4.54388         1.66793
LJ          -3.20966        0.211713         4.87715
LJ           5.78852         5.22713        -6.08853
LJ           4.36091         5.11132        -2.88646
LJ           1.86039       -0.633528         5.08915
LJ           4.17684           3.478         5.23809
LJ           3.17509        -4.64148        0.153185
LJ          -1.94609         4.10434        -4.08469
LJ           -4.4629        -3.59605       -0.577537
LJ           2.42066        -3.02674          2.0247
LJ           2.63511        -5.74057       -0.861254
LJ           5.89479         4.89799        0.774511
LJ          -2.71235        -3.02944        -4.02721
LJ          -2.04267         4.90762           2.275
LJ           6.24727        -1.04265        -3.64088
LJ          -5.51717         3.21638        -1.59185
LJ          0.525977        -4.54561        0.666621
LJ           3.31009        -2.04558         1.38512
LJ           2.59315         4.86539         5.43985
LJ          -5.41432        -1.00171        -5.32516
LJ          -3.48644         6.06852        -1.50738
LJ          -1.67868         5.91309       -0.500687
LJ          -1.14454        -4.27161         2.24496
LJ            -5.288        -1.73427        -3.60745
LJ          -1.81821         -2.3132          3.7422
LJ           3.93416         4.25864       0.0308233
LJ          -6.27774        -3.12408         2.92423
LJ          -2.58034         2.44152        -2.66326
LJ           1.43361         1.68591          3.6449
LJ          -4.45554        -1.69139        -1.01066
LJ           4.38928        -1.83301         6.43444
LJ          -5.18226         2.52235          1.8194
LJ           1.50114         3.37513        -5.87115
LJ          -0.95971          5.7332        -2.58905
LJ          -5.94277         3.08611         6.44197
LJ           2.48435       -0.713149        -2.73144
LJ          -1.63509        -4.26932        -3.95216
LJ          -3.30802         2.90551         2.92176
LJ            5.2881         -1.9596        0.265459
LJ            -4.756        -5.62213         3.50227
LJ          -5.97249         2.75639         2.95948
LJ          -2.42154        -6.41242        -4.76064
LJ           0.94042         2.04517        -3.00681
LJ         -0.084763        -4.67102         5.49679
LJ           -4.4364        -2.03295        0.400918
LJ          -2.88844        0.357766        -3.87673
LJ          -5.53939        -6.15357        -6.19883
LJ           1.08643         5.39885        -2.23731
LJ          -2.50089        -1.26551         2.40022
LJ         -0.104804        -5.32511        -6.27461
LJ           4.84721        -1.09162         -3.9386
LJ           6.03884         2.81603        -3.89696
LJ          0.606793        -4.75926        -3.38584
LJ         -0.334446        -6.19846         5.84241
LJ           0.48623         2.74532         6.43995
LJ          -3.39666         1.84929       -0.422969
LJ          -2.37462         -4.1119          3.5601
LJ          -1.55964        -6.15975        -5.53321
LJ           3.06052         2.09673        -6.15694
LJ            -3.328         1.24682        -5.78267
LJ           6.27795        -4.21079         3.83416
LJ           1.44206           3.222        -4.82549
LJ          -2.06288        -2.11797        -3.22925
LJ          -3.24581       -0.556343        0.163344
LJ           -3.0678        -3.69474       -0.503957
LJ           1.92316         -4.9479         4.06048
LJ          -5.60516        -1.09624         6.36913
LJ         -0.567097        -1.74988         5.08571
LJ         -0.665926        0.154496        -4.19153
LJ          -4.01795        -4.19068        -5.94542
LJ          -5.32344        -2.44065          1.0963
LJ          0.421791          -3.301         5.01253
LJ          -3.73076        -1.79812         2.26223
LJ          -1.27339        -4.70038         3.18911
LJ         -0.084908        -1.01722         3.90437
LJ           2.81019         3.64365          6.3676
LJ          -5.96497          1.7978        -3.74388
LJ          -2.06563         2.43861         1.58255
LJ           6.10114        -4.20714       -0.118816
LJ           -1.7934         4.09837         4.13392
LJ           2.59852         4.85267        -4.07247
LJ          0.515963         5.22535        -5.08673
LJ          -2.79768        -3.14663        -2.68131
LJ          -1.84636        -3.70208       -0.735386
LJ           5.80502        -1.42349         3.65895
LJ           3.56843         6.37322         6.27004
LJ            5.8304         3.06619          4.6941
LJ          -1.02092      -0.0933107         3.12175
