108
#Comment!
LJ           3.35168         5.11986          5.5876
LJ          -4.21765        -2.22245        -4.63374
LJ         -0.130113          1.9266        -6.44882
LJ           4.48089         5.65834        -5.96548
LJ          -0.77674         3.85789        -4.59891
LJ          -4.57743        -1.50123        0.231716
LJ          -5.65199         5.01508       -0.583942
LJ          -0.92141        -4.65185         1.51178
LJ          0.269771         1.29941         4.37116
LJ           5.67416        -6.37003         2.71786
LJ           4.76452        -5.63174        -4.44272
LJ          0.793717        0.432592        -3.58736
LJ          0.548829        -5.49131         4.27749
LJ          0.443095        -3.02964         1.55023
LJ           4.05021         -3.3716       -0.967208
LJ          -4.29774        -3.43912        -4.99297
LJ          -5.80428          5.7201        0.343837
LJ          -3.92006        -0.57684         5.92451
LJ           4.61914         4.27381        -4.11903
LJ           1.27685      -0.0299404        -5.22671
LJ          -2.48105         3.17419        -3.80986
LJ           2.00292         5.71998         2.85774
LJ           2.49808         3.99115         2.22601
LJ            5.8676          2.9401         2.87721
LJ         -0.772818        -5.25813       -0.548181
LJ          -2.61063         0.56426         6.12358
LJ          -2.66526          5.3885        -4.14154
LJ           2.50358          2.1558        0.563084
LJ          -3.48632         3.79685        0.962242
LJ          -1.49172         3.11205         -4.7255
LJ           3.82031         5.26251        -3.08713
LJ           3.47361        -6.05504         1.06027
LJ          -4.63242          6.3403         1.76929
LJ           3.00407         -2.9713         1.61254
LJ          0.892382         3.20629         4.50069
LJ          -2.41724        -1.79176          1.5452
LJ          -4.58687        0.586585         2.43829
LJ           2.81606        -2.62717         3.63917
LJ            3.9227          2.3477        -5.83124
LJ           1.71305         3.18296        -3.27589
LJ           5.70414         4.21301        -2.10814
LJ          -5.55251      -0.0954844         5.08938
LJ          -2.33219        -4.59748         5.43213
LJ           2.65978         1.97975         5.02431
LJ         -0.621363         5.63778        -5.11854
LJ           3.75276        -3.76033        -4.43327
LJ           4.96347        -3.86651         4.97497
LJ          -3.64817      -0.0595431        -5.94633
LJ         -0.306452        -4.72099         3.51075
LJ           4.81961          6.0616         4.93002
LJ           4.87808        0.634339         -4.0436
LJ           6.17595        -4.32418        -2.63832
LJ          -5.52418         6.22168        -5.11867
LJ           6.21989        -4.16905          4.7311
LJ         -0.335975        -2.04319         2.02871
LJ           5.76527        -3.04112        0.729331
LJ           5.45289        -2.87901         2.20778
LJ           1.39522         6.36639        -3.43651
LJ           1.21728        -3.28201        -4.05773
LJ          -2.17468        -2.17244        -1.75191
LJ           2.43126         4.38523        -4.87033
LJ           3.54644       -0.867647        -5.55779
LJ           -4.4759       -0.219404         1.48176
LJ          -3.06167        -2.33129        -2.26201
LJ           2.88884         3.83798         3.98262
LJ          -2.67206        -5.69162         1.72419
LJ            2.1846        -1.79631         3.41824
LJ           2.22828       -0.644489         5.05723
LJ           5.97609        -2.15701         1.53503
LJ           1.88608         -4.9745        -4.75116
LJ          -2.50501        0.215765         4.39607
LJ          0.392245         5.27082         1.51595
LJ           1.17561         3.47637         5.41336
LJ           -6.2889         3.52477        -1.14111
LJ          -1.51549         1.43583         5.08917
LJ           4.92558        -2.24094        0.963521
LJ          -1.27765        -6.42514         3.11141
LJ         -0.589495        -3.75977        -6.44275
LJ          -5.70971         2.03727        -4.02285
LJ         -0.197529        -2.61543        -4.97599
LJ           3.81584         3.66638        -1.73744
LJ          -3.71188         4.55565          1.8469
LJ          -1.56729        -1.02599       -0.479311
LJ           1.86839         6.28447        -4.26126
LJ           5.98667        -6.42796        -4.58409
LJ           5.50837        -5.43153         2.59199
LJ           -4.4693        -6.43663        -4.90957
LJ          -4.86847         2.04928        -1.37474
LJ          -5.54877         3.52264         4.98542
LJ          -4.36707        -2.98398         2.26992
LJ          -2.52219        -1.49581       -0.543645
LJ           3.31626        -4.68623         0.82197
LJ           1.76416         1.65146          4.3877
LJ           0.34708        -4.98536       -0.201515
LJ           4.21429        -4.35056        0.169205
LJ           5.92409        -1.08673         -3.0659
LJ            3.0484        -4.83796        -3.55864
LJ          -2.70983        -2.94915         5.03881
LJ          -4.60763        -3.15491          -1.483
LJ           1.26933         5.70681        -5.27547
LJ          -4.47556        -6.01013        -3.61491
LJ         -0.315967        0.706752        -3.75228
LJ        0.00704103        -3.29431        0.366525
LJ           3.74559        -1.82048         -2.1712
LJ          -4.68169        -6.11985          6.1037
LJ            5.9592        -2.10922          2.5435
LJ            -4.746         -4.5425         5.97308
LJ           5.81815         3.04319         5.91301
