108
#Comment!
LJ           1.51243         2.35832         1.56351
LJ          -5.57753        -4.45973        -2.87251
LJ          0.121165         1.93545         6.05145
LJ           -6.1193         5.10575        -3.00763
LJ         -0.732343         1.63857        -6.17377
LJ           -5.1978        0.426485         1.61892
LJ           6.33597         4.29569         1.83854
LJ           -1.4544        -3.40709         2.59531
LJ         -0.882414         1.53849         5.28355
LJ           5.67049         4.23006         3.94084
LJ           4.19833        -2.14482        -4.16949
LJ           5.05859         3.68954        0.712904
LJ          -2.81151          5.1211         5.76742
LJ          0.703298         5.58386        -5.98951
LJ           4.09497        -5.75923        -1.45626
LJ          -2.05207        -4.73368        -3.54097
LJ          -3.50401        -6.20483       -0.442712
LJ          -3.29434       -0.214916         5.84375
LJ           3.66533         3.98296        -1.39551
LJ           2.40482       0.0868143         5.88385
LJ         -0.857384         2.42633        -3.55735
LJ           3.13235         4.63361        0.119689
LJ           2.09522         5.39539         3.20475
LJ           -5.5188         4.13986          3.4563
LJ           -1.9569        -3.20529        -2.51173
LJ           6.24553         4.26649         5.76993
LJ          -1.90101         1.23159        -3.31922
LJ           2.23239          1.3068         1.96272
LJ          -3.87743         1.43929        -1.15412
LJ          -3.19079         1.72398        -3.94736
LJ           3.34498         4.19828        -2.40427
LJ           6.01355        -3.94394        -3.05832
LJ           -6.0054         4.84056         1.08409
LJ           2.88268       -0.678097           1.828
LJ           1.52625         6.26179         4.31129
LJ           -3.6074       -0.478855         2.41864
LJ          -3.43499         2.99541         3.11717
LJ           3.49741        -5.66107         5.70581
LJ          -6.36196         1.95008        -5.43936
LJ           3.27066         2.01108       -0.447897
LJ           1.97681        0.216888       -0.393678
LJ          -4.69368       -0.599707        -6.25417
LJ          -4.26075        -5.10501        -5.40501
LJ           3.39206        0.556771         5.59115
LJ          -2.16609        -4.45896         3.09896
LJ           5.21038         5.94889         6.29473
LJ           3.09764        -1.75532        -2.80973
LJ          -1.57938         -3.2328        -3.56447
LJ          -5.42373        -5.18164         1.38852
LJ           4.21574        -3.83052        -5.30214
LJ           5.74986         1.49019        -6.30772
LJ           5.47453        -3.27326        -1.52094
LJ          -3.14445         5.64127         4.47476
LJ          -4.84491          4.0174         1.61327
LJ          0.538617        -1.23039         1.18988
LJ           3.62933        -4.19074        0.227207
LJ           4.00827        -3.11274         1.52093
LJ         -0.216575         1.89753        -4.87179
LJ           2.96031        -5.87896        -2.61566
LJ         -0.839674         1.08089        -4.10823
LJ           2.41806         1.67358        -3.84213
LJ           1.45035       -0.692824        -6.40702
LJ           6.41675        0.556738        -2.98458
LJ          -4.27561        -4.34078       -0.838334
LJ           1.43353         4.26587         2.51352
LJ          -2.82846         5.31544         1.91142
LJ           3.57713       -0.881145         5.07443
LJ          0.966656         0.53428         4.62071
LJ           5.24618        -3.45604         2.01886
LJ           3.37128        -4.52348       -0.720116
LJ           6.32958        -1.80754         4.97774
LJ         -0.168058         4.17015         1.53802
LJ           4.73365         6.45625        -2.57939
LJ          -6.16827       -0.750669         6.13975
LJ          -4.73898          5.2045         3.92437
LJ            4.6639        -3.51547        0.708283
LJ         -0.558303         3.62015          3.2122
LJ         -0.943353        -1.81427         3.80807
LJ           4.92097         1.73765        -5.18459
LJ           3.33708        -2.90064         4.91509
LJ          0.778776          3.7886        -3.70154
LJ          -5.82524        -5.60191        -0.54521
LJ         -0.410181        -1.30263        -2.43375
LJ           2.40728         1.38639        -5.87445
LJ          -3.84955         5.58162         6.11616
LJ           3.01395        -3.70699         3.72198
LJ           -4.0576         5.95789         -5.9403
LJ          -2.04655        -1.72422       -0.830756
LJ           4.33296       -0.176939          6.3955
LJ          -3.88809        -2.33385         2.52518
LJ          -1.42258        -0.67109        0.247012
LJ           3.98899        -4.25208          3.6231
LJ           4.12208          1.1113         5.06258
LJ           2.78254        0.479232        0.826167
LJ           2.22247        -4.36218       -0.347674
LJ           2.99807       -0.223301      -0.0398841
LJ            4.0468        -2.86511        -1.50447
LJ          -3.23544        -4.06523         3.89638
LJ          -4.57353        -4.35168        -3.44238
LJ          -3.38576         3.44466         5.60366
LJ          -6.18226        -5.13874        -1.39955
LJ          -2.45373         1.09628       0.0431097
LJ           0.95577        -2.21074        0.378257
LJ           5.06776        -1.53501        -1.80739
LJ          -5.10794        -5.04071         3.50027
LJ          -6.37729       -0.675794          4.3544
LJ          -4.80649        -5.63377         5.95736
LJ          -5.94856         1.56652         6.30778
