108
#Comment!
LJ          -3.99734         1.28991         6.04795
LJ            3.9278        -5.44197        -1.06545
LJ           3.14302         4.23734        -3.94314
LJ          -2.38609        0.798611        -4.69449
LJ           2.99802         5.35768        -5.96231
LJ          -3.20719        0.758164        -5.74551
LJ          -4.83396         3.40849        -5.28278
LJ           1.53383         4.06797         1.16761
LJ          -5.97081         2.42457        -1.84235
LJ          -5.55863         2.51745         5.09045
LJ           4.38209        -2.05024         6.10954
LJ           6.15159         6.05273         -5.6495
LJ          -2.42543        0.103192        -2.08463
LJ         -0.511678         2.52891        -3.21657
LJ           3.94133        -1.58689        -5.18694
LJ          -4.52586         1.82829         2.12322
LJ          -5.09496       -0.925879         1.18184
LJ         -0.435547         3.13547         1.39074
LJ          -1.44391        -1.07097        -2.46659
LJ            4.0135       -0.116369         5.24335
LJ          -2.27845          4.9304         1.19812
LJ          0.945841         4.97843         3.66636
LJ           3.20132         3.37327        -6.20876
LJ         -0.144818        -6.28426         5.85212
LJ           5.06307         1.92935        -1.44309
LJ          -5.68799      -0.0997411         5.05819
LJ          -3.48434         3.77182         5.42873
LJ          -2.08638         -2.2417        -2.16382
LJ           4.22763         2.70993         5.19875
LJ           1.74607          2.1998         1.50066
LJ           6.27799        -3.59757        -1.56219
LJ           6.30562        -6.19056         2.12663
LJ          -3.13187         5.29552          5.6771
LJ          -1.32926        0.137213         3.76157
LJ           1.96399        -2.86055        -2.35656
LJ           5.49231         1.88568          1.9903
LJ           2.69384        -2.07212         2.73094
LJ           -5.5677        -6.07001        0.334915
LJ            4.7683         5.53261       0.0250939
LJ         -0.706328        -5.45109        -5.21849
LJ         0.0295744         -6.2133        -4.44721
LJ          0.814257        0.620843        -5.42757
LJ           2.63715       -0.981488         1.24954
LJ           1.64707       -0.358012        -6.07971
LJ           4.01939         4.01835         3.88522
LJ          -1.03004         4.09699        -3.83646
LJ           5.58837        -5.28366        0.934656
LJ           1.06459        -4.59691         5.59442
LJ           4.78138         1.92849        -5.42958
LJ           3.24546         3.30383        -4.45468
LJ           3.06017       -0.922891         3.27011
LJ          -6.09112         1.63622         4.30023
LJ          -1.69033         4.01869         2.64073
LJ          0.817607         -1.6357        -4.18501
LJ          -6.19871         5.19633         2.76654
LJ          -2.06335         4.90686         5.93425
LJ          -1.76794          2.8422         6.38053
LJ          -2.65331        0.990616        0.876315
LJ          -6.35139         3.15327         3.81542
LJ          -4.93656        -4.57615        -5.03458
LJ           -1.1513         3.64526        -2.23206
LJ          -3.80276         1.88351        -3.39123
LJ          -3.02086         6.34723        -1.97205
LJ            6.3729         1.45511         2.46441
LJ           5.13979         4.09032         3.36398
LJ          -4.61862         4.41347        -1.70286
LJ          -5.24656         3.25793         2.68774
LJ            5.7549         3.89606         2.50054
LJ         -0.573602        -4.42041         2.89751
LJ           6.17072           2.919         1.99223
LJ          -6.43495        -1.58248         5.26563
LJ          -1.40036         5.40328         2.10291
LJ          -3.65141         2.47087         6.32154
LJ          -5.21397        0.312196         3.20593
LJ          -2.67916        -3.12728        -3.36721
LJ          -3.32732         5.76895        -4.16162
LJ          -4.73793         4.41991         2.03954
LJ           4.70509         4.50141         5.53226
LJ           1.92363        -5.50465        0.341143
LJ         -0.251662         -4.9383          5.4249
LJ           6.23166        -0.78779         1.71494
LJ           4.10916        -1.93764        -3.28128
LJ          -4.98915        -6.15836        -1.16064
LJ          -5.94233        -1.23143        -5.22624
LJ          -2.08178         3.12686        -5.34021
LJ           2.99861         3.33725         5.01615
LJ          -3.95679       -0.806454          2.9065
LJ          -6.40383          2.6023        0.654196
LJ         -0.334105        -5.16226         -3.0229
LJ           4.39886         4.18729        -5.98672
LJ           5.07798         6.01157        -5.38496
LJ           2.53188        -6.45156        -2.38788
LJ           3.70199         5.76262         2.86577
LJ          -2.35897         -1.7947         4.78926
LJ          -3.77021         4.17901         2.46462
LJ           3.93679         4.00257        0.165919
LJ          -4.00228        -6.28133        -3.48551
LJ         -0.909826         3.07539         4.91335
LJ             2.037         6.30355         1.04741
LJ           6.39725       -0.161565       -0.935501
LJ           5.44132         4.47955        -6.00022
LJ           2.71426         3.85219         1.23106
LJ           4.58893         5.93713         3.29147
LJ           2.10826        0.807142         -2.5316
LJ          -3.54983         1.55132         4.38952
LJ         -0.936577        -6.42239         3.13258
LJ          -1.20704        0.776929         2.14375
LJ          -2.05827         5.30763        -3.47435
