108
#Comment!
LJ         -0.619685        -3.39542         4.37831
LJ           2.02492         3.12473        -3.68807
LJ          -1.79864        -2.09328          4.4078
LJ           4.53684        -3.47693         4.18111
LJ           1.04849         4.55705         4.90141
LJ          -5.14331         5.21155        -1.35697
LJ            0.5084        -2.48382         1.80492
LJ           1.17948        0.817375         5.18603
LJ          -2.86127        -4.12288       0.0753558
LJ           5.25268        -2.20334         4.84034
LJ           3.65034        -5.25868         2.73804
LJ          -4.44592         5.65131         1.70401
LJ           4.95874         2.01468         1.98465
LJ          -5.96278        -1.11327        0.922202
LJ          -6.27213         5.24441         1.33682
LJ          -5.92456         3.81042        -6.13672
LJ           2.29007       -0.151124         -5.4955
LJ           4.02413        -5.74856         4.84566
LJ            5.8055         4.10345        -3.87727
LJ           4.85418        -1.76492         2.42974
LJ          0.700856        -5.30944         4.11028
LJ           3.58256        -3.21171          4.9043
LJ          -2.56913        -1.46464        -5.04788
LJ           5.65713         4.66936        0.832697
LJ         -0.873036         2.49413        -1.26497
LJ            1.5875        -2.10865         1.76053
LJ          -1.54689         -3.7512        -1.65484
LJ         -0.963184        -1.46641         6.14985
LJ           5.11753         4.75223         4.96038
LJ           4.44273        -5.68574        -5.50144
LJ          0.929717        -1.70642        -4.65029
LJ          -1.00952         3.62716        -1.01788
LJ           5.13065         2.41146         4.03169
LJ          -2.01439          5.3598         6.09166
LJ          0.719739          2.5771         1.27943
LJ          -3.63211         1.45391          4.4183
LJ          -2.17363         -5.3084        -4.82202
LJ         -0.204439        -5.97866        -1.90104
LJ          -5.47202        0.841887        -5.63398
LJ           1.82939        -2.77796        0.159782
LJ        0.00234503         6.12212        -2.75885
LJ           0.99931        -4.46287        -4.87655
LJ           5.11126       -0.795512        -5.02295
LJ          -5.31149         1.15295        -2.05373
LJ          -2.12363        -5.36418         3.93733
LJ           4.76074        -5.16193         6.28297
LJ          -6.25622         1.44409          4.8281
LJ           5.26654         1.60059         6.44325
LJ          -5.12699        -1.35687         1.63255
LJ         0.0325503        -0.66807        -4.70562
LJ           -3.6692         2.20005        -2.56924
LJ          -5.28524        -2.11234        -2.42232
LJ          -5.70068         4.92204        -5.31011
LJ           4.30038         4.49061        -3.64674
LJ          -2.95886        -3.53794         6.36333
LJ         -0.843998        -4.15782        -5.80684
LJ          -1.34698         5.76394       -0.397603
LJ           3.52091        -6.18423        -5.84158
LJ           3.75031         5.24632         2.96145
LJ           3.83715        -6.28123        -1.63615
LJ           4.69793         3.87182         4.70399
LJ          -3.46987        -2.04547           -6.36
LJ           2.16823         5.22665         4.52985
LJ          -2.79797        -1.62623        -3.64311
LJ          -3.77637        -1.30006         0.56696
LJ           2.37975        -1.52476         -6.1925
LJ          0.362238         6.14096        0.843627
LJ           4.62613        -5.72436       -0.668809
LJ          -6.32826         5.85522        -3.89528
LJ          -2.27267       -0.997581         3.96379
LJ          -1.65738         4.25645        -6.06704
LJ          0.883264        -3.73868         5.11659
LJ          -4.98463         6.25385         1.15456
LJ         0.0804133        -4.05883         4.06419
LJ          0.899181         5.54497        -4.82588
LJ         -0.762083         1.68257        -2.08043
LJ           1.87776        -3.14495        -4.11593
LJ           3.72461        -3.76993         5.63005
LJ           4.88686         6.46078        -1.84878
LJ         0.0104755         4.04566         2.20662
LJ         -0.381917        -6.26371         3.19349
LJ           2.83559        -3.02009        -2.51328
LJ          -5.84433         4.01343         2.03158
LJ           5.48739         4.23995        -1.61547
LJ           5.94678       -0.765258        -3.36653
LJ           -4.8625         4.42094         5.62695
LJ          -4.86988        -2.16192         2.31642
LJ          0.343513         3.07991         5.41039
LJ         -0.149469         4.71791        -2.40979
LJ          0.823306     -0.00915804        -1.41069
LJ          -1.81132        -3.12793         5.18782
LJ          -0.51733         -4.2974         1.78633
LJ           5.14601        0.752539        -5.22694
LJ          -3.35984      -0.0419038         1.30603
LJ          -3.50952         5.71486        -6.25994
LJ           1.30415        -2.75788           5.996
LJ           3.36873         2.01116         6.02524
LJ           4.15057        -4.78736        -4.52634
LJ          -1.18888        -6.12679         6.01739
LJ           4.43757         1.84197        -4.54319
LJ           3.13079        0.242166         4.55418
LJ           4.03555        0.673199         4.24941
LJ           1.50713         1.23801        -1.78917
LJ           -1.9618        -3.05618         1.82022
LJ          -3.79873        -3.98508        0.403407
LJ           5.96103         6.24904        -6.31771
LJ           5.64688        -5.69273        -5.20733
LJ          -2.45206        -5.60683       -0.877229
