108
#Comment!
LJ           4.39594         1.98829          1.7953
LJ           -5.5988         1.75583        -1.15784
LJ          -5.11257        -3.42362         5.78745
LJ           2.64788         5.61121         0.41193
LJ            4.2539        -3.21109        -1.91822
LJ          -4.36452         1.11982        -1.37092
LJ           3.86363          -1.966       0.0738705
LJ           6.01437         2.12852        -3.46497
LJ           2.15886         1.53267         1.31235
LJ           5.07792       -0.419479         3.25894
LJ          -5.81622         4.41859         4.78048
LJ            1.9366         -6.0387        -3.32891
LJ            -3.404        -2.87745          1.6056
LJ          -2.70067        -3.80862         4.61628
LJ           3.83795         2.51677        -0.85904
LJ          -2.63073         2.54243        -1.45923
LJ           4.67721         4.02386        -4.68988
LJ          0.830665        0.676743       -0.947786
LJ         -0.457707         2.72876        0.248988
LJ           -2.3874         5.38214        -4.53126
LJ          -4.95168         4.70042         3.40125
LJ           5.02516        -4.18001        0.154221
LJ          -1.54934        -4.95997        -2.08522
LJ         -0.899721        -3.88976         4.74561
LJ          -4.58362         3.75974        -5.32354
LJ          -3.07135          1.2482          1.2123
LJ           5.97847         5.62193        -2.49075
LJ           1.85554         6.08491         3.10057
LJ           3.92046        -4.00945        0.351059
LJ           0.35276      -0.0885891        -2.07656
LJ           6.17035        -2.16633        -1.64587
LJ          -4.40744        -3.66598        -3.20528
LJ          -2.07421        0.941855         1.98462
LJ           2.42687        -2.60178        -3.38939
LJ          -3.82655        -5.45746         3.61731
LJ           3.20463        0.734021         2.90647
LJ          -1.76177          6.2624         4.65748
LJ          -2.69916        -5.93947         5.89204
LJ           3.26179        -2.56189         5.09409
LJ          -1.53593         3.24971        -2.38535
LJ           2.38995         5.67024         1.70045
LJ          -5.48582        -4.55043        0.673861
LJ          -5.86327         2.26227         3.34582
LJ           4.41059       -0.717812         5.01405
LJ           3.13204        -3.18732        -2.53246
LJ          -3.43716         5.53512       -0.420228
LJ           2.99417        -4.02269         1.01411
LJ          0.378353        -2.91239        -5.97763
LJ        -0.0811826         -1.8686        -6.10133
LJ          0.153828        -2.79956       -0.870253
LJ          -3.86063        -2.16507        0.703131
LJ          -2.21305        -3.31859          3.5864
LJ          0.839556        -5.47733       -0.947638
LJ         -0.953713        -1.23884        -3.36184
LJ        -0.0384924        -5.66976         2.38604
LJ          -1.82347        -1.99723        -6.06636
LJ           4.01002        -3.25574          5.2096
LJ           4.45932        0.558951        -4.26611
LJ         -0.658338        0.857475         -2.1377
LJ           5.96164         3.04248        -4.95331
LJ          -3.96642        -1.16963        0.982687
LJ          0.441511       -0.568858         2.65309
LJ          -5.66405        -3.09927          3.6622
LJ           2.99412          -4.216         2.13944
LJ          -2.55344         2.83222         2.54024
LJ          -1.14512         1.67872         3.74812
LJ           5.07969        -1.59319        0.215031
LJ          -5.80833         2.03246        -3.36537
LJ           4.93313        -5.31026         -1.0541
LJ          -6.15607        0.690333         5.34377
LJ          -3.67076        -2.60603        -1.37357
LJ          0.526082        0.271691        0.432762
LJ           2.28552         1.50169        0.259087
LJ          -5.78938         6.21826         3.25034
LJ          -4.27481         4.00074         4.54936
LJ           5.34884       -0.807486       -0.929878
LJ          -3.78534        -5.40606         1.14314
LJ           6.07803        -0.96332         3.77862
LJ          -4.97073        -4.47204         2.83333
LJ          -3.57506        -4.31321        0.415792
LJ           5.05761         1.41672         3.56161
LJ           6.11959         6.13561         3.76062
LJ           5.73472        -6.29063        -6.25588
LJ          -3.21381        -4.54983        -3.02054
LJ           4.53579         4.93851        -4.45879
LJ          0.775587         -5.6576         5.11449
LJ          -4.50077        0.727507         3.38957
LJ          -5.33177     -0.00689568         2.83174
LJ           3.81944        -1.05911         6.14152
LJ           4.06411        -4.99123         2.94258
LJ           4.86351         5.14658         4.90788
LJ           2.52341        -1.93115         1.98142
LJ            3.3815         1.48491       -0.714799
LJ          -5.03647          2.4499       -0.240994
LJ          -1.98424       -0.580663         3.05413
LJ           2.53935         3.53869         2.02226
LJ          -3.66622        -4.93292         4.67166
LJ           -3.2527         4.55744        -1.05976
LJ          -3.86525         -3.1478        -4.27493
LJ           -1.7547         6.46291        0.428651
LJ           1.09717         1.00694        -3.16064
LJ           4.61991         5.29184         2.38711
LJ          -4.17095        -4.87939       -0.995671
LJ           6.33095         2.79434         6.28516
LJ          -1.18779        -3.83524         3.01284
LJ          -2.62919         5.59498         2.94418
LJ           1.04864        -2.98317        -2.69609
LJ          -3.39204         2.68586         4.79904
