108
#Comment!
LJ            3.9926         4.58392       -0.439446
LJ           2.90467         1.33828         5.82531
LJ           1.12013        -4.60627         1.19399
LJ           2.68414         1.07841          2.2047
LJ          -4.54227        0.476791         3.72131
LJ        -0.0830254        -1.17994         6.33259
LJ           3.01666         5.84246        -3.18624
LJ           6.34648        -6.05808         2.85841
LJ           5.15393         2.26039         4.33431
LJ          -3.09718        -3.02242        -3.70928
LJ           3.80581       -0.924845        -4.55761
LJ          -3.82344         1.40765        -5.70361
LJ          -2.63553        -4.39138         2.39626
LJ          -6.10247         4.42845         4.59276
LJ           2.58882          3.4626        -2.29787
LJ          -4.94489        -1.74211        -2.13473
LJ           5.11152        -5.62442         3.57309
LJ           1.18714         1.25678         1.03351
LJ           1.98542        -4.30304        -3.43059
LJ          -4.16956           3.968          1.8778
LJ         -0.340322        -4.47576        0.417244
LJ          -1.83239         6.21207         6.19068
LJ          -3.82414         2.41238        -3.83082
LJ           2.72847         2.86233        -1.29813
LJ           0.47921        -3.23097         2.18533
LJ           2.77112        -5.29576        -2.44077
LJ          0.432777         4.79824         6.40488
LJ         -0.597229         4.18932        -2.76457
LJ          -5.26811        -5.18577       0.0501756
LJ           -6.4264        -4.60752        0.739276
LJ          -1.35049        -5.50658        -3.24894
LJ           3.65244         4.70287         2.27271
LJ         -0.538171        -1.82278        -1.67689
LJ        -0.0155245        -4.69797         1.77477
LJ          -5.98407         4.77565        -4.19957
LJ           -4.2407        0.860066        -3.27351
LJ         -0.669868         5.22027        -2.78229
LJ           3.45454        -3.71752         2.35974
LJ          -4.31529        -6.34605         1.51073
LJ          -6.11598        -1.85791        -4.26758
LJ           4.15159         2.27268        -1.11021
LJ         -0.421253        -3.24657         3.41994
LJ          -4.37066        -5.61751       0.0617881
LJ           2.89056       -0.452714       -0.339828
LJ          -3.37434        0.709024         3.67954
LJ         -0.947272         6.44682       -0.448031
LJ           4.18074         2.10747        -2.24163
LJ           4.33554         5.51299       -0.304226
LJ          0.573782         4.22534         3.74552
LJ          -4.89529      -0.0125477       -0.890502
LJ           4.47511        -3.35818         2.56598
LJ           2.44593         4.34895         2.03475
LJ          -2.08267         4.35559         4.39446
LJ          -1.25393         5.64796        -3.59053
LJ           1.76181         1.76837         3.78284
LJ           4.20946        -0.41045        -3.16356
LJ          -1.20307         6.04419         5.34533
LJ          -3.30127         4.94473         3.35439
LJ           3.85414        -3.40899         -1.9968
LJ           5.95982        -3.50605         5.03172
LJ          -5.02238        -3.54279        -6.43563
LJ           -2.2451       -0.571677          4.9354
LJ         -0.124007         3.57566        -4.56389
LJ           4.26401        -6.16962        -5.57012
LJ          -4.60893        -4.13746          1.0452
LJ           2.46883         5.18972        -2.68321
LJ         -0.726447        -2.09199        -5.46084
LJ           1.76318        -2.91541         5.99701
LJ          -1.21018       -0.601066        -5.57955
LJ          -1.38352         -4.8638         4.50577
LJ           2.16313         -3.6125        -2.58981
LJ          -4.46425         5.37934        0.468711
LJ           3.59722         1.02124         2.74133
LJ          -1.54442        -6.24422         4.28369
LJ         -0.591062         4.94852         4.79521
LJ          0.866596      -0.0153747        -3.17964
LJ           3.00457       -0.646545         6.13549
LJ         0.0823975        -5.75508        -5.37705
LJ         -0.179236         2.06297         4.80997
LJ          -2.44783         0.42942        -6.42442
LJ           5.98641        -3.08505         2.82748
LJ           1.96889        -6.38507        -3.78677
LJ          -1.39612        -4.08263          -3.926
LJ          -3.80289         5.69256        -2.26911
LJ          -5.29357        -5.57667         6.42116
LJ          -1.60218         -1.5062         1.73575
LJ          -5.39923        -5.10728        -3.75732
LJ           2.67645        -2.04797         2.97839
LJ         -0.430051         2.87511        -2.85469
LJ          -2.42439        -2.17742         4.98314
LJ            -5.557         -4.3289         2.20739
LJ         -0.637477        -3.20603        -6.16222
LJ          -3.99984        -2.63616         2.45235
LJ          -1.65341        -3.87296         3.96085
LJ          -1.54862        -1.77389         4.08811
LJ           5.59416       -0.166041         4.14213
LJ          -3.80107         5.08021       -0.627478
LJ           3.12056         2.39809        -2.47821
LJ           5.36057         5.58929        -2.55438
LJ          -4.86744         6.42987         5.34795
LJ           1.28397       -0.734637         5.75899
LJ          0.769173        0.992065       0.0120594
LJ           0.45347        -1.51943         1.66131
LJ          -0.38009         1.14341         4.03167
LJ          -6.02192        -1.66073         2.51805
LJ          -5.18109         4.75874        -5.29131
LJ           5.92082         4.69698         5.46373
LJ          0.731966        -2.31936          2.7216
