108
#Comment!
LJ           -5.8373         4.50435        0.148046
LJ           2.16235       -0.472311         5.10296
LJ           1.36464         6.06121         4.50667
LJ           3.48707        0.094276         4.55075
LJ           1.21786        -4.06198         0.72202
LJ           1.78477         2.27433         -5.5406
LJ          -2.65606         4.81322       -0.907872
LJ           3.34926        -2.22693         5.49368
LJ          -5.82491        -0.90321       -0.709379
LJ           5.34024        -1.14845        -6.35154
LJ          0.640711        -2.47705        -2.13221
LJ           5.84278         6.29067         1.37846
LJ         -0.862128         2.45375          4.8697
LJ          -4.93694        -4.36661        -5.52164
LJ          0.210256         4.06469        -4.27517
LJ           4.72147         2.19363        -6.23827
LJ          -2.90495        -2.63033         5.13627
LJ           6.27665         -2.8293        -4.99417
LJ            5.5556         5.69948         2.17646
LJ           3.53959        -5.88245         6.03414
LJ           1.38766          2.7953         3.61798
LJ          -4.47486        -4.14922        -4.45705
LJ           5.52971         2.57439         2.36815
LJ         -0.757519        -1.29664        0.677475
LJ          -1.75681         5.38234         5.43647
LJ           -5.7386         5.88965         3.14065
LJ           5.20861         4.14313        -6.07192
LJ          0.237321         1.67243         4.64816
LJ           3.97594        -6.03312         -5.8009
LJ          -5.12979        -5.48442         5.53002
LJ           -5.8357        -2.36208         1.44332
LJ           -6.1387         -4.7789        0.668035
LJ          0.555689         -3.4071         5.33349
LJ           3.19792         5.85451         2.89884
LJ          0.668027        -3.62503        -3.10186
LJ          -0.97095        -5.29802        -4.57248
LJ           1.15755      -0.0867286        -4.64199
LJ           4.35742       -0.526993         3.98649
LJ          0.781517        -5.04566         2.43206
LJ           1.36712        -6.17301         2.28563
LJ          -2.87549        0.934216         1.94563
LJ          -5.19238       -0.772151         3.87851
LJ          -5.82014        -1.02535        -4.70127
LJ           5.28473        -3.02566         2.75123
LJ          -3.55425        -4.86982         6.09962
LJ           5.44715         4.98265          1.1564
LJ           2.52653       -0.574181        -3.89885
LJ         -0.175336        -3.32762         4.50828
LJ           2.21782         2.01201       -0.381898
LJ          0.975435         4.76548         4.19778
LJ         -0.108056        0.217837        0.922425
LJ         -0.467489       -0.711789         2.18359
LJ          -1.49575         6.40386         5.37406
LJ           2.70073        -0.81968         3.38343
LJ         -0.913785          -3.504        -3.19193
LJ          -4.83124        -3.89323          6.0622
LJ           5.17074         4.18514        -4.07959
LJ          -1.40721         3.77378        0.754096
LJ          -2.43041      -0.0313979         6.02105
LJ            2.1651         3.39844         3.85507
LJ        0.00639117        -4.01357         3.03914
LJ          -5.99097         6.23308         -2.0687
LJ           2.07568        -6.01657         -6.0605
LJ           4.47214         3.51832        -2.37917
LJ           1.96413        -4.70504         1.85674
LJ         0.0478908        -4.21857        -6.13661
LJ          -1.24165        -2.45971        -5.21791
LJ          -2.36778        -3.24589         3.13406
LJ          -4.02347       -0.818916         3.49236
LJ          -1.16602         5.64086          4.6164
LJ          -3.93806        -2.04963         5.17622
LJ           -2.6113        -3.65353         1.92862
LJ          -4.55243         3.74786        -5.72262
LJ           1.47584        -1.33179         5.05443
LJ          -5.43873        -1.47376        -5.52988
LJ            1.3774        -6.12515         1.21575
LJ           3.12924        -1.26111        -5.51161
LJ         -0.209761        -6.03299         4.33351
LJ           6.06246         -4.1577        -3.85337
LJ           -4.8452        -2.91135        -5.11817
LJ           4.11618         6.22794        0.200195
LJ          0.755106         5.91483         2.25973
LJ           3.62444         2.46509         2.34137
LJ            -5.174         2.93865        -6.00861
LJ          -5.85472      -0.0721755        -2.41489
LJ           5.98327        -6.07126         3.72482
LJ           4.13007         4.65398         3.68677
LJ          -2.99997         4.54372        -2.39644
LJ           5.66215        -2.96577        -2.20934
LJ          -5.90806         2.56212        -2.86374
LJ           2.36405        -5.66869        -2.41165
LJ           5.03464        0.929806       -0.111518
LJ           5.99693         3.69006        -2.46468
LJ            2.2421        -3.41628        -3.98086
LJ           1.06736        -3.01894        -5.05224
LJ           1.48839         4.14743         1.16234
LJ           -5.6952         5.21643         1.47365
LJ          -4.53225        -1.93253        -5.53835
LJ          -2.56173        -6.13597        -2.57265
LJ           1.47981        -1.63262         1.17615
LJ          -2.28284         4.81045         1.86024
LJ           3.26867        -2.69171          4.2939
LJ          -1.33153        -1.32423        -1.49432
LJ           2.69346        -5.68177         3.15548
LJ           3.60271        -3.89031         4.07117
LJ           5.17938        -4.39339         4.64249
LJ         -0.130514         5.39494       -0.297718
LJ           2.76891        -6.32162        -5.27509
