108
#Comment!
LJ         -0.229956         2.80814        -6.35544
LJ          -5.14265        -5.09709         5.54414
LJ          -6.37997       -0.230242        -2.02825
LJ           2.56988         -3.0417         3.85645
LJ           -3.0978        -1.43491         5.11638
LJ          -4.09667        -5.02015        -2.05992
LJ          -3.76346        -6.04215       -0.862625
LJ           6.03846        -3.53188        -6.23633
LJ          -1.84253        -6.16923        -6.07029
LJ          0.867316        -1.85971       -0.999221
LJ           5.66483         5.12182        -6.16206
LJ           1.10523       -0.467556        -6.13732
LJ           4.75775         4.67135        -1.56995
LJ          -0.67737        -4.72613         5.50136
LJ         0.0791984        -3.18808         5.72461
LJ          -4.97277         1.09334         -5.0645
LJ           3.59352          2.0766         4.89042
LJ           3.07027         2.77056         -5.4714
LJ          -4.26299        -4.67252         5.68835
LJ         0.0318915         5.48823        -3.18018
LJ           4.47303        0.597394        -6.27458
LJ          -5.19731         1.51142        -6.16775
LJ           3.18224         5.90578        -3.75937
LJ           1.37546         4.15168         1.61172
LJ         -0.749837         6.00819         3.65465
LJ           5.19018         1.81286        0.871244
LJ          -2.04081        0.975016        -5.37965
LJ           1.96585        -2.76711        -6.41887
LJ         -0.182762        -5.58242           5.088
LJ          0.974745         5.04135        -2.46994
LJ           5.32626        -4.69454        -1.10734
LJ           5.44369        -6.04304         3.41009
LJ           1.50547        -5.25922           2.412
LJ          -3.54003         5.48261        -5.26912
LJ           5.65296       -0.123723        -1.31739
LJ          -2.21391        -1.96584        -4.24399
LJ          -1.31293        -2.74996        -0.37685
LJ          -1.36453         3.85751        -5.29751
LJ          -4.25049        -1.47493         1.45972
LJ          0.262432        -2.48218        -5.97672
LJ          -3.79703         -5.6968         2.57188
LJ          -5.11734        -5.88765        -6.31929
LJ          -1.35862         5.49937       -0.122793
LJ           5.22807         5.47244         4.63245
LJ          -3.43684        -5.62163        -2.45181
LJ         -0.420946          5.9132         1.20852
LJ           5.22834        -3.55216        -4.37241
LJ           5.00237        0.195029        -2.37272
LJ           6.30471         5.85489         5.41392
LJ         -0.884358        0.371906        -5.06605
LJ           1.53882        -4.02054         2.69522
LJ          -4.80698         5.53064        -5.89608
LJ          -5.80323        -2.48558         5.16908
LJ          -2.54211     -0.00301918        -5.11857
LJ          -2.97004         2.19457        -5.84251
LJ           4.18901         5.57568        -3.24783
LJ          -3.71417        -1.56599         6.25276
LJ          -2.68405        -3.21591         6.37814
LJ          0.551127         1.02515        -5.10545
LJ           5.94994          4.9302         1.20039
LJ          -3.23085         0.83414         -6.1574
LJ           5.66386        -4.62311         1.99193
LJ        -0.0811987         5.30154        0.236507
LJ            1.4268        -2.91745        -4.80118
LJ           5.78557        -0.73762        -3.82743
LJ          0.730998         3.80518         2.58183
LJ          -5.39321        0.352274         1.59397
LJ          -2.97524         3.22724         1.08603
LJ         0.0223001        -4.87945        -5.47372
LJ          -1.98032         2.27038        -4.40942
LJ           0.49463       -0.750776         4.36016
LJ           6.05891        -6.32507        -2.68767
LJ           5.09819         5.32829        -3.83799
LJ          -1.15001        -6.11888         1.60607
LJ           3.10496         3.89114         3.97799
LJ           5.72849         1.16577         2.55992
LJ          -1.37948        -4.83079         6.28137
LJ           -4.6682        -5.07205        -4.99918
LJ          -2.16045        -3.24453        0.595369
LJ          -5.23826          1.5997       -0.927266
LJ            3.0321        -2.73818         1.61682
LJ          -5.29463       -0.868812        -1.95732
LJ          -1.74311          5.4033         2.85213
LJ          -3.54085      -0.0644201         -5.7162
LJ           1.53475        -1.13054        -2.23923
LJ          0.843815       -0.130719         1.21052
LJ           3.54638         3.59045         2.41734
LJ         -0.449504       -0.415879         1.10031
LJ          -4.89289         5.05146         1.21651
LJ         -0.253238          3.2357         2.29477
LJ           3.59456        -4.56416        -1.63633
LJ           1.81451       -0.403502         5.70851
LJ        -0.0453725        -4.64407        -1.07189
LJ           6.38716        -3.71447         -1.2205
LJ          -3.15046         2.36788         1.60138
LJ            6.2997        -1.23771         4.13175
LJ            3.1958         2.69137       -0.523195
LJ          0.669966       -0.908536        -2.61687
LJ           3.74845        0.185894         1.53614
LJ         -0.277855        0.650655         2.99104
LJ          -4.39271       -0.328038        -6.20956
LJ           1.36589         5.87312         -4.3034
LJ         0.0147038         5.12161          2.8373
LJ           1.68187       -0.391525         1.94968
LJ           4.84135        0.138386        0.233471
LJ          -5.22337        -2.85088         6.15688
LJ           -2.5238        -4.33847        -4.89287
LJ           2.87259         -2.1885        -3.38582
