108
#Comment!
LJ           1.76159         5.39821        -4.47713
LJ          -4.17261         5.02777        0.743105
LJ            3.8039         5.97772        -3.08261
LJ          -3.21987       -0.486994       -0.751574
LJ          -6.43208         -4.9944         3.97982
LJ          -4.88857        -3.53627         4.84121
LJ          -4.74738        -2.56652        -3.99045
LJ         -0.453494        -4.51666         4.65297
LJ           4.21897         3.51755          -3.799
LJ           3.15404        -2.11635         6.10919
LJ            5.4368         1.57556         6.42067
LJ           2.67458         6.39245         5.69937
LJ          -3.13346         -1.7722        -2.50072
LJ          -0.86565         5.29896        0.899526
LJ          0.195596        0.575501         4.72211
LJ          -0.19363        0.527803        -5.19718
LJ          0.434115        -5.57782         4.01737
LJ           4.28942        -1.89569        -5.10402
LJ          -2.67871        -4.47957         0.97265
LJ           1.34222        -2.07034         1.82451
LJ           5.42076         6.20056        -2.27886
LJ          0.407834         1.65735        -6.37407
LJ           2.76829       -0.461558        -5.05421
LJ          -1.54418       -0.533542        -3.10217
LJ          -4.34637        -3.05944         1.60201
LJ           3.94229        0.131907        0.525392
LJ           -5.5205         4.60134        -5.05111
LJ           5.12308        0.491119       -0.100334
LJ           1.52902         1.09281           2.215
LJ         -0.836412         3.77511         1.66961
LJ           4.55723        0.983779          6.0268
LJ          -1.14418         5.14815        -6.35281
LJ          -2.37029         5.37723         2.77226
LJ         0.0710876        -4.22017        -6.24907
LJ          -2.13003         5.08583       -0.702713
LJ          -4.35724        -3.23573        -1.41731
LJ          0.112973        -1.25914          4.0405
LJ           4.86371        -2.60291         2.01684
LJ         -0.742823         4.27911        -1.79938
LJ          -4.98407         3.08654         5.04066
LJ          -2.24489         3.36176          5.5065
LJ          -4.92497         5.69996         1.41772
LJ           6.41438         4.00739        -5.00934
LJ           4.90598         5.99302        -1.01413
LJ           5.61614         2.86977        0.381422
LJ          -2.77043        -3.87951         3.97963
LJ          -3.19858         6.24569         5.02878
LJ          -1.00248         5.13149        -2.24272
LJ         -0.479932       -0.514279         2.55612
LJ          -5.49307        -4.33727       -0.576142
LJ           4.35009        -4.58773         1.15835
LJ          -3.86922        0.103575        -5.15074
LJ          -2.41867        0.992269        -2.39476
LJ          -3.82559         2.63499         3.34472
LJ          -6.14858        -2.80627       -0.353009
LJ          -4.95187        -4.31303         6.43718
LJ            5.9245        -2.85768        -3.36998
LJ           1.24639         4.99627        -1.30283
LJ          -5.76617        -5.50622         2.25934
LJ          -1.59607        -0.78263         2.50721
LJ          -1.84757         6.07416         1.16871
LJ          -6.23893        -3.22845         2.56213
LJ           4.73413         4.63183         -4.9398
LJ          -2.07282        -5.67693        -5.73206
LJ            5.6909         1.20047        0.800245
LJ          -3.53241          1.2989        -3.07121
LJ           4.60849         -4.5741       -0.202458
LJ          -4.95743        -6.37533         5.50447
LJ          -1.66055         -4.8971         5.11705
LJ           2.50876        -1.84232        -5.30278
LJ            5.0584        -5.57301         -4.9507
LJ           3.46701        -4.88134        -2.61858
LJ          -6.18401         5.43002        -1.22135
LJ          -5.54218         3.77504        -2.69456
LJ         -0.929297        -6.40906        -3.72673
LJ          -0.03229         1.49271        0.650047
LJ           6.41862          2.3807       -0.455253
LJ          -1.52171         3.21697        -1.39015
LJ           1.58536        -3.78451       -0.945849
LJ          -2.43278        -5.81646       -0.824162
LJ          -3.37089        -5.12102        -5.17842
LJ            4.7556        -0.42952         3.40943
LJ           1.97328        0.332194          6.4135
LJ          -2.47659         5.30459         4.75379
LJ          -1.05878        -4.55033       -0.850601
LJ          -1.13946        -4.08974         3.84099
LJ          -5.67092         5.22962       -0.403111
LJ          -2.44546         2.62634        0.595694
LJ          -4.45182         3.86234        -3.36307
LJ            -2.603         3.38389       -0.247978
LJ           5.86677          5.2147        -2.45449
LJ          0.766477         5.40034          2.4052
LJ           5.85716          4.2308          2.6864
LJ           3.00907          1.2956         4.70069
LJ          -4.68189         2.56265        -2.18014
LJ           3.53829         5.14918         4.56905
LJ           1.25798        -1.81377        -5.70322
LJ           3.30568         5.78272        -1.73401
LJ           3.30395         5.03419        -3.55201
LJ           5.88211        -4.16735       -0.796307
LJ          -3.00713         4.22495         5.26367
LJ           6.20383      -0.0408328       -0.445882
LJ           2.11279         6.27484       -0.829666
LJ          -5.89462        -1.83621         3.01842
LJ          -3.07952       -0.724076          3.4359
LJ           5.21616        -3.52222         2.24598
LJ          -3.32559        -1.88133         2.22492
LJ           2.99731        -1.73693         -3.1953
