108
#Comment!
LJ           4.84231         6.36026         5.38774
LJ          -4.42338         2.35135         4.87635
LJ          0.320293        -1.16473        -2.41336
LJ          -2.29174        -5.77843        -1.21469
LJ           2.68213         4.84673        -2.75243
LJ          -1.57603        0.805938        -3.31821
LJ         -0.858682         -4.9596        -1.97784
LJ          0.521884        -5.06067         5.23346
LJ           2.11817        -5.14736        -5.99778
LJ          -2.67216        -2.05223         5.48891
LJ           4.63097        -1.14306        -6.46087
LJ          -5.19718        -4.46082         3.61453
LJ           3.19132          1.1038        0.421024
LJ           4.55624         -6.3344        -4.70688
LJ          -4.97037         1.21123       -0.562677
LJ           2.49796          4.0368         2.34325
LJ          -3.29637          3.0951         5.50495
LJ           4.00296         1.39898        -1.08642
LJ            -5.405        -4.61587        -4.99725
LJ          -2.95306        0.016477        -3.18932
LJ          0.344821        0.352029         2.19518
LJ          -6.06754        -1.30104         3.43602
LJ           3.74821         4.63139         1.96541
LJ          -4.45884         3.11234        -4.37262
LJ          0.786599         3.85049        -1.03767
LJ           4.67695        -3.40496      -0.0137124
LJ           4.90048        -4.46833         5.98956
LJ          0.944842        -5.54258        -1.04668
LJ           1.66165         2.26046           -4.99
LJ          0.548247          5.4173        -3.95546
LJ            5.0979       -0.405283         4.90906
LJ          -5.08155         3.61762       -0.820942
LJ         -0.801053         5.99696        -3.70936
LJ          -1.19681        -3.74617        -3.80837
LJ          -1.00643        -5.93338        -5.88386
LJ           5.98781        -3.12846        -3.47762
LJ           1.74202         5.10806          3.8162
LJ         -0.939709        0.702178        0.928837
LJ           0.45926        -5.58576           -3.09
LJ          -6.45036        -6.08686         3.19176
LJ           5.77725        -2.40794        -2.63487
LJ           -5.8397       -0.842205       -0.127599
LJ           5.11563        0.894717         3.32469
LJ          0.904043         2.22794         1.37425
LJ          -5.39869         5.70443        0.179834
LJ          -4.12744        -4.02026        -1.87453
LJ          -3.10781        -2.21763        0.466578
LJ         0.0939473        -4.41746       -0.493391
LJ         -0.359986         -6.3683         5.92736
LJ           0.96985        -2.49799        -2.43476
LJ          0.921065         3.52452        -4.02045
LJ          -4.22748        -5.09195         3.33433
LJ           6.45908        -4.29771         3.41026
LJ           0.68549        -5.95398          4.7364
LJ          -2.37007         1.50268         4.13597
LJ           1.96778         -4.4006         6.11037
LJ          0.532937        -3.03824       -0.275572
LJ          -4.58281        -2.28941         4.88201
LJ            3.3667        -3.14789          -3.346
LJ          -4.29288       -0.549443       0.0997702
LJ           3.23226         6.20059        -5.02239
LJ            4.5622        -3.87693        -3.41151
LJ          -1.00441        -4.18723       0.0605925
LJ          -1.05893         3.54874        -1.52342
LJ           1.59579         2.50351        -5.91987
LJ         -0.953783       -0.775186         4.58125
LJ          0.789406         3.29463         3.03682
LJ          0.110233         2.26898        -5.82133
LJ          -4.63362         2.31805       -0.266368
LJ           6.11845         1.75186        0.216877
LJ          -4.24544         5.73555        0.701758
LJ           6.39756         5.93134         1.73637
LJ           3.72778        -5.89929         5.43419
LJ           4.20421         -2.4658        -5.59446
LJ          -2.51127        -4.33057        -5.38538
LJ          -3.87226        -2.89924        -5.45827
LJ          0.529882         4.13782           3.368
LJ          -3.86581         -1.4099          1.4105
LJ         -0.805209         5.91267         4.99958
LJ          -2.19205         6.43314         3.95052
LJ          -4.80279         1.42173         3.34064
LJ        -0.0995363       -0.947844          3.1075
LJ            2.4826         2.65389         1.10037
LJ          -3.76525        -3.85974         4.46159
LJ           3.20004        0.189684         2.59244
LJ           5.43217        -4.91606        0.469913
LJ          -1.81113         5.00711        0.578537
LJ          -4.33978         0.73653        -2.93385
LJ         -0.805141        -2.41058        -4.98488
LJ           3.50419         2.03639        -4.68824
LJ          -2.32768        -4.01806        -1.77781
LJ            5.6288        -3.48679         5.18491
LJ          -2.60699         5.58887         6.43165
LJ           3.43516        -5.72455        -4.72227
LJ           2.64838       -0.722265         2.72192
LJ           3.05129         6.23747         3.67219
LJ          -5.58329        -2.06628        0.895178
LJ         -0.865796         2.87601          2.7114
LJ           2.16339         3.94002         5.45305
LJ          0.367353         5.90065        -6.37255
LJ           -2.1735        -1.27942        -3.41659
LJ           4.91972        -3.55214        -6.13032
LJ          -5.87753         2.71404        -2.79475
LJ           5.36742        -6.04571          2.3024
LJ          -3.85132          3.9482        -3.34648
LJ           2.32751         2.36162       -0.784984
LJ           2.92803        -4.09207         -3.0366
LJ          -4.95982        -2.10168        -2.54348
