108
#Comment!
LJ           5.89624         5.17794       0.0201072
LJ           5.63185         5.61872         3.47192
LJ           -1.4112        -1.65995         4.86078
LJ          -1.68567        -5.25451         3.87839
LJ           1.46485        -3.03756        -1.23727
LJ          -3.52424        -5.63756         3.65571
LJ         -0.783437        -4.32228         6.20535
LJ           5.96452        -4.13629        -6.36122
LJ           1.50958         3.45966        0.210518
LJ           3.93612          6.2063        0.099298
LJ           4.62099         1.06195         3.21509
LJ          -3.82638        -6.20444         2.47214
LJ          0.996432         3.17568         4.72161
LJ          -3.77757        -4.97834         2.28381
LJ           6.21534         5.83914         -5.9998
LJ         0.0907548         2.33035          2.3963
LJ          0.482835         5.86307        0.957531
LJ          -3.72046         5.82027        -2.10317
LJ          -5.54706        -2.76642        -5.67684
LJ           4.96438         6.04897        -4.44933
LJ          -1.24797         3.86093        0.464558
LJ           4.53145        -6.01326         2.80306
LJ          -5.57579        0.150684       -0.973041
LJ         0.0793627         6.38204         2.01091
LJ          -5.52164         5.90229         6.04983
LJ          -1.47792         4.63694         4.22001
LJ           2.65916        0.703994        -5.38279
LJ           4.17939         1.80655       -0.986904
LJ           1.83893        -1.75699         2.54512
LJ           2.99404         3.06607        -3.02902
LJ          0.947245        -1.48905        -2.10707
LJ          -4.23976         2.15265        -1.44875
LJ         -0.894518      -0.0727386         3.89469
LJ          0.268556         4.36752         1.10403
LJ           1.46649        -2.43382        -2.11911
LJ          -4.04546       -0.289305         6.13885
LJ           2.83433         5.26626         2.36647
LJ          -1.19089        -1.61594        0.341816
LJ          0.709653         1.90475         5.44471
LJ           5.30376         -6.0473         -5.5897
LJ          -3.68219         6.12143        0.228193
LJ           4.74549        -2.23626         2.08254
LJ          -3.88811        -5.29851        -4.00858
LJ           5.05467         1.75784         1.97364
LJ          -6.36005        -5.51854       -0.153162
LJ          -2.68029         2.22379          1.9555
LJ           -4.4405         6.45685        -0.43329
LJ           5.51969          1.8364         2.99795
LJ           4.05118         3.53272         1.79268
LJ           5.93559          4.9233          2.3273
LJ          -5.02932         3.80159         2.52113
LJ           1.15511        -4.84694         2.77492
LJ          -4.42601        -2.02706         4.53942
LJ           5.19461       -0.019469         2.82503
LJ           5.06696         6.12558         2.43477
LJ          -5.06513         2.04123         4.02938
LJ           2.35817       -0.779096         5.58779
LJ           5.84841        -4.80041       -0.497368
LJ          0.956406        -1.80065          1.4901
LJ           2.25174         4.58393         1.39865
LJ           2.76618        -4.78269        -4.74424
LJ          -1.87452        -5.71995         4.80907
LJ           3.12092        -2.43788        -1.69902
LJ          -4.77551         3.89819         1.53182
LJ           1.93744        -3.22533         5.86187
LJ          0.516829        -2.88492         5.46696
LJ          -4.19463       -0.269885         -1.9434
LJ          -3.60758        -3.83909        -5.97649
LJ           6.42051        -2.06946        -5.43286
LJ          0.655384        -4.39377        0.888596
LJ           -5.2381         -4.9347          1.1215
LJ          -6.04543         1.48989        -2.88192
LJ           -6.3258         5.67546       -0.808643
LJ           1.18595         3.25723         3.65768
LJ           3.22205        -1.77872         4.08504
LJ           1.82397       -0.391137        -1.39771
LJ           5.37096         1.42861        -4.59175
LJ          -1.25845         2.86469        -3.19951
LJ          -1.91962        -6.22975         -6.1831
LJ          -5.46966          5.9463        -1.23358
LJ            4.6484        -3.56231        -0.43375
LJ         -0.644089        0.712519        -1.46348
LJ         -0.768593         5.02644         6.20372
LJ          -5.23698        0.964818         2.75356
LJ           5.69296       -0.892127         4.43176
LJ         -0.441243        -2.78305         3.32729
LJ           4.46731         2.70808         1.16054
LJ           1.72791         1.51021        0.672676
LJ            6.1166         2.68866         4.47961
LJ          0.334611         -1.1904        -3.61677
LJ         -0.648461         3.64004         5.84836
LJ            3.7825         4.03362        -2.49383
LJ         -0.601505         1.11501        -4.73228
LJ          -5.85812         2.12401         1.06333
LJ           2.40162         4.56244        -4.78731
LJ           1.17878        -6.27268        -5.03937
LJ           3.91993         3.79816        0.765039
LJ           5.43118        -2.24951         6.35699
LJ           1.12149        -1.49507       0.0364373
LJ           2.38463         2.41718        -3.63714
LJ           4.56801         2.16166         5.14216
LJ          0.136334        -3.28514         2.33259
LJ          -2.40792         4.68582        -3.14732
LJ           2.32421       -0.401554         1.79205
LJ            5.3835        0.548808         1.60804
LJ           6.11468         3.58395          6.0772
LJ          -6.03802         3.38955        -1.25082
LJ          0.751527        -3.27024        -3.18452
