108
#Comment!
LJ          -4.06264         -5.1219        -4.90508
LJ          -4.85954         4.41202         5.31944
LJ           3.17857         3.74376        0.326679
LJ          -4.94734        -6.41725         -2.4903
LJ           2.79836        -0.65627         3.01708
LJ           -4.1417        -4.35739          2.0426
LJ          0.206515         5.61747         2.18414
LJ           4.65683           5.936         -2.8669
LJ           2.89263         1.87205        -6.37685
LJ          -4.35082        0.543301         3.76499
LJ           3.36557        -2.93444         2.61333
LJ          -4.41922         5.03738        -3.81285
LJ          0.797119        -5.95326          1.4864
LJ           -4.4684         4.03211         0.71022
LJ            3.7816        -1.70533        -1.22193
LJ          -5.20421        -5.42827        -2.26659
LJ          -6.09724      -0.0335846         1.87138
LJ           1.68387        0.270523        -2.33444
LJ          0.652904         1.16871        -3.11861
LJ          -5.05969        -2.46374        -2.29275
LJ           4.31148         3.83786        -5.17284
LJ           1.46142         6.02396        -1.82299
LJ           1.37319        -3.24129       -0.314161
LJ          -5.95397         4.81937        -5.80796
LJ           3.12644        -1.40828         3.60593
LJ           2.49098         2.49613        -4.94273
LJ          -5.37696       -0.144362        0.242498
LJ          -3.90508         1.36414         4.52046
LJ           2.25903         3.46798        -1.69573
LJ           -3.3222       0.0149553        -2.26413
LJ           3.90744        -1.84212         2.96785
LJ           1.88021         1.33749         4.79937
LJ           -3.5668          1.7742        -1.77692
LJ          -3.41517         3.67491         4.80421
LJ         -0.714602         6.44921         1.43428
LJ            -3.024         1.07651         3.60197
LJ           5.97277         -1.9005        -6.03182
LJ           1.63525         1.68144        0.237102
LJ          -1.97913         -1.1817         6.04817
LJ          -3.46381         5.91805        0.374971
LJ          -1.06806        -5.84297      -0.0836772
LJ          -0.58703         3.03267         4.67173
LJ          -1.59976        -6.15549        -3.15246
LJ          -2.89003        -3.99057        -1.01359
LJ          -5.93133        -5.46652        -5.52894
LJ           -5.5682       -0.474046        -3.41723
LJ          -1.23551        -0.83846        -1.06946
LJ           1.46237         2.57212         3.94103
LJ           3.53644         1.74746       -0.718117
LJ           -4.0256      -0.0193967        -1.39905
LJ          -5.55599         4.23818        0.956087
LJ         -0.685143         6.31646         3.99566
LJ          -3.55168        -6.42714       -0.367972
LJ          -5.21324         2.64687        -5.02889
LJ           6.00825        -2.52762        -3.85815
LJ           6.18625         5.65283        -2.61603
LJ          -5.98948        -3.15871        0.491101
LJ          -1.67777        -3.45363        -2.74667
LJ          -6.32893         -2.9821        -3.02341
LJ            0.2877        0.635684           3.177
LJ          -6.04265        -6.07939        -2.46611
LJ          -2.51542         -4.4927        0.672547
LJ        -0.0150538        -1.62941        -2.85654
LJ          -1.27857         1.58452         2.49288
LJ           2.30817        -3.40317         4.79787
LJ         -0.365365        -3.91593         -2.7611
LJ           3.01436         1.00168        -2.87711
LJ          -1.18067        0.243983         5.66181
LJ         -0.147714        -4.19981         5.70865
LJ         0.0999188         4.68094         3.93988
LJ            1.0559        -3.72637        -1.10214
LJ           2.35642        -2.83248        -4.61209
LJ          -2.05238        -5.00609        -3.18514
LJ           1.66264         2.90292        -6.20681
LJ           3.53753        0.950273         6.29503
LJ            2.2431        -3.97883        -1.68158
LJ           1.36547         1.57977        -1.73933
LJ          -5.38282        -4.88512         5.41223
LJ          -6.03059        -6.42391          4.2096
LJ          0.922288        0.309459        -5.24657
LJ          -1.35821        -1.85548         -1.9085
LJ           -6.3623        -5.64575         5.04849
LJ           1.89957         4.19432        -2.59277
LJ          -5.10151         4.82711        -1.14041
LJ           2.50037        0.742033         3.97018
LJ          -2.11575        -2.31626         1.07511
LJ          -3.69877        -4.12383        -5.56302
LJ           -5.2052         1.60105        -1.66002
LJ          -5.40659        -4.56454         6.45367
LJ           1.38055        0.645926         3.26545
LJ           1.76123        -2.46752        -1.28008
LJ          -3.03626        -5.80606         -4.5434
LJ          -5.32259         2.46811         2.54716
LJ          -3.64146        -2.31561           4.161
LJ           5.86577         6.38168        -3.90227
LJ          -5.09871        -2.59295         3.48724
LJ           5.37394        -6.10894         5.37285
LJ           4.88903        -4.85774       -0.314967
LJ           1.80995        -2.27775         4.96122
LJ          -1.84149         6.18296         3.74295
LJ           2.58313        0.204527         6.33891
LJ           4.07377        -6.07915         3.59151
LJ            4.8648        -4.70453         3.55486
LJ          0.548217         1.62137         1.47349
LJ           2.66885         5.81831        -2.47545
LJ           6.29691        -1.12798          -4.723
LJ           -1.7002         2.80458         1.71078
LJ           4.43165         3.37152         1.31106
