108
#Comment!
LJ           1.43707        -4.15443        -5.11359
LJ          -5.84174         -3.5129         5.80775
LJ        0.00289412         5.80753        -2.86714
LJ          -1.66093         6.39628        -4.12603
LJ          -3.02989        -2.18463         -3.9396
LJ           -2.7933         5.93133        -4.55419
LJ          0.230063          4.8797          5.4586
LJ           1.62406        0.193887        0.210779
LJ           2.20568        0.543471        -5.05636
LJ           2.98477         5.67906        -1.32327
LJ          -5.51584         3.03145        0.299694
LJ           4.91583        -3.37129        -1.49066
LJ          -4.39293        -4.07723        0.911039
LJ          -1.07328        -4.02327        0.476367
LJ          -1.01496        -5.62447        0.693623
LJ           2.14304          3.9406        -1.86274
LJ         -0.268016         1.70814         2.86389
LJ           3.77216         1.12373         1.83676
LJ            3.9782        -5.87598        -5.67189
LJ          -2.01608        -1.78611         -3.4807
LJ          -1.27865         4.05159        -5.10269
LJ           4.45887        -3.84439         3.94578
LJ          -3.79127         3.50131         2.37364
LJ          -1.85583       -0.216549        -0.40061
LJ           5.37736         3.96861         4.71443
LJ           1.81685         -3.8908       -0.695696
LJ          -3.42933         1.38002         4.10627
LJ           -1.4141       0.0333606        -3.24109
LJ         -0.403559       -0.721424       -0.660858
LJ            4.1637         3.31648        0.508846
LJ            4.1326          2.4429        -4.70502
LJ          -2.28697        -2.84817        -3.36277
LJ          -1.10818        -6.06079        -1.72684
LJ          -3.03713        -4.72457        -1.12002
LJ           2.63513        -1.18878         4.58671
LJ          -1.46841        -4.85572       -0.544064
LJ         -0.738587        -5.73374         4.12758
LJ           2.57016         -6.0599         -1.7806
LJ          -2.30479        0.845338        0.236724
LJ           5.85532         2.49162         2.40155
LJ            1.9763         1.24481         -3.7354
LJ           5.71635        -5.40322        -2.46701
LJ           5.25365        -6.14418        -6.20621
LJ          -1.59445        -4.11849        -3.49179
LJ          -1.52331        -5.19068         2.32946
LJ          -2.42479         2.21566         2.39208
LJ           6.28661        -5.01144         4.64911
LJ          -3.76796         5.38288         1.16256
LJ          -4.67854         4.34358       -0.794386
LJ          -5.11251         2.50974         1.88173
LJ          0.411101        -4.04854         5.50652
LJ          -4.30554         2.30919         2.67056
LJ          -2.74309         1.81908         5.45768
LJ           -1.4411        0.320151        -4.20488
LJ          -2.56515         -6.4117        -3.13779
LJ          -4.48776         5.19918         5.58573
LJ            3.5947        -2.72668         4.25489
LJ           5.67045         5.88509         -3.5195
LJ           2.59384        -1.98598        0.989434
LJ         0.0174619         -5.5787         5.00732
LJ          -1.36103        -3.99075        -2.35786
LJ           4.76243         3.93122        -5.96279
LJ           3.78547         6.45335         -2.3601
LJ          -3.70779         4.51028        -1.25932
LJ           4.39096        0.746285         2.96813
LJ          -5.87379        -4.41111         4.49808
LJ          -6.24075        0.389146         5.04909
LJ           6.35609         4.86503        -2.62095
LJ          -4.48889        -5.92764        -6.26087
LJ          -4.68234        -5.26974         -2.1458
LJ           4.14639        -1.43557        -3.22334
LJ         -0.509958        -4.76352        -1.05583
LJ            1.6495        -1.97881        -3.52811
LJ           4.26185         5.98495        -1.28681
LJ           5.72786        -4.35844        -2.33279
LJ           4.65749        -5.69484         0.11121
LJ           3.72747        -5.82867         3.45013
LJ          -3.16592        -3.14269       -0.979424
LJ          -5.97836        0.150375        -3.94163
LJ           6.15072         2.85941         -4.1186
LJ          0.934346        -2.19552        -5.96256
LJ          -2.87936         4.67795         -1.8525
LJ          -5.79311         3.80631         2.10642
LJ          -2.86979         1.12401        -1.45091
LJ           -5.9069         3.79422         -3.2182
LJ           5.60437        -5.16953         -1.2176
LJ          -1.62756        -1.35356       -0.807141
LJ          -3.02351         1.56464         6.44538
LJ          -4.02701         1.22412        -1.19686
LJ          -6.01012         5.06912        0.087154
LJ           2.29926         3.65146         2.11208
LJ           4.09019        -4.97632         3.74361
LJ           2.33899        -4.17652        -2.99969
LJ          -1.84285        0.483799         2.65157
LJ           5.78755        -1.01013        -4.38404
LJ         -0.271497         1.78062        -3.53943
LJ          -4.85876         6.12723         4.92656
LJ          -2.62589        -4.44413         3.25849
LJ           2.48257        -5.40675         6.00049
LJ           4.25323         1.08412        -4.66005
LJ           3.64077        -4.25493        -1.72655
LJ          -5.18864        -1.59159        -4.65184
LJ           -1.5246        0.353545        -1.41357
LJ          -1.48413        -2.45348         5.75315
LJ           -4.4214         3.94919        -2.34842
LJ          -3.97046         3.35469        -4.34508
LJ           4.30227        -1.08314         -4.1788
LJ           1.32131         1.59394         2.26636
