108
#Comment!
LJ          -4.36319        0.911905          6.0843
LJ          -3.09788         2.78095         -1.9834
LJ         -0.729062        -4.92847        -5.46338
LJ            2.9016         5.96064       -0.558927
LJ           3.50711        -2.27458         2.25879
LJ          -2.95416         1.67282        -1.88936
LJ           5.92925         4.17435        -1.09154
LJ          -5.29974        -2.19309          5.3764
LJ          -5.12775        -3.66043         2.63259
LJ           6.39533         2.87269       -0.436486
LJ           3.82473        -2.55054        -2.99363
LJ           2.84697        0.126622        -1.23215
LJ           1.27729       -0.142204        -4.93219
LJ          -6.10852         4.76393         1.22309
LJ           3.68057        -5.23681         4.27914
LJ           -2.4878        -5.50755        -6.05232
LJ         -0.161497         -3.1019         -6.0023
LJ           4.53105        -2.53407        -2.27707
LJ         0.0463553        -2.35187         3.55948
LJ          -2.47061        0.997597         2.28964
LJ           5.61623        -5.21138        -4.88669
LJ         -0.737581        -4.15856          3.8492
LJ           5.45312         3.29607        -6.01205
LJ         -0.123554          5.1565        -4.02289
LJ          -1.03927          3.7596         1.77162
LJ           4.39612         4.25255         5.82141
LJ           6.04273        -4.31364        0.595915
LJ           1.74789         6.11886        -1.74224
LJ           4.01781        -5.20418        0.153933
LJ          -1.67673        -2.91566        -1.54931
LJ           -5.3937        -5.74058       -0.397093
LJ           4.29817       -0.822085        -5.80164
LJ         -0.701465        -4.51945        0.507112
LJ           2.44512       0.0603356          1.0362
LJ           2.20372       -0.900339        -5.90646
LJ         -0.202377        -1.56074         2.08816
LJ         -0.640532        0.870721         6.32438
LJ          -3.11521         1.51103        -4.01026
LJ          -1.32079        -2.28792       -0.684767
LJ          -4.10071        -5.61126        -6.02493
LJ          0.155039        -6.04493        -5.05904
LJ          -3.67642        -5.00047        -1.66762
LJ           4.76962        -3.01012        0.709633
LJ           3.41333        -4.13246        -4.42781
LJ           2.75501         4.81279        -1.75847
LJ           0.78519         1.36465         3.60149
LJ            3.3317         1.32954        -2.00815
LJ          -3.66958        -4.36609       -0.335793
LJ           4.47438        -3.98222        -4.40125
LJ          -6.41982         4.34721        -4.02367
LJ           6.40223         -2.5049         6.42148
LJ          -5.28991         -5.9778         3.06923
LJ          -1.31029         6.15748        0.785823
LJ          -3.60582         2.36816       -0.648493
LJ           4.39214         4.12805         4.69792
LJ          -2.60785        -2.34506        -6.19602
LJ           2.27589        -2.97722          3.2139
LJ          -4.64976         1.15961        -2.75038
LJ          -4.56767        -3.01833        -0.18336
LJ          0.672231        -5.10467       -0.067176
LJ          -4.17158        -2.47478        -4.81026
LJ           5.34961         1.36829        -4.70676
LJ              5.75       -0.602881       -0.479908
LJ           2.91728          1.8854        -3.74264
LJ           -3.8266         1.79229        0.722267
LJ          -2.82308        -3.31336        -3.83869
LJ          -4.64182        -2.32394       -0.978629
LJ           2.85196        -5.59834        -1.75392
LJ          -5.93737        -2.95436         3.78888
LJ           4.06664         2.96973        -6.25543
LJ        -0.0154301         3.75796         1.65301
LJ          -4.15328        -2.07717         3.67405
LJ          0.153271      -0.0154486         4.90828
LJ          -4.06851        -5.20934         5.88926
LJ           1.07958         4.57526        -5.26421
LJ         0.0130981       -0.393191        -2.26912
LJ           4.45246        -1.31737        -3.44028
LJ         -0.826601        -5.86174         3.58158
LJ          -4.50742         4.51331      -0.0865403
LJ          -1.69987        -4.41876         3.35155
LJ           5.51888        -1.49128       -0.800694
LJ          -0.94382        -1.24468         4.51318
LJ          0.604757         2.30042         4.75085
LJ          -2.51295         5.21303        0.884392
LJ          0.528702         -5.9407         3.54076
LJ           2.85402        -2.60064         4.06708
LJ          -5.97938         3.67059        -2.07425
LJ           5.02279          -2.734        -1.36917
LJ           1.52858        -3.88073         5.15183
LJ         -0.162958        -1.28315        0.686184
LJ          -5.14979         3.70818         4.38959
LJ           1.82367        -2.58681        -4.17656
LJ           1.26888         1.99105        -2.66502
LJ          -2.70363       -0.229838        -0.29029
LJ          -2.85907         5.50709         2.72849
LJ           3.02133         3.24462         4.08617
LJ          -2.26256         6.12533         3.51788
LJ          -4.17397         5.12079         3.74489
LJ        -0.0904142         -2.7887        0.319096
LJ           2.94274         5.31264         3.85505
LJ          -4.64495        -4.87806        -5.31464
LJ           4.32692       -0.114608         2.02771
LJ          0.637334         4.98075        -6.28028
LJ        -0.0821993         5.08145        -1.37373
LJ         -0.129332         -3.1734         4.82443
LJ          -3.76439        -3.76593         5.12801
LJ          -4.25968       -0.381679         5.55917
LJ           2.08249         -1.2468        -4.18629
