108
#Comment!
LJ           5.26063       0.0225945         4.09556
LJ          0.483472         3.83183        -4.58301
LJ         -0.404257        -5.09122        -5.60409
LJ          -4.08365         4.81143        -1.19607
LJ           4.54458        -5.35963        0.257283
LJ          -3.63979         4.61099          3.1051
LJ           1.81029         3.88469       -0.850776
LJ           6.01921        -4.80899         3.49568
LJ           5.67816       -0.860657        0.673697
LJ          -3.84411         6.34292         2.45288
LJ          -1.64229        -1.28872         -0.3296
LJ          -5.89373         1.72995         -4.4089
LJ           1.32423        -4.13696        -1.47439
LJ           3.76213        -2.67852         3.52969
LJ          -2.75222        -5.04872        -5.80436
LJ           1.44299        -2.42404         -3.9532
LJ          -1.03801         1.15774        -1.87604
LJ          -2.49005        -5.85874        -2.04676
LJ          -6.00415        -2.23945         1.33301
LJ          -4.12011        -1.10736        -4.76111
LJ            3.1577        -3.33863         2.89076
LJ           6.14166        -1.57674          2.6087
LJ          -3.97594        -5.67614        -4.26545
LJ           4.11083        -3.76168         6.24432
LJ          0.282538         2.01158         2.40795
LJ           -3.0318        -1.52948         1.83009
LJ           2.90668       0.0596067        -1.17297
LJ          0.176093         5.96883         1.59284
LJ          -4.03976        -5.37217       -0.467039
LJ           2.36861         1.21175         -2.0059
LJ          -1.00638        -2.21876        -2.98854
LJ           -2.0032         3.82394       -0.623089
LJ           4.79646         5.93098        -1.67451
LJ          -6.29963        -0.96098         1.37223
LJ          -5.91189         6.41168         2.82833
LJ           4.79237        -2.35981         5.20938
LJ           4.78379        -1.70315         4.23299
LJ            2.6948       -0.443676          2.3729
LJ          -5.10975        -2.18772        -1.71237
LJ          -4.75569         3.90601        -5.66834
LJ           1.97605          1.6681         2.65982
LJ          0.803887          2.2561        0.807787
LJ           5.26475       -0.495727        -3.27736
LJ           6.20154         6.12556         2.35579
LJ          -5.60474        0.449424        -4.47677
LJ        -0.0585656         5.22144          -3.991
LJ           4.91812         2.49502        -5.24275
LJ           1.55482         5.29562         4.51065
LJ           6.09393        0.925608       -0.339429
LJ          -4.90805         5.71222       -0.398305
LJ          -5.88146        -3.05431         -1.2957
LJ           2.59162        -4.90367        -1.57742
LJ          -4.76099       -0.669644         4.65799
LJ          -1.38572         5.17035         4.93167
LJ         -0.517277         2.89568         2.09419
LJ          -0.70417         2.66712        -1.04585
LJ          0.469898        -4.68326        -2.34505
LJ           5.34805         2.68442         1.77686
LJ          -1.74061        -3.96549         6.28546
LJ         -0.589392         2.41134        -2.11028
LJ          -2.19375        -2.99534         1.74071
LJ          -1.39971        -4.19961       -0.113316
LJ           3.60845        -1.60571        -5.98526
LJ           5.51121         1.43494         1.44488
LJ           3.71458        -4.52599         -4.5409
LJ          -5.39872        -4.33627         1.01778
LJ           -1.5221         1.86885        -6.44894
LJ           1.28059         -5.7345        -2.12024
LJ          0.310279        -1.15678         5.72294
LJ           1.67425        -1.92233          4.9801
LJ            -3.856        0.506493        -1.40641
LJ           5.66294         2.52321         4.84102
LJ          -5.20635         1.89216         1.28149
LJ           5.15151          3.6945         1.93622
LJ          -2.60172        -1.99744         0.84059
LJ          0.551336         2.57123         3.50953
LJ           5.27986        -3.24356          4.6408
LJ          -3.48658        -5.49403         3.32664
LJ           5.72348        0.663628        0.767955
LJ         0.0595122         3.59851        -1.66449
LJ           4.50829        -4.48429        -1.79838
LJ           1.13426        -1.41106        -1.00825
LJ          -5.19885        -5.36327         5.80978
LJ          -2.05445        -3.98751        -5.36548
LJ          0.179123       -0.382259         3.33715
LJ          -0.36524       -0.162715       -0.587252
LJ          -2.50252         1.96969         3.04309
LJ          -1.55199        -2.20965         2.04997
LJ           5.71563         4.06151        -3.56851
LJ          -5.92739        -5.82486        -4.81608
LJ           5.61359        -4.50771        -5.43912
LJ          -2.08746         4.40694        0.275002
LJ           1.56089        -2.19529      -0.0273434
LJ           1.12564        -4.60419        -5.94583
LJ          0.743547        -1.42431         2.93514
LJ          0.920903        0.282675        -4.41502
LJ          -1.18038        0.999998         4.02879
LJ          -2.58898        -2.02649       -0.720676
LJ           2.65041          5.6836         1.38268
LJ          -3.43315        -4.26809       -0.625603
LJ           3.56551       -0.183109        -2.85346
LJ           6.06895        -3.84377         4.71524
LJ          -5.69323          1.6215       0.0644454
LJ           5.00642         5.15476          5.9995
LJ          -6.38834         -1.3738        -5.73189
LJ          -3.68071        -4.89741        0.611827
LJ          -2.86215         4.21264        -3.86884
LJ          -5.71888        0.514195        0.186682
