108
#Comment!
LJ        -0.0612758         5.32057        -2.28473
LJ          -3.76891         -2.1358         5.25794
LJ          -1.08175         1.50213         6.31233
LJ           6.38626        -5.94915         5.37285
LJ          -2.90551         4.43337        -4.55023
LJ          -2.41275        -1.69425        -2.47321
LJ          -3.95158         5.56445        -5.87932
LJ           1.68744        -2.53388       -0.659962
LJ          -0.67427          1.8794          1.4187
LJ           5.84012        0.921098         2.00205
LJ          0.718787         3.56495         4.59615
LJ          -5.42193        -6.43297        -4.80138
LJ          -4.55772        -4.04679         1.98378
LJ         -0.224927         2.50091        -5.47033
LJ           6.05835        -2.83332         1.28178
LJ          -4.63273        -1.23332         3.76772
LJ           5.65655         2.18652         2.01039
LJ          -3.98073        0.313634        -6.34617
LJ          -5.22536         4.73198         4.91143
LJ           3.00192         3.46852        -4.97086
LJ          -2.11405         5.01788        -5.52852
LJ            3.6765         6.27195        -5.55713
LJ            2.3214         2.01835         1.57652
LJ           3.02703        0.899504         1.54737
LJ          -5.46926         1.29337        0.434696
LJ           2.25571        -4.94685        -5.61835
LJ           -5.7031        -2.67382        -4.65607
LJ            6.2162         3.76842       -0.499009
LJ          -2.64931         6.36625         1.56776
LJ           -2.3965         5.44917        -4.39379
LJ           5.22723         6.44215        -1.71154
LJ          -1.31602         5.53872        -5.20188
LJ          -5.45308         5.84292         2.00578
LJ           3.99864        -1.05263         2.96433
LJ         -0.641583        -3.88569        0.447985
LJ          -2.21628        -2.75283        0.162894
LJ           4.54474        0.245424         2.44723
LJ           4.70805        -1.65206         3.58926
LJ           1.02946         2.26455        -5.04345
LJ          0.715726         4.94034         5.70213
LJ            6.1314       -0.676549         2.30469
LJ          -6.04587       -0.631892         5.36177
LJ          -3.26817         2.10497        -6.10434
LJ           2.51471         -5.9731         3.14731
LJ          0.883585         1.98459         1.25855
LJ           2.64481        -1.00926        -2.81098
LJ          -4.82672        -6.28424        -3.97461
LJ           6.32708         3.06588         1.64721
LJ           2.16519       -0.636888          3.6195
LJ           5.06716         1.72212          2.8098
LJ           1.90596        -2.85278        -1.86742
LJ           5.15273        -2.50723        -4.03019
LJ          -4.94713         5.18936         1.21078
LJ           4.22638         3.66843        -4.49493
LJ         -0.427416        -4.43763         1.30399
LJ          -4.79789        -2.15278     -0.00725352
LJ           4.99123         -2.9062        -1.08044
LJ           3.14211         2.27258         3.48117
LJ           2.43014        -1.90591        -6.22452
LJ        -0.0336318         5.47069         -1.3021
LJ           2.12298        -5.00377         5.85643
LJ           5.97452        -1.05925        -5.30329
LJ          0.372935        -4.13631         4.23895
LJ          -3.92807        -1.61696         6.44401
LJ           6.02838         4.26389         2.45652
LJ          -2.52104        -5.12249         2.18776
LJ           -1.5012       -0.886719       -0.843016
LJ           2.02017         1.52662         4.50311
LJ           6.41267        0.160516         2.81617
LJ          0.333258        -5.58148         3.49082
LJ          0.523641         5.07946         4.31881
LJ         -0.460843           4.079         1.21861
LJ          -5.86341         3.83583         1.42465
LJ          -3.28773         -6.4385        -5.06837
LJ           0.63318        -5.92547         6.39689
LJ          -4.24526       -0.107812         1.07917
LJ           1.87532        -4.35056        -3.89328
LJ          -3.45499        -2.62749        -1.73411
LJ           1.08174         1.20697        -2.45501
LJ          -4.85779        -5.05649       -0.324266
LJ           -5.2606         4.23704         2.70783
LJ          -3.40469         3.24959        -6.03747
LJ          -4.10305        -2.33143         2.65042
LJ           4.76363         5.17897         -1.2531
LJ            5.8226        -2.17992        -3.02178
LJ           6.37151        -1.65644         1.74116
LJ          -5.30618         3.69539        -2.83318
LJ           3.93479         6.40969        0.191354
LJ          -1.98341        -3.30576          4.5862
LJ          -4.38345        -6.44102          3.3476
LJ          -4.45207        -2.97789        0.849117
LJ          -5.68595         4.06222       -0.880628
LJ         -0.422237         4.69204         4.03109
LJ           4.98849         4.17498         3.77032
LJ           4.25905        -3.19518        0.563572
LJ          -4.95974        -1.20287        -3.41786
LJ            5.1177        -1.54606          4.5342
LJ          -2.19882       0.0118954        -5.92102
LJ           5.05414       -0.778211         -2.1203
LJ           5.38777        -6.08898        -4.26251
LJ           -3.0634         -5.8383        -3.66262
LJ           -2.5074         3.82066         2.06269
LJ         -0.925862        -5.06163        -0.23976
LJ           2.56536         0.17756        0.576938
LJ          -3.62172         2.94413         3.84653
LJ          -5.47764        0.386425         1.60328
LJ          -4.99259        -3.68711        -4.44414
LJ           -5.1224         3.70927         5.53594
