108
#Comment!
LJ          -2.35834        -3.73946         -3.3837
LJ           2.07224         5.83588         1.01114
LJ          -5.54601        -6.25119         6.09937
LJ           0.26724         5.50566        -4.56598
LJ           1.56321         -6.4052        -3.37308
LJ           -5.7476         -4.7482         2.66951
LJ           -5.8204        -6.11208         -4.7653
LJ         -0.876568        -4.55023       -0.466888
LJ          -1.28917         5.35295         6.06582
LJ         -0.298771         -1.0004        -3.19905
LJ          0.934472         2.19209         5.62809
LJ          -0.88851         5.66692        -6.04717
LJ           2.82094        -2.48578        -2.06541
LJ         -0.623851       -0.941125         3.87847
LJ          -3.77249          5.8478        -1.22766
LJ          -5.11388         6.15471        -1.46398
LJ            1.2267        -0.26603        -3.88142
LJ           4.93668        -4.41077        -2.50066
LJ          -5.51948        -6.03578        -3.34374
LJ         -0.163782        0.523226         5.86974
LJ           2.85356        -3.52021        -3.24482
LJ            4.6255         3.46193         6.23734
LJ           4.64924        -3.33746       -0.422366
LJ          -1.21826        -3.46988        -2.28646
LJ          -4.60274        -1.29211         -2.5707
LJ           3.04882         3.09366         5.76331
LJ          -6.18323        -1.64216         5.97866
LJ           6.23286         4.59042         -2.7678
LJ          -5.17751         1.99901        -3.91079
LJ           -6.4476         1.01141        -5.47224
LJ          -5.75623        -5.23804         3.57747
LJ         -0.887224         2.88155        -2.53128
LJ          0.863753        0.153545         1.74687
LJ           0.86518        0.337727        -5.91602
LJ          -1.83214         6.45021        -6.35492
LJ          0.107468        -2.32097        -3.08926
LJ          -3.04408         1.83695        0.276203
LJ          -3.65237         2.92315        -1.14791
LJ          -2.97449         3.74688         3.06624
LJ          -5.30938        -1.09756        0.902507
LJ          -3.04785        -4.24268       -0.378484
LJ           2.97326        -1.24569        -3.47529
LJ          -5.29592         4.06795        -2.17726
LJ            4.6783        -3.24653        -5.28583
LJ          -5.06866        -3.47234        -1.92196
LJ         -0.293269       -0.112148        0.501788
LJ           3.06238         -1.0809        -4.62926
LJ          0.978618        -4.94096         1.34141
LJ          0.566099        -5.92324        -2.03102
LJ           -2.3038         1.53425         4.01924
LJ           2.89839      -0.0912868        -5.87992
LJ           5.13288         2.03598        -5.47314
LJ           2.59558        -1.77775        -1.61271
LJ        -0.0262005        0.593144        -1.20346
LJ           -1.6723        -4.41541          2.8401
LJ       -0.00816816        -3.08607          4.9651
LJ          0.983207         5.79955         6.29555
LJ            6.2137         1.39985        -3.51829
LJ         -0.975652        -1.43469       -0.969313
LJ          0.299003        -1.95586        0.147984
LJ           3.50147         5.38065        0.126956
LJ          0.290753         3.09943        -6.10396
LJ         -0.134553         4.24461        -5.49033
LJ          -3.71233        -2.41134        -2.09026
LJ          -3.72095        -1.64762         3.57348
LJ          -1.16056        0.900577         -2.1256
LJ         -0.564022        -1.71489        -4.81091
LJ           1.08362         5.70037        -3.81079
LJ          0.277993         2.78535        -2.18382
LJ          -1.08327         4.04054        -3.50369
LJ          0.344436         4.12134         3.75362
LJ           3.44312        -4.01949       -0.266693
LJ          -4.84004         6.05574         2.65792
LJ          -5.47871        -2.54573        -5.61504
LJ          -6.34238         1.28819         1.60369
LJ          -5.54853          3.0966         3.29844
LJ           3.65323        0.770745          5.2499
LJ          -2.74275        -4.31774          5.4828
LJ         -0.725843         3.84675        0.799725
LJ           3.36728        -4.10221         2.27108
LJ          -2.79097         4.86473        0.560095
LJ           6.07633        -5.86623        0.364475
LJ           4.93964        -6.09203         3.39558
LJ           2.45232         4.77162         2.88161
LJ          -5.98235         -2.8853         5.77785
LJ           4.49335      -0.0830014         2.41998
LJ          -2.94634         1.83884         4.94888
LJ            4.5061        0.241983      -0.0730101
LJ          -6.08047          2.4888        0.738905
LJ          -3.54956          6.4195         5.31059
LJ         -0.738022        -2.15025        0.315693
LJ          -3.70125        -3.45766        -6.02069
LJ           4.89679        -4.35245        0.553027
LJ           2.20034         5.50581      -0.0878599
LJ          -5.24202         4.77281         3.76868
LJ            4.4722        0.603852         1.50004
LJ           5.81203         2.64842         1.83768
LJ           -3.7805         -5.1837        0.776716
LJ          -3.14529       -0.961184        -3.81366
LJ          0.615488         2.45961        -1.34498
LJ      -0.000429561        -1.13538        -5.42154
LJ           1.44157          4.8178         -1.9017
LJ          -1.74368         3.89931        -4.68408
LJ          -4.47657         1.27657        -3.94863
LJ           -4.8289         3.54358         4.18707
LJ           5.04732         3.66139         2.16188
LJ           2.61436        -2.36021         5.48715
LJ           4.17077         2.88789         1.31315
