108
#Comment!
LJ          -5.19946         2.02205        -6.05173
LJ           5.26395         1.00706        -4.81751
LJ         -0.165933        -6.44524       -0.130765
LJ          -5.66163        -1.08118         2.84944
LJ           4.41193        -5.11244         1.30979
LJ           1.81523         2.69997        0.508664
LJ          -6.38418        -1.21253       -0.108516
LJ          -2.12117         3.71521        -1.52776
LJ           5.09773        -3.83386         1.46101
LJ          -6.29348        -5.99702        -5.31346
LJ          -5.12281       -0.983532        -3.81995
LJ         -0.572847         4.93909        -5.01217
LJ           1.30998        -2.66297         2.60305
LJ          -6.04817        -4.25791         4.70595
LJ          -4.70443        -5.60096        -6.42798
LJ          -2.19097       -0.263681        -1.97534
LJ           3.50871        -5.82082        -2.88381
LJ          0.116138        -2.13378        0.314089
LJ           5.55539        -2.80922         4.16982
LJ          -1.85846         -3.5288         3.12803
LJ           2.27997        -2.47787         -3.6492
LJ            5.8637        -5.84154        0.838237
LJ           1.32445         4.05339        -3.61526
LJ           -5.9634         5.67467        0.896247
LJ          -2.17003        -3.79714         1.36489
LJ          -1.44181         6.12567        -4.72148
LJ          0.795137        0.764507        -2.48222
LJ           4.86053         4.30249         1.77168
LJ          -3.83939         4.73253        -2.13277
LJ         -0.416178       -0.392774         2.05267
LJ           1.08843         2.13327        -5.45666
LJ          -1.44032         4.43574        -2.33271
LJ           2.03381         -2.4464         3.35097
LJ           6.32671        -1.44893         1.92833
LJ            2.3425         5.56502      -0.0296457
LJ          -2.05535        -3.61134        -3.32827
LJ          -5.75784        -2.92314         1.85991
LJ           2.78955        -3.12702         5.27931
LJ          -2.11506         3.82116         3.80216
LJ          -2.77806       -0.680446         5.18985
LJ          -3.66573         2.31336        -1.77496
LJ         0.0693736         4.77276         1.71869
LJ           4.42205        -5.70933        -5.63347
LJ         -0.938005         2.88123         1.92657
LJ            1.7811         5.74821         6.44706
LJ          -5.95419        -6.34606        -1.51349
LJ           -3.5537        0.666315         4.92105
LJ           3.97757          -5.038         2.44577
LJ           3.84241        -6.30594         2.13132
LJ       0.000629941        -4.64281          0.1468
LJ          -3.70285        -2.46291        0.718662
LJ          -3.90647        -6.40841       -0.834898
LJ          -4.87663         5.78027         3.08041
LJ          -3.86454        -6.27708        -5.03151
LJ            3.4953         1.25329         4.21505
LJ           4.77948        -3.43433        -4.40548
LJ          -1.24601        -2.89447         5.91416
LJ           6.20419         1.53941         1.05705
LJ         -0.359644        0.372988         6.37644
LJ           5.70601         5.89886         6.14083
LJ          -0.99878         -4.2125         -1.8099
LJ          0.144085        -2.02604         5.64532
LJ          -0.36655        -0.20802         4.41795
LJ           -3.1536         5.43415        -5.01709
LJ           -1.9396         5.02632         4.83462
LJ           -4.0999         5.20939       -0.312032
LJ           5.63964         1.70202       -0.786836
LJ           1.78243         2.98642        -2.81746
LJ          -2.87885         -4.8264         5.81192
LJ            1.5351        -5.75621       -0.945188
LJ          -2.66817          1.0854        -6.44389
LJ           1.93109         2.93415         6.13344
LJ          -2.15144        -4.92729         1.99086
LJ         -0.104644        0.776071        -1.44939
LJ          -1.51005       -0.150637         1.99086
LJ           3.87439        -2.29181         3.26511
LJ          -1.61444        -3.04711         1.96243
LJ         -0.561974        -4.46213        -2.98083
LJ          -3.39729       -0.067522         6.45094
LJ          -6.43178         3.93719        -3.70874
LJ           1.34761        -1.02966        -1.86067
LJ          -4.36723         -1.5729        0.654378
LJ           -3.6837        -2.46868        -4.97482
LJ        -0.0254605        -2.14603         1.95675
LJ          0.821711        -3.88371        -5.21311
LJ          -5.59314         1.24757         5.22701
LJ          -5.80443       -0.452023        0.441039
LJ           -3.3615         1.75654        0.687131
LJ           -2.2118        -2.01989        -1.61965
LJ          -6.18632         5.50358         5.72916
LJ         -0.702558         5.45959           4.699
LJ          -2.48329         6.14964        -1.99766
LJ           4.36095         4.24479        -4.26013
LJ           2.17056         3.47384         5.12736
LJ          -2.59686       -0.969234         1.05344
LJ           6.35676         3.37412        -1.58952
LJ            2.4127         2.63333        -4.99528
LJ          0.841761       -0.959887         2.15077
LJ           1.51683         3.88373        -6.18659
LJ          -2.96771         3.82354        -2.88309
LJ           3.30923          5.3544         0.67411
LJ           4.34116        -1.99358         2.00726
LJ            1.5678         4.91934         4.98032
LJ           1.74439         5.91975         4.63601
LJ           1.51285        0.961116         3.39409
LJ            -4.999        -2.06258        -3.17492
LJ           2.36752        0.381499        -5.29261
LJ           2.81659         2.16398        0.126235
