108
#Comment!
LJ           2.59442         5.65707         1.97833
LJ           4.50807        -1.33862         2.69608
LJ          -6.17153        -4.87506         2.81948
LJ          -2.46594       -0.455689         5.79962
LJ          -5.03468        -5.42821        -2.68408
LJ           4.09059        0.448588         2.75407
LJ           4.59603         5.10291        -4.46886
LJ           5.21409         -5.2041        0.543613
LJ           6.37863        -2.57725       -0.877247
LJ          -2.17128         4.62871         -3.9933
LJ           2.73298        -5.60559        -2.14939
LJ          0.779721        -2.94417        -2.46296
LJ          -1.29449        -3.94258        0.761937
LJ           5.18931       -0.874635          5.1851
LJ          -1.15242        -1.72199        -4.85975
LJ          -5.03771        -1.04668         2.20026
LJ           3.84765         5.87971         -2.2038
LJ          -4.70161         3.80019         6.38399
LJ            4.5383         5.41196        0.773599
LJ          -5.59752         5.99708         5.82437
LJ          -6.43183        0.797225        -6.00052
LJ          0.136998         6.46108        -5.27545
LJ          0.605015         3.64822        -2.35454
LJ           3.65292        -3.15675        0.830334
LJ          0.670774        -4.39821       0.0312593
LJ          -0.10541         4.65133        -5.87553
LJ          -3.17442        -2.81157         3.95999
LJ          -2.11213        -3.13063         5.39869
LJ          -5.37775         5.61864        -1.92281
LJ           3.74315        -1.01912        -4.93717
LJ          -5.43322         1.23913        -5.64039
LJ          -4.84394         4.21158        -4.18396
LJ           1.47981          3.9947        -3.12475
LJ           3.66641         3.83109         2.27476
LJ          -6.40082         4.91813         -3.4967
LJ           6.27993         6.22067        -3.09585
LJ           1.64534         3.34062        -4.38488
LJ          -1.68166        0.638763         4.53122
LJ           2.81476         4.57642         3.85404
LJ          -5.33101        -6.38882        -5.19964
LJ           -4.2736        -4.26421        -2.57306
LJ          -0.50096         -2.7196        -2.81344
LJ         -0.405273         1.33233         5.74534
LJ          -3.33038        0.564406         5.01046
LJ          -6.37912         5.12587         1.51932
LJ           1.35819         6.33661         5.16661
LJ           4.43847         5.42107        -5.90377
LJ           4.67029         6.00829         3.88198
LJ            2.0407        -3.29108         3.20346
LJ          -5.50472         4.55013        0.835646
LJ           3.78593         4.84975         4.82388
LJ          -1.70695         5.90123        -5.07414
LJ          -3.11131        -5.61935         1.83752
LJ          -5.06083        -5.04317        -1.43641
LJ         -0.889855        0.372974         5.40826
LJ          -3.67895         2.79438          2.7087
LJ          -5.50035         1.01729        -4.00854
LJ          -5.81748         5.66179        -5.36019
LJ          0.501578          1.5096        -3.32259
LJ          -3.91806        -5.76371       -0.832661
LJ          -1.40838         2.73147        -4.57199
LJ          -5.19873        -4.58585         2.63361
LJ          -2.92041        -5.29002        -1.04038
LJ           1.85621        -5.39696         3.42129
LJ          -3.61294        -5.80325         5.57179
LJ           4.05069        -3.57394          4.8304
LJ          0.992592        -4.92746         3.55482
LJ          -5.40114        -2.91538         3.63024
LJ          -5.47149        -4.34471         1.11078
LJ          0.705755       -0.261975         3.41989
LJ          -2.36907         4.98406         6.28149
LJ          -1.41997         6.19069        -1.23316
LJ          -4.89428        -5.51669        -6.33827
LJ          0.909174         5.07398       -0.851198
LJ            4.8125        -2.92163        -5.97872
LJ          -4.34329       -0.404105         5.26734
LJ          -6.12971        -0.65172        -3.86683
LJ           2.81409        -2.87978         3.83481
LJ          0.922838        0.310067        -2.56632
LJ           2.66759        0.160857        -1.56115
LJ           1.85996         4.49681         1.94587
LJ         -0.444092        -6.19174         4.38169
LJ          -1.39596         3.99451        -2.76171
LJ          -1.84929        -3.14148         -1.3035
LJ         -0.646038        -4.65413         -3.9983
LJ         -0.905971         1.47716        0.596573
LJ           5.82104         5.66054        -4.01412
LJ           4.32724         3.34186         5.79935
LJ          -4.88845        -4.20868        -5.24888
LJ         -0.402949        -2.42683         5.46932
LJ          -5.46083        -2.72684        -2.60968
LJ           3.32886        -2.80825        -3.18141
LJ          -5.69744        -6.25027        -3.09807
LJ           4.67356         2.79669       -0.322717
LJ          -2.55704       -0.405109        -3.62047
LJ          -6.37046        -1.61266         1.19768
LJ          0.926058        -1.50779         -1.9273
LJ           -3.2636        -4.96044        -6.17791
LJ         -0.922042         4.40626        -3.91578
LJ           -6.2428        -2.96173          1.3809
LJ           3.88079       -0.501841        -1.55229
LJ          -4.16642         2.46144        -5.15846
LJ           -0.5745         1.18882        -3.00328
LJ           1.23717         3.82459       -0.467947
LJ           4.02012         -2.9179      -0.0376386
LJ          -4.46609        -3.13535        -1.43291
LJ         -0.635425         6.21557         2.00351
LJ           4.76338         6.39027         2.28033
