108
#Comment!
LJ           4.02343        -5.41703        -6.33569
LJ           5.27349          3.7603         4.95712
LJ           2.52267         -3.1257         4.82162
LJ          -3.97207         3.10439         5.20313
LJ          -3.54725        -5.33903         3.01727
LJ          -3.07713        0.520059         5.02319
LJ           -1.7919         2.68261         6.19662
LJ          -2.93781        -2.55036        -1.17659
LJ          -4.58437        -1.18646         -1.9103
LJ           5.37605        -2.80822         5.40822
LJ          -6.33098        -0.48748        -4.67182
LJ          -4.66749        -2.10105        -1.64278
LJ           4.40837         4.85765        -2.05172
LJ           5.42139       -0.853841        -4.86595
LJ           4.05222        -2.40846       -0.243171
LJ          -0.66073       -0.609539       -0.248701
LJ          -2.11846       -0.270884       -0.536418
LJ          -2.03225        -6.46224         1.39859
LJ          -5.91392          -2.135        0.279597
LJ          0.439019        -1.09258         5.72645
LJ         -0.930234         3.84259       0.0872249
LJ          -3.46615         -3.9461        -1.74413
LJ         -0.787246         -3.7487         5.95932
LJ          -4.37117        -4.96738          4.7514
LJ           1.18497         2.55149         -2.4659
LJ          -2.69372         3.86867        -2.57768
LJ          -4.48296         5.78408        -6.12072
LJ          -5.41963         5.00111        -1.50177
LJ           4.31707        0.195316         5.66242
LJ           5.16557         1.52355         1.02575
LJ          -1.10904        -4.95414         3.31117
LJ            4.2705        -4.82994       0.0880979
LJ           2.04641          3.5142         3.78465
LJ           1.22246         2.88656        -5.93309
LJ          -1.05134         3.40262         6.38452
LJ           3.71009         -1.5921        -1.43122
LJ          -3.74551         1.59124         3.04779
LJ          -6.06378        -1.03232        -2.50263
LJ           6.15269         1.76414          2.6498
LJ           3.60412         5.39427        -3.93074
LJ          -3.20284        -5.12703         6.26585
LJ           1.82915         -2.6667          6.1622
LJ          -5.34065        -2.19808         6.07548
LJ           5.27597         2.72966         2.63117
LJ           5.56478         3.05787        -5.28759
LJ          -4.08565        -3.60959       -0.244215
LJ         -0.908737         2.02885         3.88372
LJ          -4.22015       0.0304432         5.24291
LJ           5.80975         -2.2612        -4.75966
LJ           -5.0019         4.42262        -2.90959
LJ        -0.0533841        -1.30189        -3.08502
LJ          -3.02453         4.25995         2.45947
LJ           -5.4205         3.94508          4.8196
LJ             3.001         3.80815        -3.96883
LJ           3.30593        -4.64665       -0.261393
LJ           4.01018        -3.51568         3.15614
LJ           2.61336         2.29673         4.29704
LJ         -0.468952         2.72284        -1.03012
LJ           -3.3054         4.94997         1.17184
LJ           3.73958        -1.03507        -5.90434
LJ           3.27808       -0.638508         4.70105
LJ         -0.737537        -1.03876         6.31215
LJ         -0.157236         -3.1422         3.39432
LJ          -4.95807         2.27306        0.580442
LJ           2.94689        -1.70149         2.71628
LJ          -2.56282        0.483596        0.118286
LJ           6.23488         -2.8864         1.72296
LJ            6.0648        -5.32723         2.13229
LJ           6.35864         4.79165         1.46499
LJ          -3.99595          2.2163         1.26705
LJ          -4.82701         -3.3851         6.34011
LJ         -0.406677         4.73126        0.425602
LJ           6.37685         3.02421         2.52952
LJ           4.64576        -1.72189        0.350567
LJ           -5.0173         1.77897        -2.00025
LJ           2.33246        -4.05446         5.33786
LJ          -5.28641         2.00692        -3.59912
LJ          -4.29062         1.87495        -5.32494
LJ           1.48842        -1.11113         4.40327
LJ          0.212731         6.46038         1.88588
LJ           1.83516        -6.41168        -2.97296
LJ         -0.897778         1.13447        -4.27287
LJ          -1.53396       -0.830215        -1.55666
LJ           3.66298        -2.33948        -2.26525
LJ          -3.10746         1.87318         6.20309
LJ           5.93615         1.58826        -6.17135
LJ          -4.92205        0.272753        -1.51627
LJ           5.46736        0.735217         2.69597
LJ           2.13661        0.819163         4.74261
LJ           2.18449        -2.48602         2.33095
LJ           4.17708         3.54965         3.31428
LJ            -3.355          -5.079        -1.91061
LJ          -5.62209        -1.48289        -1.69424
LJ           1.58746         3.20971        -3.61397
LJ           1.14489         4.92573        -0.31748
LJ          -4.93623         3.47036         6.40216
LJ          -5.57942         3.96772       -0.946275
LJ           6.44963         4.19013        -6.26768
LJ           1.02329         4.57041         4.81297
LJ           4.94566        -4.37245         2.49511
LJ            3.7836        -1.44654        -3.87845
LJ           5.86453        -5.61504        -2.59752
LJ          -6.31361        -3.90449        -3.33842
LJ           3.84679         -5.4639        0.927917
LJ        -0.0374035        -2.00515         5.57737
LJ          -3.31904        -5.86884        -1.18388
LJ          -2.65694        -5.75072         5.34427
LJ          -4.32561          4.3551       -0.722818
