108
#Comment!
LJ           1.44817        -5.21115        0.673959
LJ          -5.17377         6.31867       0.0994365
LJ          -5.95376        -3.48576         2.62913
LJ         0.0121108        -4.33107        -5.35304
LJ          -4.01186        -4.20992        -1.65371
LJ           6.36822        -4.83409         1.73924
LJ         -0.712874          2.8314        -5.05478
LJ          -1.16143       -0.888525         2.93485
LJ           2.55847         4.05672         1.34801
LJ           3.63886         6.09506        -5.49389
LJ          -5.94902       0.0192884          6.4338
LJ          -6.22592          2.6491         5.78393
LJ           -6.2501        0.416355        -5.48877
LJ           3.76608        -6.17963       -0.687699
LJ           4.49529         5.68175         1.25209
LJ           2.97596         1.43419        -4.72925
LJ          -3.46613         5.84908         2.70055
LJ            3.6112        -4.79223         6.28012
LJ           6.08304         5.27707       -0.183636
LJ           2.47668         4.52177         3.17555
LJ           2.36279         3.66761        0.296974
LJ           4.38054        -4.19122         4.66696
LJ          0.638868         4.97933         2.74868
LJ          -4.88001         3.13584         6.29881
LJ          -3.16687        -2.22281         4.76263
LJ           2.12342       -0.824117        -2.48941
LJ          -3.29412        0.304686        0.155469
LJ           5.60026         5.66404        -2.03978
LJ          -5.09913       -0.239577         3.47042
LJ           3.91992         1.87661         3.79133
LJ           2.52266         4.80562        -5.89941
LJ           2.21414        -5.83501         5.54446
LJ           5.66297        -2.83822         -2.6491
LJ           4.30394        -1.57168        -2.55913
LJ          -2.98621        -3.56478        -2.54483
LJ           4.52986         -3.4976         3.12228
LJ         -0.530506        -1.17567         1.99288
LJ          -6.03131       -0.873105       0.0568758
LJ          0.621143        -5.74601        -2.17686
LJ         -0.546507        -4.00245         2.70714
LJ            5.4277        -3.95875         -5.1644
LJ           3.89258        -2.04225         1.37692
LJ           1.24986        -2.42943         1.64254
LJ           -6.1671        -4.99725      0.00297268
LJ           3.40942        -2.19862         5.86926
LJ          -2.13649        -4.72733         1.05609
LJ          -5.82327         4.18588       -0.210143
LJ           4.78333        -5.73917        -2.34325
LJ           5.25414        -2.64653         5.12702
LJ          -1.09461         4.52192         1.45528
LJ          0.783176        0.152929        0.961455
LJ           6.01742        -5.60236         3.83292
LJ            3.0192         3.28203         6.43764
LJ          -1.70986         -1.5644        -0.57401
LJ           5.87968        -2.43845       -0.182796
LJ          -4.63812        0.295535         4.47963
LJ          -5.53379         5.70954        -6.04931
LJ          -4.79868          3.9398         4.77144
LJ           3.78232       -0.603952        -2.40481
LJ           1.83837        -2.39222        -6.25493
LJ           4.44274        -6.35344        -3.77863
LJ           1.54323        0.874797        -3.09216
LJ         -0.259891         4.05629         1.36182
LJ          -2.34698         1.11239         2.16089
LJ         -0.488839         2.76844          4.1778
LJ           3.46923         2.93434        -5.14176
LJ          -4.46989        -3.41405         4.49758
LJ           3.17011        -2.58029        -5.80817
LJ           1.72683         1.12781         5.41406
LJ          -3.55926         5.83718         3.81187
LJ           1.00618        -5.17649         2.62784
LJ          -3.92376         4.92005         3.62278
LJ           2.29592        -5.53006        -3.66301
LJ           2.45017        -4.70653         0.32195
LJ         -0.489658        -3.30496        0.349889
LJ          -2.71732         4.99148        -5.36267
LJ          -1.84944        -1.00358        -3.60174
LJ          -2.96995        0.328842         2.54939
LJ          0.861699        -2.93721         2.43473
LJ           5.77884       -0.748904         1.42679
LJ           2.07705         6.16108        -6.37525
LJ           1.91157        0.648619        -4.97572
LJ           3.13243         4.25515        -1.52295
LJ          -5.53268        -3.96542        0.185093
LJ          -3.50521       -0.402815        -2.21145
LJ          -4.23796         6.44998        -5.61066
LJ           4.47249         1.55674        -4.94894
LJ          -2.11726         3.37733        -3.04589
LJ          -4.18841        -5.82451        -3.93044
LJ           2.31055      -0.0199913        -4.27715
LJ          -6.45039        -3.60518         5.28431
LJ          -3.52458         4.95687         1.36638
LJ           1.17798        -1.99971        -1.99888
LJ          -5.97135        -1.46035        -1.59169
LJ          -6.18933         6.40749         1.16549
LJ          -2.78354         4.85818         2.85525
LJ           6.31511        -2.64597         2.40862
LJ          0.363923      -0.0997322       -0.392899
LJ            2.7782      -0.0229763        -1.05439
LJ          -1.69857        0.177416         5.06116
LJ          -2.46431        -3.65954          1.7099
LJ            5.1743         5.38432          2.4149
LJ           0.31531       -0.544695        -1.87359
LJ         -0.559786        -3.51048         4.89333
LJ           1.54868        -4.56831          1.5777
LJ          -3.05204        0.416122        -1.71706
LJ          -3.97563        -4.98276         5.88941
LJ          -3.30687        -6.20264         5.69421
