108
#Comment!
LJ         -0.110967        -1.00127        -4.76381
LJ          -5.43537         3.77784        -5.39382
LJ          -6.07508        -5.66932        -5.91176
LJ          -1.41531         1.00931        -2.72719
LJ         -0.373861         6.30625         3.27014
LJ          -5.04293        -2.26166          2.7237
LJ          -2.23195        -2.31519         3.96183
LJ           4.88995       -0.954495        -2.80722
LJ           4.94586        -2.17915          3.0546
LJ           5.46588       -0.474326        0.435463
LJ           5.43523        -5.25235        -3.79186
LJ          -1.48056        -5.28115        -5.55654
LJ           1.81875         2.75299        -1.48958
LJ          -4.48802        -3.75049       -0.959619
LJ           2.72051       -0.295543         5.98388
LJ          -3.27076         3.55106        -3.57733
LJ          -1.28808         5.28034          1.0068
LJ           4.17102         5.46974       -0.346369
LJ          -2.08982          3.8894          4.0359
LJ           1.85771          1.1998        -3.32472
LJ           1.91751        -3.04669          1.0676
LJ          -1.80539        -5.57666        -1.54188
LJ          -5.88484         4.22144         6.19321
LJ           4.75122       -0.783221         2.15115
LJ          -1.45397        -2.38589        -2.74751
LJ           5.78346        -5.14451        -1.20515
LJ          -4.54566         3.35006        -5.17581
LJ           2.77946         0.84747         3.39516
LJ          -4.39698        -5.48083        -2.63445
LJ          0.814264        -1.77293        -4.63506
LJ           4.21493        -4.43742        -6.21616
LJ           1.05134        -5.75945         2.23623
LJ           1.00777       -0.291998        0.129362
LJ          -3.41846         4.21242        -4.67714
LJ          0.439791        -5.52064         5.48156
LJ          -4.19785        -4.80555        -5.48582
LJ            4.6174        0.589085        0.838879
LJ          -5.77454        -3.42262        -2.61083
LJ           5.73548        -4.13659      -0.0135971
LJ            5.6297         2.48954        -1.14269
LJ         -0.334981        0.370038         2.11466
LJ           1.57094         5.82851         5.92973
LJ          -6.16778         0.46736        -2.60825
LJ         -0.781964         -2.6449        -4.52507
LJ          0.662787         1.03017         -4.9147
LJ          -2.53264        -3.06488        -2.25751
LJ           5.76389        -4.19673         2.35018
LJ           4.89296        -4.91272         5.67549
LJ           4.76948        -4.42539         1.45421
LJ          -6.05449         6.45579         5.19817
LJ            1.0394        -3.88474       0.0784739
LJ          0.977195        -1.82968        0.410439
LJ          -2.10761         3.26504       -0.214668
LJ           4.47743        -4.89496        -4.78698
LJ           4.90783        -4.73238       -0.810321
LJ          -5.18473         6.03792         -3.8784
LJ          -3.05714          4.4603         5.15248
LJ          -1.34398         1.02311          1.9984
LJ          -5.37685        0.911657        -1.57466
LJ          -3.62636         2.16312         4.60564
LJ            5.2239         5.87942        -1.70072
LJ           2.75726         4.72588         -4.7976
LJ           -1.1928        -4.08269         4.74359
LJ          -1.69105        0.347131        -5.00976
LJ          -4.77782         3.82461        -1.59459
LJ          -5.61517         2.96851        -3.68888
LJ           4.37234         5.93821        -2.68142
LJ            3.8746        -4.91467         5.15011
LJ           4.19974        -3.29125        -5.24235
LJ          -5.83752         6.12609         -1.0337
LJ          -4.77061         3.74463         4.20249
LJ          -2.06954        -3.72258         5.37031
LJ           1.31822        -3.75952        -4.57487
LJ           2.89095        -4.66078          4.2969
LJ          0.643618        -1.84648         5.69903
LJ          -4.03946        0.524708        -5.14608
LJ          -1.86793        -4.82864         3.55152
LJ          -2.81756           5.532        -3.25316
LJ            1.5318        -3.72921        -3.39168
LJ          -4.90064          6.4074         4.04421
LJ          -6.44024          0.9062         1.46871
LJ           3.16783       0.0870274        -5.49673
LJ           3.85518        -1.78846          5.6345
LJ         -0.195903        0.957236         4.12755
LJ          -6.08757        -3.32238         4.73823
LJ          -3.64708        -6.19664         2.51891
LJ           4.71667        -5.56433          3.1239
LJ          0.430314        -2.60298        -5.14837
LJ           4.26531         3.56712         3.52764
LJ          -3.52832         1.21718         5.18441
LJ           5.18524       -0.533941        -5.04243
LJ           3.69181       -0.633973         5.64679
LJ          -0.26789         4.35151         1.34311
LJ           4.85036         2.28755       -0.579622
LJ           4.22558          1.0812       -0.491458
LJ           5.38036        -1.30399       -0.535648
LJ       0.000238146         3.08618        -2.64431
LJ          -1.87626         4.69439        -5.65046
LJ           1.77929        -1.55014         5.35714
LJ           -6.0689        -2.26825       0.0745274
LJ          -4.76204         4.25549        -3.46775
LJ           2.62627        -4.05775          -3.153
LJ          -2.33981         1.53887         -6.1286
LJ           2.96358         1.41917        -4.21334
LJ            1.2382        0.747889       -0.959954
LJ           4.69221         5.06018         -4.1431
LJ          -2.19481         5.02967        -2.45856
LJ           1.11775         4.59299        -5.63701
