108
#Comment!
LJ           3.56192        -5.65469         1.91324
LJ           -5.4579        -4.90573         1.31085
LJ          -2.88414        0.406157         2.97618
LJ          -3.61234        -1.50891         1.93293
LJ           1.66501        -2.35577     -0.00236602
LJ          -5.85266        -6.14349        -5.97469
LJ         -0.465588        -3.15691         5.30772
LJ           5.75483        -2.20601        -5.20515
LJ            0.4454         6.11492         1.46239
LJ           1.58584        -2.53602          1.2389
LJ           6.45253         2.57372         4.90387
LJ          -2.96105        -3.44541          6.2019
LJ            3.0448         3.13122         4.27475
LJ          -1.40048        -1.24999        -0.85864
LJ          -4.79485        -4.59137        -5.90781
LJ          -3.01851         3.19349         1.73361
LJ           2.21452         6.15127         1.54074
LJ          -2.97726         3.24724        -1.14878
LJ           4.60998         -3.1639         4.41882
LJ           5.17789        -5.79443        -4.69862
LJ          -2.17111         1.12682         -1.9245
LJ          -1.55801        -2.08715         0.66347
LJ          -5.60861        -2.90827        -1.75068
LJ           3.32307         5.77882         1.69879
LJ           6.22208         5.75348         6.02969
LJ         -0.628243         3.59572          3.8949
LJ           2.55149         -1.0803        -4.96053
LJ           4.89177         2.52144        -3.26294
LJ           3.98249        -1.92175       -0.565416
LJ           4.40774         1.88222       -0.152406
LJ           2.27918        0.741854        -5.15883
LJ          -3.52139         1.45249        -2.31118
LJ          -1.21338         1.01987         3.25886
LJ           1.89562        0.529203        0.207179
LJ           1.80962        -2.93024        -2.72464
LJ          -2.59042        -1.80155         5.10973
LJ          0.145634        -5.87507         4.91688
LJ           0.76375       -0.829386       -0.220218
LJ          -0.12729       0.0553691         4.86704
LJ           -5.5274         3.85734         2.69424
LJ          -2.76932        0.959611       0.0666254
LJ           3.13393        -2.46809         1.03102
LJ          -3.23208        -2.26485        -3.62896
LJ           2.97038         2.46207       -0.479029
LJ           3.73564         4.63985        -2.05568
LJ         -0.909035      0.00799404         1.34056
LJ          -6.02846         4.54568         1.52796
LJ          -3.59864         1.31627         1.65191
LJ           3.65697         4.87179         1.75038
LJ           2.62496         4.74974         3.94326
LJ          -4.30118         2.48872         4.60304
LJ          0.840774       -0.973461         2.37977
LJ           -4.9987        -2.62255         2.29146
LJ           6.45297        -2.77887        0.621383
LJ           3.27998         6.06552       -0.423911
LJ          -3.56474        0.229564         5.13095
LJ            2.3261          2.1602         1.73996
LJ          -4.28957        -2.17767        -1.38857
LJ           2.78243        -2.84473        -1.75637
LJ           2.14337         4.90437         6.05167
LJ           3.16789        -4.00206         4.66301
LJ          -2.09254        -5.83644         4.36843
LJ           4.52996       -0.927192        0.330972
LJ          -1.87502         5.32087         2.64511
LJ           2.81703        -2.36673        -5.01729
LJ           1.21098        -1.73365        -6.00433
LJ           -4.9234       -0.545386       0.0491453
LJ          -4.65304         -4.1657        -3.29941
LJ           5.53957        -5.04529         4.14575
LJ           2.20976        -4.37325        -1.09362
LJ            5.3398        -5.52916        -1.41145
LJ          -1.90254        -1.14979        -4.32047
LJ          -4.93463         -5.6005         -1.1106
LJ          0.852634         4.03527         3.67155
LJ           2.05981        0.011199         5.34243
LJ           2.07591         2.04608        -1.17173
LJ           5.56967         2.60585         -5.0738
LJ          0.960418        -5.04245        -5.01891
LJ         -0.594988         4.32669         5.32546
LJ          -4.00281         5.32817         1.29539
LJ            4.7511        -1.39616       -0.922591
LJ         -0.149824        -1.56691         0.55504
LJ          -5.07741         6.09241        -6.28497
LJ          -5.59739       -0.409152        0.795639
LJ          -6.27164        -2.16692         6.44182
LJ         -0.223063       -0.270927        -6.18691
LJ          0.165781         2.87073         2.69648
LJ           5.26682        0.963614         1.19281
LJ          -3.98153         1.84185         2.66895
LJ           1.47128         1.13067        -2.51134
LJ          -1.85694        0.917572         5.33327
LJ          0.828196         6.06368        0.102018
LJ           1.17917        0.553794        -5.17109
LJ          -3.87923         3.57424         1.82773
LJ           1.99583         3.25606        -3.94841
LJ           1.06587         5.92953         5.97548
LJ           4.01394         3.96569        0.687965
LJ           4.96788        -2.97378        -5.49326
LJ           1.72588         3.19341        -1.09441
LJ            2.5596         2.80606        -6.19686
LJ           4.12857         4.45428         -5.8289
LJ          -3.05468        -5.19386         4.27873
LJ           -4.6333         2.08568        -3.31443
LJ            3.4996         1.62627        0.704414
LJ           6.29014         0.24761         1.60857
LJ          -5.30984         2.39844        -5.66726
LJ           -4.9126         3.27756        -3.85646
LJ          0.858596       -0.120824        -1.43302
