108
#Comment!
LJ          -5.42518        -1.41905        -5.86033
LJ           1.03504         1.53274        -4.04939
LJ          0.791655         2.65653        -3.30054
LJ          -4.59806          1.0822        -1.88875
LJ          -4.62995        -3.14893        -3.23945
LJ           -3.5958         4.37501          3.5402
LJ           -5.8209         5.17706        0.709498
LJ           5.06789       -0.404509         -6.0103
LJ           3.97875        -2.10729        -6.46256
LJ         -0.503367      -0.0852938        -3.36558
LJ           3.98985        -4.03899        -2.12334
LJ          0.825631          3.1546         -1.9309
LJ           5.52444         6.45875         3.71338
LJ          -1.54175        -4.65837         -2.0907
LJ         0.0628519         2.00254        -4.46518
LJ           -5.8787        -4.24407        -2.76693
LJ          -4.53793        -4.62327         0.85725
LJ          -5.80808        0.415868         4.22567
LJ           2.93935        -6.09578         5.24029
LJ           2.69915        -3.23796          1.3738
LJ           4.09746          1.5198         3.71606
LJ           -2.3836        0.422026        -5.37767
LJ          -4.58999         4.58762        0.865939
LJ           -5.9769        -2.04483          6.4375
LJ          -6.41037        -2.44135         -2.7254
LJ           1.05783         -4.8249         2.60609
LJ          -1.41081       -0.112974        -5.62644
LJ           3.61131        -5.28955        -1.80419
LJ          0.462017         4.49471         3.05095
LJ         -0.663524         -4.8249         5.74122
LJ          -3.50638        0.320402        0.458077
LJ          0.892715        -3.63904         1.11085
LJ           5.91814         -5.0047       -0.874918
LJ          -1.61118        -5.82178        -3.19445
LJ          -0.61112         5.45089        -3.96315
LJ           3.14826         2.48994        -4.86077
LJ           1.65939        -4.55206         5.67413
LJ          -5.37122         2.34713        -2.22224
LJ           3.08636        -2.51761         5.83224
LJ           1.61215        -5.91217       -0.742604
LJ          -6.31925         4.43485        -5.99505
LJ          -6.29011         1.85827         5.09048
LJ           4.08909        -3.77759       -0.831776
LJ          -1.52351        -1.56979        -5.30706
LJ           5.37352         -3.8395        -4.03687
LJ          -3.37815        -3.73797         -5.1775
LJ           6.41821        -4.29308         4.16275
LJ          -1.26179        -3.39718         2.98299
LJ           1.92873         6.31728        -1.64959
LJ           2.72839         2.37756          1.1462
LJ          0.437344        -1.30329         4.06031
LJ           1.54829        -4.89394        -6.04349
LJ          -0.53657         4.15089         1.92843
LJ           1.06124         6.13527         -2.4893
LJ          -2.45044         3.76103         2.13157
LJ           6.44164        -1.19342         2.56209
LJ          -2.11836        0.368976         3.00809
LJ          -2.94036        -2.85413        -3.49505
LJ          -2.18266        -1.19385        -6.19653
LJ          0.413316         4.68326        -4.92695
LJ          -4.53228         5.50917         1.73481
LJ           4.86579         6.31784        -1.89502
LJ             4.596        -5.33208         1.77134
LJ          -2.61111         4.34142       -0.101561
LJ           4.09385       -0.638718        -4.08921
LJ          -3.94238         5.95939         4.96691
LJ          -3.29359        -3.85384         0.86099
LJ            6.1153        -5.56063         0.24234
LJ          -6.44569         2.61672         1.97112
LJ           -4.5406          3.0691        -0.14155
LJ          -5.16621        0.292406         5.47849
LJ          -4.39896         2.18552        -1.71786
LJ           5.99436        -3.01598       0.0456806
LJ          -5.67022        -3.61612        -1.31265
LJ          -5.04573        -2.79636        -1.79856
LJ          -3.99376        -5.31165        -5.85577
LJ           3.94379        -2.94381        -5.49295
LJ           2.36444        -5.41983        -2.24342
LJ           6.27083         1.28886         3.09554
LJ           5.39127        0.995809        -2.43162
LJ           2.76337       0.0946809        -4.17896
LJ        -0.0285363         2.11281         4.43728
LJ           3.82241        0.486279        0.170173
LJ           -2.4346         5.80342       -0.116031
LJ          -4.08673        0.170559        -1.91193
LJ          -5.68619         5.27014        -6.39003
LJ           1.75576         1.60951         5.83791
LJ           1.48807         3.65729         2.67329
LJ           0.63716        -2.73179        -4.79571
LJ          -1.55546        -5.24684          6.2803
LJ           3.81664           1.408        -3.08272
LJ          -3.90499        -1.64559        -5.28504
LJ          -2.09994        -1.13569        -4.35101
LJ           2.23472        -4.50386        -2.60759
LJ          0.938247        -6.25151         5.27968
LJ           2.78385         1.84769        -3.14889
LJ          -2.30964         1.77028         2.91746
LJ          0.113469         6.16632      -0.0978519
LJ          -2.45574        -5.84508         1.83971
LJ         -0.253092         3.74403        -4.37054
LJ         -0.939708         5.39651         2.81619
LJ          -4.77865        -1.73246        -4.44381
LJ           2.52775        -2.39446        0.327575
LJ          -3.64481       -0.758983       -0.397423
LJ           3.18251        -4.35878        0.488832
LJ          -1.30886        -2.81157        -2.45993
LJ           3.59619        -2.93061        0.475548
LJ          -4.33611         3.74248        -3.21164
