108
#Comment!
LJ            4.3743       -0.758267        -2.80618
LJ           3.39379        -4.70151        -3.73075
LJ           3.78117        -3.02056        -2.81671
LJ           4.66276        -2.78334         4.53435
LJ          -2.97795        -3.00828        -5.86138
LJ          -4.38577        -5.25594        -5.33945
LJ           3.11901        -4.07852         5.16645
LJ          -5.96608        -5.40174        -5.06777
LJ          -4.30954        -3.64374          2.0627
LJ           6.03747         4.41231         2.49643
LJ           1.91774        -4.68865        -2.01734
LJ           6.06938         4.75323         6.15776
LJ         0.0910691         5.64182        0.619114
LJ          -6.38337        -6.44069         2.65544
LJ          -5.85152        0.775824        -6.37485
LJ           1.68947         4.64799         5.78862
LJ           4.38147       -0.511676        -1.07742
LJ           4.65878         5.61896        -4.24406
LJ          -4.83292          6.2853         4.72295
LJ          -3.79325          4.1685        -3.57207
LJ           4.05291        -4.82335        -5.12851
LJ           -2.7708         5.42854       -0.181186
LJ           6.08433       -0.269493         1.58563
LJ          -3.63832        -1.97528         4.59181
LJ          0.377733        -3.29747        -1.42816
LJ          -5.55477         3.61858       -0.459802
LJ           3.53231        0.201184         3.13508
LJ           5.02935        -5.46304         1.86386
LJ           3.33845         1.85759        -3.18306
LJ          -5.64683          3.2733        -1.62736
LJ         -0.730001        -1.27947        -3.36776
LJ           4.92545        -2.57616        -1.69784
LJ          -6.05975        0.569117        -1.43166
LJ           6.31869        -3.16821        -1.46276
LJ           3.74577          4.0192          1.0583
LJ          -5.79063        -5.71683        -3.83215
LJ           2.65118        -2.06514         2.59115
LJ          -6.17669        -2.03843        -5.77485
LJ           4.81143        -6.05906         5.20167
LJ          0.449147       -0.284799         1.55314
LJ           6.07137         6.13833        -6.23689
LJ          -2.79586        -1.37457         3.99555
LJ           1.45797         1.68753         2.95659
LJ          -3.15853         3.14771         0.12577
LJ          -3.26623       0.0122274        -4.71127
LJ           5.39902        -5.89757         1.02393
LJ          -5.82905         3.88601         5.60169
LJ           4.96456        -3.30332        -6.24417
LJ           2.98515        -5.35391        -4.77965
LJ           4.98049        -5.01548         5.18048
LJ          -2.87009         3.59719         2.51313
LJ           -1.9715       -0.712092          1.2403
LJ          -1.84852       -0.978933        -2.82105
LJ          -6.19731        -3.69641        -2.30346
LJ          -2.13921         2.15457        0.586876
LJ           0.47626        -4.67745         4.33439
LJ         -0.901174         2.89374       -0.686812
LJ           2.94391         3.66432         6.36946
LJ           2.22297         6.22972         4.60735
LJ           2.12948        -5.87957          2.6589
LJ          -2.74932         4.35161        -3.65591
LJ          -4.29104         5.74757       -0.487856
LJ          -4.60782         5.57793        -4.11779
LJ            2.6847       -0.681438         2.15908
LJ           3.83006        -2.41361        -3.60354
LJ          -2.33683         4.61422         1.15423
LJ          -2.43418        -3.72422        -2.35232
LJ           2.35402         1.41155        0.689416
LJ           3.86332         2.22101         5.96041
LJ             4.683        0.284806         -2.1971
LJ          -4.80221        -1.58434        -3.60348
LJ          0.207722        0.213929        -5.51008
LJ          0.960507         5.41753         3.11614
LJ          -4.08378        -2.30568         2.07986
LJ          -3.43306        -5.08886         4.31401
LJ          -5.91365         2.78064        -2.57374
LJ           4.50966         2.09336        -2.70023
LJ             5.353         2.80519        -3.92602
LJ           2.86431        -2.46626         1.11556
LJ          0.805437         0.72148         5.36951
LJ          -5.64423       -0.327223          1.0472
LJ          -6.09898       -0.752344         2.63156
LJ           6.13515        -5.30035         4.72014
LJ           6.11521         3.80726         4.93652
LJ          -6.24805         2.79961        -3.94769
LJ           1.40835        -4.24303         2.86028
LJ          -6.31455        0.304266         3.84225
LJ          -5.84743         5.13914        -4.93275
LJ         -0.900502         1.12997        -6.27249
LJ         -0.488884         2.39018        -3.21627
LJ           6.00452         4.96362         0.58905
LJ           2.65457          2.7427         4.40896
LJ          -4.11546       -0.383099        -2.87614
LJ          0.552339        -5.69833        -1.64741
LJ          -1.01745         2.63762         3.79795
LJ          -2.15049         -6.3241        -1.28774
LJ          -2.04311         5.61875        -3.03483
LJ         -0.739543        -5.68989        -5.08529
LJ           1.43797         1.11099       0.0794563
LJ          -3.38442            5.96         1.49862
LJ           6.05696       -0.370783        -5.81146
LJ           1.39295        -2.75583        -6.20555
LJ            3.8464          1.5061         2.53481
LJ          -3.16281        -4.38258       -0.622791
LJ           2.80341         1.25038         1.77465
LJ           -1.2439         5.20736          2.6956
LJ           1.44658        -1.86101         3.85385
LJ          -4.70995          4.0347        -4.39389
