108
#Comment!
LJ           4.73587        -1.80709         4.13802
LJ           5.25675         1.31648         3.65153
LJ           4.42019         -2.4859         -2.1611
LJ           4.49304         1.24731       -0.737669
LJ           4.62776        -1.42012         5.21296
LJ          0.602442         -3.0137        -1.38869
LJ          -5.04648        -4.39327        -5.32015
LJ          -2.95348        -5.97185         4.38869
LJ           2.46055         5.68258       -0.491128
LJ          -6.24101        -2.25981         2.29142
LJ         -0.458177        -6.23815         3.53925
LJ           1.62692       -0.809725        -4.70652
LJ          0.924035        -3.83146        -6.22269
LJ           4.36839        -2.59853         6.15891
LJ          -5.81042         2.24502        0.412862
LJ          -4.28345         4.73777         2.72365
LJ            4.6293         6.29852         1.86253
LJ          0.102744         1.93393        -1.97394
LJ          -3.76599         0.80767        -2.85178
LJ         -0.254008          2.1638        -4.45271
LJ          -4.84221        -3.68102         1.55583
LJ          0.676022          3.7673         6.39874
LJ         -0.908887         3.38562        -5.91848
LJ          0.646922        -3.26045        -5.36502
LJ         -0.434955         5.59576         6.08184
LJ          -4.77513         4.95296        -5.02913
LJ           3.36146         5.11687          2.4923
LJ           2.04626        -2.56213        -4.67939
LJ           2.10841        -5.30644       -0.299069
LJ            3.3374        -5.91189        -1.10913
LJ          0.480876        -3.19187         2.18851
LJ         -0.512722         6.01999       -0.904382
LJ            2.1367        -1.53627          6.0123
LJ           3.73589         0.74336        -2.64125
LJ           -5.9135          5.7807        -2.09735
LJ         -0.721124        -5.14349         1.89491
LJ           3.66139        -1.43253         2.03472
LJ          0.880637       -0.845094        0.480812
LJ           4.61605        -4.48542         3.66018
LJ           5.19177         5.16068        -3.24454
LJ          -4.80004         2.37338       -0.186398
LJ           2.57688         1.68294       -0.405211
LJ           -2.6174        -4.89933         4.54357
LJ          -5.07477         5.08066        0.500584
LJ          -3.76021        -4.21029          3.7864
LJ          -4.80637         3.05801         2.73185
LJ          -2.69074          -1.994        -5.93394
LJ           5.84903        -2.92375       -0.532091
LJ           1.06137        -5.36156         5.32968
LJ           2.97675        -3.78547        -1.46936
LJ           6.33412        -3.71427          4.1699
LJ         -0.184456        0.875957         1.37828
LJ           3.28553         3.61119        -2.50383
LJ          -6.29011         3.56672         3.22419
LJ           5.53155        -4.98903          5.1958
LJ          0.934885          5.9909         1.43583
LJ           2.54237         3.83333        -3.98041
LJ           2.51777         4.84625         3.18313
LJ           2.03509        -5.42202         2.82132
LJ          -5.04343          5.4683        -3.02742
LJ           4.35281       -0.233146         4.60488
LJ         -0.110168         5.09118         2.17563
LJ           2.02517        -5.84219        -1.88901
LJ          -1.69971        -3.75857       -0.260413
LJ           6.26051       -0.404048        -2.47548
LJ            2.1968         3.35962         5.73929
LJ          -6.15235        -1.06708        -3.45072
LJ           -6.3656        0.494992        0.403166
LJ          -3.03415         -3.8502        -5.42821
LJ         -0.048477      0.00204353          3.2169
LJ           3.57086         2.32761         3.49357
LJ            6.1415        -6.38157         1.62723
LJ           1.64949         1.77787         6.20365
LJ          -0.35015        -1.60702         3.48144
LJ           5.06002         4.57969         1.30525
LJ           5.29479        -1.58361         5.96513
LJ        -0.0580435        -1.31413        -1.30941
LJ          -2.58647         4.96636       -0.164803
LJ          -5.51076         3.63692        0.408513
LJ          -5.34061        -2.08286        -0.13309
LJ          -5.30927        -5.19711         6.29722
LJ            2.8414       -0.618732         -1.9125
LJ          -5.68217        -2.58457        -1.06053
LJ           1.27457         1.15943        -2.54599
LJ         -0.592766          2.9258       -0.610001
LJ           2.72348         2.15247        -3.90729
LJ          -5.06815       -0.722248        -1.99738
LJ           5.44597        -3.89994         5.97531
LJ           2.44514        -4.00612        -5.63004
LJ          -4.37028         3.52828        -5.48335
LJ          -2.31949        -0.63777         5.62688
LJ           5.34098         -4.7991         3.17034
LJ           5.82419        -2.17494        0.215857
LJ          -1.12555        0.887845         2.56143
LJ           2.23915        -6.24855        -3.07531
LJ          -5.24893         3.96298         3.68942
LJ           2.45957          -6.188         4.26534
LJ            -2.953        -5.19681         3.66651
LJ         -0.280798        -2.51412        -5.78572
LJ          -2.92341         1.71521        -4.93285
LJ          -4.11765        -4.09976        -3.46228
LJ          -5.75597         4.85797         5.08678
LJ         -0.710813        -3.85827         4.06127
LJ             2.943        -4.73009         2.91712
LJ           2.36117        -2.23159         5.34218
LJ           2.01939         3.92479         2.24223
LJ           6.20639        -3.05125         6.07521
LJ          -6.01615          -5.753        -5.49573
