108
#Comment!
LJ          -5.60319         6.32319         3.57173
LJ           5.95335         4.17404        -3.89361
LJ           1.04741         6.14429         3.89293
LJ          -6.21111         1.24477        -6.37407
LJ           1.36103        0.554166         0.53646
LJ          -6.15825         4.18971        -2.94138
LJ            2.0396         4.29571       -0.917476
LJ           3.54807         1.03754         4.44247
LJ           5.07015        -5.04284         -3.9461
LJ          -1.76335         3.66833       -0.691883
LJ           5.31441         1.12726         -6.4189
LJ           -4.7774        0.999259        -3.19643
LJ           2.77688        -4.95293        -1.28907
LJ           2.49051         1.35327         5.95053
LJ          -2.35328          6.2668        -3.70784
LJ          -5.76818         5.42902        -3.18763
LJ           2.57557        -4.00373        -2.38057
LJ           -1.2794        -2.18286        -4.30225
LJ          -3.09581        -1.84128         5.17598
LJ           -3.6195       -0.158374         5.31099
LJ          -5.69278         4.70495         4.29368
LJ            1.2142        -2.17494         5.50232
LJ           1.48691         -5.1915       0.0974951
LJ          -3.48229        -2.50929        0.320209
LJ            -4.242       -0.717213        -3.03943
LJ           1.14275       -0.961525        0.661504
LJ           4.27812         -1.1877        -4.40086
LJ           4.41363        -4.55387         4.46675
LJ           2.26085        -4.64416         5.36635
LJ          0.749633        -2.19829         2.34905
LJ           -3.7813          6.0214        -2.06208
LJ          -5.55177         4.94098        -5.87107
LJ          -4.97847        -2.92754        -1.86537
LJ           4.72463         -3.0568       -0.136569
LJ             1.553        -5.16268         4.46392
LJ          -2.49761        -1.83015        -4.23732
LJ          0.348945         1.09392         -2.2642
LJ           5.95879        -3.48692         -5.0316
LJ          0.454426          3.7224        -2.75008
LJ           4.84953         -3.8667        -3.61705
LJ           3.55513        -5.94888        0.305193
LJ          0.727726         -2.9118         4.53062
LJ           3.65614        -1.27543       -0.917016
LJ          -5.98548        -2.64526        0.530692
LJ           5.82645       -0.193394         -1.8772
LJ         -0.191794        -4.87327        -5.66603
LJ         -0.283005       0.0406215       -0.276416
LJ           5.59206        -3.38558         4.25116
LJ           3.55371       -0.182151        -1.93278
LJ            -2.804         -2.0752        -6.41489
LJ         -0.296424         2.76374        -5.90401
LJ           1.23176        -4.16231        0.511539
LJ        0.00820701          1.5012         4.26561
LJ          -4.28659       -0.968186         4.76828
LJ          -2.62606        -3.53633         3.20171
LJ          -2.87395        -2.73268         -3.9844
LJ           3.73101        -4.70762         6.25424
LJ            6.4284          2.8027         3.27237
LJ           5.68155        -4.49459      -0.0138308
LJ          -4.27865        -2.38052         3.10651
LJ           1.44972        -3.99564          -2.073
LJ           1.69422         1.98963        -1.93901
LJ            3.9411        -6.35575        -2.17542
LJ         -0.535198         2.19854         5.78924
LJ          -1.79139        -6.07542         4.25487
LJ          -3.15598         6.29165        -3.18404
LJ           2.00512       -0.607309         3.85726
LJ         -0.166045        0.695133         2.97468
LJ          -2.36476        -3.73696         1.22322
LJ           2.31554        -3.50604        -4.32179
LJ         -0.327861         2.65515          4.5252
LJ           0.80938       -0.318794         1.27906
LJ          -1.51409        -1.89696         2.58902
LJ           5.72402        -5.66692        -5.74543
LJ           1.13593         0.13299         3.78033
LJ           3.34872         -1.2065         2.29152
LJ          -6.09284         6.17799        -1.90946
LJ           5.10281        0.795463       0.0429592
LJ           -5.2885         6.37146         1.51883
LJ          0.752364         3.46101         4.47635
LJ           6.07438         1.95898        -5.97651
LJ          0.490524        -1.88963        0.113912
LJ           4.17784        -1.81046         4.09613
LJ          -5.18339         5.78228        -4.04613
LJ           5.10987        -2.21282        -1.15638
LJ           1.23763        0.565083        -5.35718
LJ          -2.13119          -4.194         5.62534
LJ           1.52619         6.24828         -2.0704
LJ          0.738878        -2.80539        -5.92301
LJ          -1.39916        -2.68385         6.25782
LJ          -5.32638        -4.78044        -2.58609
LJ           4.60526         6.06533         2.09237
LJ           1.14074         3.67426         5.63452
LJ          -4.42747        -2.51635        0.908826
LJ          -2.62982        -2.64275        -5.38657
LJ           4.75699        -4.54082        -6.28867
LJ          -1.65533        -1.45426          6.0366
LJ            5.0699         2.72067        -4.08942
LJ          0.778474         1.96274        -1.59013
LJ          -5.51072        -4.52424          5.0278
LJ          -1.40584        -4.02499        -4.46375
LJ          -4.85277         4.68271        -4.82871
LJ           3.74435        -1.94847         5.49492
LJ           4.22091        -4.83383         2.27641
LJ           2.20477         5.56966         1.10866
LJ           1.55456        -4.67053        -3.40245
LJ           4.66793        -5.36911         3.93009
LJ           2.82679         2.86659         5.73283
