108
#Comment!
LJ           2.27801        -1.08812         3.10414
LJ           4.41869         1.68895         1.50482
LJ           6.39861        -3.70585         -1.9375
LJ          -2.95018        -3.26812         5.90834
LJ           5.36844        -5.02459         5.69164
LJ           4.93582        -4.01574         3.66188
LJ            2.4656         -1.8155       -0.195599
LJ           4.89872        -6.46034        0.585749
LJ          -2.25379         4.09187         3.58686
LJ         0.0234998       -0.889004        -4.19812
LJ          -4.54453         5.13991         4.29635
LJ          -6.24836        0.961408        -2.38385
LJ          -5.74363        0.720275         1.14776
LJ           4.47495         3.34914         6.09693
LJ           1.95397       -0.918181       -0.527639
LJ          -4.73717        -5.92203         4.38135
LJ          -6.34979        -4.49977         1.81805
LJ           3.61637        -6.31247         -1.7084
LJ          -2.21148         4.13595        -1.40615
LJ            4.5595         1.98491        -1.84208
LJ           3.27712        -0.45853         2.96725
LJ          -0.67209        -6.19838        -1.58162
LJ          -6.31631       -0.390766         3.39331
LJ          -2.55365        0.751345         2.56192
LJ          -2.90377         4.37251       0.0390367
LJ           4.21563        -4.09208          6.0815
LJ          -2.87522         3.27985       -0.297682
LJ          -2.73786         2.39232         1.86198
LJ           1.09955         2.89014         5.33436
LJ          -2.67318        -1.70069          4.2646
LJ           4.70442        -1.74819         5.68286
LJ           5.64405         -5.6448         2.12208
LJ           1.59519        -2.91676         6.19872
LJ         -0.449137        -1.06118          2.9817
LJ          -2.47352         4.85101         5.31139
LJ          -5.73051        -6.14994         3.90803
LJ          -4.56841         1.11387         2.70184
LJ          -2.42546         1.21207         1.59516
LJ           2.16497        0.411712         4.43186
LJ            2.2104       -0.542991         2.05892
LJ           4.66012         3.75534       -0.837796
LJ          0.215125        -3.88582        -1.98275
LJ           1.59299         -1.8992         4.83207
LJ         -0.322659       0.0411461         -1.5538
LJ          -4.99183         -1.3754         1.65002
LJ          -3.85268        -4.91056         1.97917
LJ          -4.28016         4.76433        -3.56332
LJ          -5.98014        -2.20511         2.39663
LJ         -0.277781       -0.546293         1.01329
LJ          0.834221        -4.14411         -3.3102
LJ           3.46516         2.09711        -4.77547
LJ         -0.947002         1.62011        0.142345
LJ           5.37313        -1.42515         1.88875
LJ           4.82334        0.200135       -0.852611
LJ          -6.42153         2.67939       -0.863492
LJ           6.22195          4.9573        -6.16708
LJ          -3.03873        -3.22083        -2.72896
LJ           5.84627         3.41979         4.62485
LJ           4.37414        -1.00736        -6.44686
LJ          -3.40827        -5.86626        0.683854
LJ          -4.25536         3.03951         -1.1728
LJ          -3.38676         1.75522         2.87984
LJ          -3.58582        0.396892         2.41487
LJ          -3.83283        -5.64696         3.41004
LJ           -2.8776        -4.69643         -6.4162
LJ          -2.93549         -2.7423         4.73788
LJ          -4.02823         5.26155         2.66327
LJ         -0.320977          1.0225        -2.30637
LJ          0.785462         1.75967         4.70131
LJ          0.336791      -0.0598348        -4.56847
LJ           5.23796        0.182097         2.50735
LJ           5.29317        -2.80583         2.06669
LJ           5.36615         -1.4036        -5.97167
LJ           3.25854         6.05157         3.51954
LJ           2.88396         2.92973        -2.66351
LJ           1.30935          2.4834         3.70777
LJ          0.161724          1.7864         -3.5418
LJ          -6.00395        -1.28193          1.3583
LJ         -0.486498         6.27665        -3.15665
LJ          -3.51225         1.10125         4.00552
LJ          -2.62876        -2.98309        -1.31108
LJ          0.741563        -3.78006         2.25669
LJ          -6.19917        -3.25753       -0.605476
LJ           -3.7898         1.61717          1.7037
LJ          -4.66616        0.518267         3.54508
LJ         -0.209829      -0.0464129         4.49383
LJ         -0.798223       0.0320134         2.90058
LJ         -0.542773        -2.97887         2.40634
LJ          -2.78063        -1.91303        -2.54519
LJ           3.26411        -2.37199         2.51193
LJ           1.61241         1.18972         4.33972
LJ         -0.401287       0.0665889        -2.63932
LJ           3.58267          1.8799          -6.362
LJ          -5.27566         5.76235        -4.54268
LJ          -5.73916        -4.71922        -5.92514
LJ          0.658268        0.338533         1.16232
LJ           3.00771       0.0152904         -3.2619
LJ           1.22962        -5.99657         5.36898
LJ          -5.36579      -0.0819444         4.10022
LJ          -5.97542         -1.7763         -2.5393
LJ            1.4168         1.59395         -0.9922
LJ          -5.82174         4.89938        -4.39596
LJ           1.75185         3.24337         2.56786
LJ          -1.30941         6.18355        -3.74395
LJ          -1.10053         1.32665        -4.43288
LJ          0.745392         4.57826        -1.61271
LJ           1.74569        -0.12453        -2.46994
LJ           4.15056        -1.52886        0.685946
