108
#Comment!
LJ          -1.99443         3.47125         -5.2029
LJ          -5.84748        -4.11648       -0.621704
LJ           3.76909      -0.0151463         1.19169
LJ           1.15132         6.23622         5.27146
LJ           5.51627        -6.10133        -3.26298
LJ           2.82874         4.18261         2.21655
LJ          -5.01026         1.80464        -1.30462
LJ          -2.22566         5.10612        -2.18783
LJ          -5.66819         6.03436         1.52939
LJ          -2.04603        -1.81284         1.10055
LJ          -5.39967         5.73431        -5.85487
LJ           5.47154         2.33551         5.34063
LJ          -5.54047        -1.74177       -0.657655
LJ          -6.16946         5.01899         2.24291
LJ          -1.18973       -0.257852        -4.16661
LJ          -2.11905        0.111774         4.11357
LJ          -4.26561         5.46881         2.22921
LJ           4.22459         1.53024         5.61594
LJ          -1.82856         1.80263        -4.73114
LJ          -6.25675         5.64532         -2.7172
LJ           5.37949         2.59186        -4.90006
LJ          -1.61623         2.22188         4.65945
LJ          -4.10659        -4.61851         4.34513
LJ          -1.39577         3.11771        -4.24923
LJ           4.86151         5.15388        -3.94226
LJ          -3.99786        -5.68383         5.85569
LJ          -5.14712        -2.11788         1.79224
LJ            2.5795         1.05051       -0.807386
LJ          -5.66723        -5.47409         1.78509
LJ          -5.10476        -6.43967         6.12284
LJ           2.11925       -0.656599         4.76674
LJ           3.63186        0.555108        -5.28888
LJ          -3.27628         6.13989         -5.7942
LJ           3.75559        0.112752        -2.30147
LJ          0.641564        -1.14797        -5.89304
LJ          -1.21778      -0.0641361          -1.431
LJ          -1.13549         -4.7966       -0.919888
LJ          -4.43073         -3.6051         5.95734
LJ          -4.08741         4.10956        -2.93457
LJ           -5.1742          6.3529         2.50178
LJ         -0.814662       -0.255547         2.03575
LJ          -3.97149       -0.838025        -1.87934
LJ           4.57458        -4.06256       0.0814418
LJ         -0.811073         -2.8484         2.24305
LJ           3.73918        -4.30309        -4.50837
LJ           2.05164         3.14065        0.915166
LJ          -2.96401         4.40209        -6.13312
LJ          -1.43868        -3.94243         2.98635
LJ           4.39526         5.53235        -2.18557
LJ          -1.87717        -4.15096          4.5136
LJ          -1.93559         3.92006       0.0195516
LJ           3.55424       -0.983596         3.59191
LJ          -4.89087        -2.06955         3.84862
LJ          -5.34578         5.43764         3.56218
LJ           2.31534         2.89027       -0.692222
LJ          -1.05426        -2.71016         5.64315
LJ           1.91325         2.01565        -3.39009
LJ          0.445335        -4.53604       -0.387742
LJ          -6.32977          4.0662          3.7856
LJ          -2.42503         2.95983          2.9841
LJ           4.48162         5.08309        -6.32298
LJ         -0.490931        0.842318         3.90263
LJ           6.13683         2.42041        -1.35857
LJ          -1.38727         1.68788         3.76401
LJ           6.26382        -4.62801        0.628126
LJ          -0.26284          1.5929        -1.37367
LJ           3.50657        -1.01828        -2.65386
LJ           4.10753         4.37325        -4.48037
LJ          -5.53273         2.05173         0.81165
LJ           4.31208         1.36912        -2.80718
LJ          -6.20372        -3.40167         1.63048
LJ           3.89405        -1.27719        0.667956
LJ         -0.561502        -1.49877        -2.86958
LJ          -6.05643        -6.22873        -1.62213
LJ           1.95989        -5.70248       -0.110182
LJ          -4.63173         5.32496        -2.91333
LJ           6.14635         6.27666         2.23597
LJ          -5.00852         3.75501        -3.12037
LJ           1.77765        -1.54456         3.69943
LJ           1.38713        -4.66917        0.408302
LJ           5.09862        -5.83261         1.05184
LJ          -1.41161         5.82102        -2.19599
LJ           2.88259         1.53609         5.57681
LJ           3.50939        -1.23268       -0.895072
LJ            -1.648         2.95423       -0.381797
LJ          -5.25734        -5.41889         4.67444
LJ        -0.0563244         1.78068         6.41396
LJ          -3.71421         6.40275        -1.13269
LJ          -3.56813      0.00827676        -1.87579
LJ          0.173502        -6.18323         5.44416
LJ          -2.73265         -2.2764        0.534533
LJ          -3.13429        -2.73789         5.82535
LJ          -1.06928        -3.85828         5.90065
LJ          -5.67154        -5.38179       -0.990869
LJ          -4.47229         0.78575        -5.54802
LJ          0.526167         3.05777         3.06226
LJ           3.84323         3.30541        -4.84103
LJ           6.09071         3.51071        -2.67061
LJ          -5.50258         4.52613          3.2884
LJ         -0.529579         4.72745         5.48828
LJ          -5.08736         3.21851         6.26625
LJ         -0.160564         2.15459        0.939292
LJ           5.34712         3.90633        -5.25182
LJ            5.2616        0.680379        -1.12061
LJ          -5.06372        -1.16256        -5.59618
LJ          -5.68572         5.38955         4.79774
LJ          -4.46503        0.809044        -3.85275
LJ           1.51347        -2.45797         5.45331
