108
#Comment!
LJ          -4.88122         1.30948         -5.9455
LJ          -3.11929         2.27865        -1.63886
LJ          -1.08722        -4.76318        -5.47639
LJ            2.4633         5.80536       0.0109202
LJ           2.84242        -2.74009         1.59911
LJ          -2.52001         1.34663        -1.72168
LJ          -5.78829         3.77634       -0.643478
LJ           -5.8639        -1.55256         5.96348
LJ          -5.90582        -4.62045         2.18314
LJ           6.30617         2.38789      -0.0677246
LJ           3.77197       -0.959379        -2.71396
LJ           1.86682        0.245082         -1.3581
LJ           2.04088       -0.343019        -4.35764
LJ          -5.63577         5.17296         1.53872
LJ           3.68833        -4.66007          4.5082
LJ          -2.36317        -5.81478         6.27804
LJ          0.262033        -4.33976        -6.34574
LJ           4.76346        -2.09776        -2.14958
LJ          -0.31186        -1.59798          2.9079
LJ          -2.21479         1.01987         1.74817
LJ           5.16615        -4.96922        -5.79571
LJ          -1.00724        -4.12729         2.91521
LJ           4.36032         3.94688         -5.4556
LJ         -0.162613         5.62358         -2.6742
LJ          -1.44568         3.76156         2.44148
LJ            3.0622         2.89632         5.73974
LJ           -6.3012        -4.29905        0.866104
LJ           2.18725         6.16353        -1.44251
LJ           3.73822        -4.31956        0.265349
LJ          -1.89014        -2.39907        -1.70601
LJ           -5.8019        -5.49163        -0.57951
LJ           4.84554        -1.02657         5.92883
LJ         -0.380985        -3.46716        0.959341
LJ           2.83193        0.331954        0.164786
LJ          0.815569       -0.928572        -5.62274
LJ          0.022291        -1.70808         1.86641
LJ         -0.771319         1.46357         6.17741
LJ          -2.28426         1.04394        -4.22843
LJ         -0.737569        -2.67982       -0.679055
LJ            -3.901        -5.58823        -5.99878
LJ         -0.241122        -6.46325        -5.25341
LJ          -4.23889        -4.77012        -1.53761
LJ            4.7351        -2.95813         1.94896
LJ           4.15448        -3.10748        -5.29936
LJ           2.64648         3.36339        -1.77774
LJ          0.373767         1.93028         3.10495
LJ           3.42839         1.19016        -1.68725
LJ          -2.84019        -3.31433        -1.45187
LJ           5.53114        -3.92919        -4.51419
LJ          -5.30827         5.58933        -4.36939
LJ          -5.75775        -1.96821        -5.76661
LJ          -4.86427        -5.60217         3.14498
LJ          -1.09299        -5.83915        0.982677
LJ          -4.11051          2.1349       -0.620267
LJ           3.71182         2.76002         4.70654
LJ          -2.21637        -2.74805        -6.08786
LJ           2.52103        -2.62156         3.30943
LJ          -5.03231         1.06849        -2.86176
LJ          -5.62905        -2.59592       0.0632833
LJ        -0.0828564        -4.75947       -0.755708
LJ          -4.32362        -2.67746        -3.69411
LJ           5.55765          1.6414        -5.52593
LJ           6.25289       -0.688668        -1.50541
LJ           3.29777           2.275        -4.76356
LJ          -4.68289         2.15714        0.695015
LJ          -2.07501        -3.28497        -3.16346
LJ          -4.88831        -2.32194        -1.26128
LJ           3.07164        -4.29836        -3.18502
LJ          -6.01999        -3.23997         3.28188
LJ           4.64692         2.34872        -6.08009
LJ          0.185675         4.47201         1.21475
LJ          -3.64622        -1.73264         3.38435
LJ          0.562549         -0.2849         4.53721
LJ          -4.27305         -5.3916         5.81572
LJ           1.61051         4.42827        -5.59265
LJ          0.518274       -0.584739        -2.44382
LJ           2.93184         -1.4564        -4.63569
LJ          -2.16398         -4.6807         4.05044
LJ          -4.85454         4.99496        -1.06344
LJ          -2.03099        -4.50995         2.66604
LJ           5.30322         -1.4203       -0.648922
LJ         -0.328893       -0.749076         4.49622
LJ           1.78179         3.22019         4.85947
LJ          -1.24089         5.47525        0.300077
LJ          0.939745        -6.01089         3.94607
LJ           2.75873        -2.12918          4.2885
LJ          -5.28503         3.02999        -2.87409
LJ          -5.41303        -2.63648        -2.81843
LJ           2.44027        -3.22256         4.14279
LJ           0.19399         -2.5601         1.16294
LJ          -6.28847         2.53288         4.68514
LJ            1.6231        -2.74834        -4.84186
LJ           1.05446         2.00064        -4.47495
LJ          -3.53302        -0.13231       -0.508136
LJ          -2.67486         6.44709         2.72173
LJ            2.5888         2.64653           4.553
LJ          -1.95028         5.98969         3.65658
LJ          -4.50426         5.88679         4.45398
LJ           1.38702        -2.79552       -0.043838
LJ           2.54931         5.27295         4.80677
LJ          -4.06093        -5.89642          -4.875
LJ           3.26647       -0.762523         2.47623
LJ           1.71239         5.69243        -5.92611
LJ          0.250249         5.98645        -1.61794
LJ          0.099062         -2.2745         6.35633
LJ          -3.22598        -3.83837         5.48598
LJ          -4.02721       -0.572984         6.36285
LJ          0.605584        -2.16523        -4.14998
