108
#Comment!
LJ         -0.285757         -5.9815        -1.84822
LJ             4.799         -6.0949        0.760287
LJ          0.669252         4.68278        -4.51522
LJ          -5.94673        -3.20927         1.92464
LJ           -1.0837         3.81737         5.12713
LJ           2.89065        0.839586        -4.79858
LJ          -4.81057         5.86309        -5.16425
LJ           4.10503        -4.31366         1.20565
LJ            5.1279        -5.83756        -3.19591
LJ          -6.37246         3.74373         4.94188
LJ          -2.72117        -5.44818          -2.812
LJ           2.52179         6.07681        -3.23072
LJ           3.30789        -1.81816         2.12714
LJ          -3.87318        -4.68359        -3.24696
LJ          -1.70247       -0.255346         2.84112
LJ           4.14622         -2.1635         1.48759
LJ          -4.11026       -0.471249        -5.16749
LJ           5.96754       -0.300594        -2.02543
LJ            2.4691        -2.94206          2.4387
LJ          -1.02267        -4.83332          3.6468
LJ          0.311032         5.99968        -6.13027
LJ         -0.335347         6.42431         2.83023
LJ           5.19592       -0.720476         5.35367
LJ          -2.23375         1.26433        -5.46947
LJ          0.646648        -2.87208         4.13023
LJ           2.80716        -6.19221         2.45243
LJ           2.65218         4.48946        -5.93081
LJ           6.42436        -6.36815        -5.58996
LJ         -0.111574         1.33959        -6.07322
LJ          -3.60331        -1.90571         6.29439
LJ          0.692042        -2.64926         -5.0074
LJ          0.705593        -4.95983        0.168504
LJ          -2.56347         2.75396         2.08869
LJ            6.4623         3.79029           1.679
LJ           -2.5382         4.34667         2.65685
LJ           1.13653         2.21074         1.31005
LJ          -5.40912          5.8051        -1.66844
LJ           5.00672        -4.81583       -0.808326
LJ           4.22329         3.05706         1.82678
LJ           5.64623        -4.33571        -2.93139
LJ          -6.10848         2.78516        -4.03886
LJ          -3.28477         6.18738         -3.0501
LJ           2.82824        -3.60826        -1.09879
LJ          -4.55683       -0.164059         6.22997
LJ          0.993108        -5.91188         0.54884
LJ          -1.43347         4.76336       -0.190445
LJ           5.52757         4.68157         3.44751
LJ           4.18416       -0.398502        -5.72831
LJ           3.69858         2.24773        -4.72919
LJ          0.873143        -1.69724        -5.40416
LJ          0.715253        -1.04096         1.08346
LJ          -1.85958        -2.44599         3.21947
LJ           5.74105        0.498585        -4.36235
LJ           5.94639         5.98351        -2.71656
LJ          -3.45194         2.56827        0.943449
LJ           5.80912       -0.177111        -3.36905
LJ          -4.67747        -5.39184        -1.17201
LJ         -0.357663          3.3769          1.5397
LJ           3.59178        0.489925         6.33613
LJ           -3.9919        -2.14375         1.45267
LJ           6.23843        -3.17104        -3.30576
LJ          -3.93002         3.91784        0.761919
LJ          0.930809        -1.37687        -2.48767
LJ          -3.32357        -5.99206        -4.47311
LJ           4.57122         1.65892         6.42183
LJ          -4.40448        -2.17032         5.22483
LJ           2.62477         2.32698        -3.10952
LJ           5.86954         1.75599        -4.73747
LJ          -1.80758        -3.40931         2.66639
LJ          -4.66401        -1.28698        0.792613
LJ           1.11123         4.80049         4.68884
LJ          -3.40406        -0.66315        0.861085
LJ           2.18547        -6.00202        -6.12135
LJ            6.1955        -5.42739         2.29045
LJ           -2.7602         4.15905         1.60525
LJ           1.59646         4.27122         5.89023
LJ          -2.19989         2.77632        -5.13746
LJ          -3.46069       -0.596959        -1.52193
LJ          -1.29323         2.59653        -1.97939
LJ         -0.165555         4.53897       -0.309262
LJ           4.01632        -1.08559         -1.6696
LJ          -5.39582        -5.41076         -4.6324
LJ          -5.04948        -4.34156        -5.10389
LJ           2.84711         -6.3848        -4.74931
LJ           3.51041        -5.49663         1.78964
LJ           1.07569         1.79666        -5.38108
LJ          0.616906        0.814633        -2.17895
LJ          -2.41337         6.08794         3.60969
LJ           4.05432          3.2368          4.6089
LJ           1.34259         1.31014         -1.3839
LJ            5.1486        -2.63461       -0.900203
LJ          -1.16369         5.13009         5.09076
LJ           6.10456         4.72389        -3.20219
LJ          -2.03882         4.52853        -3.35089
LJ          -1.33691         1.65428        -3.53436
LJ           6.08544        -5.53407         6.19256
LJ          -1.94287        -3.54202        0.249106
LJ           3.50377        -2.87858        -4.12237
LJ           -5.8188         3.07039         3.17175
LJ           2.76591         1.34446       -0.717028
LJ          0.172049        -1.71914          3.4432
LJ           0.65125         2.96659        0.147446
LJ         -0.198429         4.91518         1.71437
LJ          -5.49718        0.717956         6.24743
LJ           3.31866         1.84255          5.2553
LJ           4.03868        -6.23032        -4.25334
LJ          -5.92406       -0.338296         -2.9319
LJ          -2.04771        0.826346         2.16318
