108
#Comment!
LJ          -1.75872        -6.41261         2.09372
LJ           5.05791         5.85763         4.21294
LJ          -5.98896         2.85015        -2.78178
LJ           4.87858        -6.45011        -2.13254
LJ          -1.96012         2.27519        -4.00971
LJ           5.48005        -4.78637         2.36023
LJ           3.38649        -5.32112         5.25015
LJ           4.97651         5.38642        -2.52344
LJ           4.02796        -4.94734         4.10944
LJ         -0.989593         2.11889         3.00593
LJ           5.69318         2.67487       -0.234702
LJ           1.88238        -6.05248       -0.455631
LJ          -5.11421          2.6821        -3.54325
LJ           2.27983       -0.604966        -2.96981
LJ           6.05834         -5.2156         3.09924
LJ           1.03429         4.18945         -1.9652
LJ          -2.54104        -1.16063         3.37581
LJ          -3.66039       -0.707034         5.33884
LJ          -5.50338         4.74879        -5.46172
LJ          -5.46422         3.85191         4.88697
LJ           2.24879         1.83705        -5.27947
LJ          0.403883          4.6689       -0.460548
LJ          -5.61513         -2.5554        -3.86182
LJ           5.92217        0.924528        -5.24533
LJ           4.03281         6.43112        -3.15995
LJ           -6.2254         1.65687        -5.64722
LJ          -1.95948         3.38189        -3.57422
LJ           5.87819       -0.606899         -4.2725
LJ          -1.75612         1.72326         4.57846
LJ           2.26004        -5.31034         5.95127
LJ          -5.76097         4.97299         1.07433
LJ           -1.1211        -4.84522        -3.03006
LJ           3.84906        -5.22648       -0.586701
LJ           1.11551        -5.90411         6.38985
LJ          -2.80281        -1.18493        -4.87315
LJ          -4.52345         3.19659         5.64127
LJ          -2.40466       -0.666217        -2.48272
LJ          0.971887        -1.14644        0.275004
LJ         -0.915673        -5.50728         1.66193
LJ          -2.98437        -4.17293        -1.57307
LJ           4.94119          2.7369         5.43067
LJ          0.929484        -3.14385         -2.5793
LJ           2.06855         -3.7359        -6.43302
LJ           5.83204         6.13585        -3.78241
LJ          -5.61432        -4.83337         5.01013
LJ          -6.19144         0.86671         5.21453
LJ           -3.2997         3.22973         4.36145
LJ           1.88348        -1.78932      -0.0125708
LJ           3.00412         6.42829        -3.69924
LJ          -0.16125        0.255911        -5.54437
LJ          -1.77795          -5.368         6.27032
LJ          -3.19134         6.36733          3.8643
LJ           -6.2932        -4.17989        0.808193
LJ           1.61195         6.34954         -3.6304
LJ          -3.96552        -5.03367         2.30623
LJ          -3.37676        -1.27867        -3.23314
LJ           3.52791         2.77039         2.21979
LJ          0.900006        -4.66702       -0.772882
LJ           4.19732        -5.75575         4.70004
LJ           -4.5744         1.50412        -5.27742
LJ          0.120504        -5.35158         5.87505
LJ           4.15729         3.36442         5.68634
LJ            4.9488         2.98265        -2.33744
LJ           4.75973       -0.461674         -2.6079
LJ           3.20204         1.17512        -5.27345
LJ          -1.02015        -4.06502         4.78565
LJ           3.78925         1.61045        -1.06453
LJ          -2.13427         3.70873       -0.975966
LJ          -1.85669        -5.13969        -2.02774
LJ          -1.21129       -0.806457       -0.345368
LJ           5.86002      -0.0923694         5.22729
LJ          -1.10289        -3.54901         6.20141
LJ          -4.14902        -4.68829           -2.29
LJ           3.62861         1.29222          4.5846
LJ            6.1385          4.9248        -2.14472
LJ          -3.14479        -4.63741        0.237881
LJ           4.33126        -5.66104           0.499
LJ           5.51032        -2.23525        -5.89695
LJ           -3.2837         3.76232        -3.79866
LJ          -1.80125        -5.84147         4.67955
LJ          -0.29975         5.35595        0.692708
LJ          -2.05974         4.61031        -3.94248
LJ           5.27836     -0.00637484        -3.50655
LJ          -2.94411        -4.64624         2.95935
LJ           4.48569        -3.09381       -0.896254
LJ           5.73593        -3.47119         1.37749
LJ           -3.6871        -3.86423         5.08489
LJ            -5.443        -3.92859        -2.14849
LJ          -6.36756        -4.53334         2.67811
LJ         -0.398526        -2.43836         3.50939
LJ           6.13176         2.70571        -6.40894
LJ          -1.26983       -0.277439        -3.33871
LJ          0.668169         2.87643         -2.3531
LJ           6.06148        -1.19476        -5.31975
LJ           5.15133        -1.68241        -1.30033
LJ          -1.61219         3.57303         4.68298
LJ          -4.30099         1.19158         1.07773
LJ          -2.25934         6.18934        -4.45082
LJ           4.95485         4.55302        -1.76263
LJ           4.56348         4.33774        -4.71699
LJ          -5.38809         2.24128         1.40526
LJ           4.79495         2.62996        -5.48217
LJ           5.20127        -5.14961        0.891442
LJ           5.59972        -6.33705         5.17876
LJ          -5.80875        -5.46552         3.88727
LJ           5.10395         1.13261         1.78225
LJ          -3.12905        -2.10895         3.14904
LJ          -3.59756        -3.84179       -0.557521
