108
#Comment!
LJ          -4.01163        -4.51641        -4.78236
LJ          -5.83523         4.89412          4.8946
LJ           3.09897         4.17927        0.201151
LJ          -4.65585        -6.20105        -2.27155
LJ           3.15266       -0.371395         2.63933
LJ             -4.42        -4.49732         1.49417
LJ          0.473005         5.49205         1.96505
LJ           4.65855        -6.27445        -3.82932
LJ           2.96265         1.72359        -5.98425
LJ          -4.14636         1.01654         3.18017
LJ           3.19615        -2.94476         2.45881
LJ          -4.20151         4.97708         -3.8108
LJ          0.815631        -5.34189          2.3363
LJ          -4.40762         4.61489        0.548744
LJ           3.91733       -0.949386        -2.13251
LJ          -5.55897        -5.18735        -2.47279
LJ          -6.02974        -0.36155         1.49311
LJ           1.84854        0.467601        -2.98761
LJ          0.754107         1.41112        -3.59327
LJ          -5.23773         -2.7397         -2.1781
LJ           4.37365         3.55654        -4.89424
LJ           1.73494         5.16275        -1.66637
LJ           1.54156        -3.47228        0.659375
LJ          -6.30199         4.71263        -5.98774
LJ           3.29024        -1.43104         3.79037
LJ           3.35343         2.45369        -5.15193
LJ          -5.74219        -0.45453        0.460604
LJ          -3.56362         1.08292         4.47141
LJ           2.10719         3.30139        -1.87159
LJ          -3.16244        0.428394        -2.86297
LJ           4.06267        -2.40543         2.88433
LJ           2.80574        0.971567         5.06144
LJ          -3.12528         2.23427       -0.964924
LJ          -3.35148         4.32796         4.48771
LJ         -0.294557         6.27113        0.977746
LJ          -2.93697         1.04123         3.20541
LJ           5.96305        -1.96236        -5.96748
LJ             1.295          1.6422         0.60357
LJ          -2.49651       -0.294684         6.31705
LJ          -3.24719         5.55339         0.57096
LJ          -1.16989        -5.18535       -0.141394
LJ         -0.655698         3.32854         4.13309
LJ          -1.66989        -6.06626          -3.279
LJ          -2.63842        -3.62426       -0.370767
LJ          -5.79901        -5.40115        -5.48886
LJ           -5.1911       -0.649506        -3.38317
LJ          -1.08096       -0.405736        -1.46176
LJ           1.34537         2.91607         4.03471
LJ           3.99713         1.83856       -0.637956
LJ          -3.58755       -0.355568        -1.66685
LJ            -5.383         3.89136         1.00599
LJ         -0.589357        -6.31061         4.01505
LJ          -3.83492         6.39392       -0.895308
LJ          -5.12826         2.75527        -4.75418
LJ           5.62394        -1.65527         -3.9379
LJ           5.55344         5.38048        -2.57688
LJ          -6.39637        -2.63775      -0.0421425
LJ           -1.5182        -3.49014        -3.00357
LJ          -6.28709        -2.13256        -3.31599
LJ           0.08037        0.273738         3.88106
LJ           6.15918         6.18709         -2.2953
LJ          -2.68463        -4.40615        0.405226
LJ       -0.00953609        -1.46245        -2.97539
LJ          -1.44723         1.06633         2.49261
LJ           1.80333        -3.62704         4.61589
LJ         -0.689619         -4.4763        -2.43405
LJ           2.89027         1.15543        -2.56118
LJ         -0.880691        0.275166         5.62348
LJ         0.0280418        -4.30968         5.86195
LJ           0.27036         4.39626         2.59196
LJ           1.10206        -3.08907        -1.14844
LJ           2.75166         -2.8768        -4.28981
LJ          -2.02537        -4.87308        -3.00835
LJ           1.51055         2.66873         6.46053
LJ           3.49063         1.12718         6.20591
LJ           2.25852        -4.16968        -2.07995
LJ           1.44448         1.35331        -2.02719
LJ          -5.55685        -4.85169         5.23929
LJ           -6.3878          6.1181         4.41024
LJ           1.09325        0.374559        -4.86665
LJ          -1.17808        -1.73208        -2.36439
LJ           6.37814        -6.14257         5.39009
LJ           2.46782         4.67879        -2.29468
LJ          -4.97448         4.04842        -1.02127
LJ            2.6447        0.662737         3.90058
LJ          -2.49182        -2.72796         1.40876
LJ          -3.26506        -3.75017        -5.10869
LJ          -5.12121         1.98457        -1.27427
LJ           -5.7056        -4.90339        -6.42882
LJ           1.97362        0.721895         3.10948
LJ             2.315        -2.43931        -1.14933
LJ          -3.81701        -6.34042        -4.21135
LJ           -5.7578         2.43895         2.85985
LJ          -3.22101        -2.00536          4.1938
LJ              6.17        -6.34191        -3.73026
LJ          -4.87078        -2.83453         3.56438
LJ           5.03341        -5.81361         4.77483
LJ           4.41368        -4.27363       -0.327601
LJ           2.13094         -1.8315         5.15267
LJ           -1.8546         6.45194         3.31033
LJ           2.09555        0.385134         6.11225
LJ           3.97844        -5.89493         4.14359
LJ             4.992        -4.83621         3.56398
LJ          0.652616         1.22012         1.31062
LJ           2.56969          6.0547        -1.49785
LJ           6.37945        -1.68543          -4.924
LJ           -1.5026         3.06785         1.96607
LJ           4.68456          3.1674        0.354912
