108
#Comment!
LJ           2.23708         3.50659          3.8698
LJ           3.75719         1.27803         3.14844
LJ           3.53811        -1.82397         2.87791
LJ          -5.84901        -2.69693        -1.19107
LJ           3.62002         5.11877         5.59055
LJ         -0.668979        -6.23567          5.4717
LJ          -5.62519        -5.76477        -1.01157
LJ          -6.37133        -2.31095        -3.36223
LJ          -5.40591         6.12565         0.71772
LJ           1.43477        0.694362         4.34584
LJ           2.95293         5.98926        -0.97313
LJ          -2.67935        -2.51968         6.21228
LJ           3.81801        -1.86888        -3.83824
LJ         -0.903807        -2.03634        -2.70047
LJ           5.92512          5.1804         1.21717
LJ          -2.37241        -2.21668        0.353745
LJ          -4.12884      -0.0963187         3.32717
LJ           5.49248        -4.38368         5.62779
LJ         -0.743367        0.365012        -2.09794
LJ          -1.81861          1.5839         5.26876
LJ          -1.87981        -5.95991       -0.914014
LJ         -0.881174        0.636809         3.21506
LJ          -5.08315        -3.56729         2.92278
LJ           4.83148          4.3592        -4.43072
LJ          -5.87315        -1.19934         2.19949
LJ          -6.37193          2.6514       -0.460688
LJ           4.15058        -5.96599        -4.55417
LJ           1.36418         3.86531        -5.02405
LJ          -4.37897         1.21394         1.77763
LJ             3.849         4.11214        -4.37349
LJ           3.90996         5.21162         2.12073
LJ           2.59479         4.10574         1.70956
LJ           6.40473         3.58991        -2.85303
LJ           2.31641        -4.46206        -1.47769
LJ         -0.604568         1.51477        -2.03599
LJ           2.05218         5.91767         5.90091
LJ           3.96797         3.06207        -4.99659
LJ           3.32903        -5.28353         4.13943
LJ          0.530916        -1.79251         5.29404
LJ          -1.70394        -4.57113        -2.53701
LJ          0.940698        -5.63324         2.68221
LJ          -5.83106        0.293785        -0.72911
LJ          -2.13763        -3.53373       -0.266863
LJ          -1.94629         5.02337         2.77654
LJ          -3.84173        -6.35766        -3.92956
LJ          0.940526         2.54054         6.03889
LJ          -1.95682        -1.14845        -6.06127
LJ           3.39356         4.80759          3.1685
LJ        -0.0387554         4.80935         5.73726
LJ         -0.398061        -4.88094        -5.55004
LJ           6.14969         4.43581         5.12331
LJ          0.812374        -1.64865       -0.108562
LJ           5.12529         3.27906        -5.83846
LJ          -5.51133        0.964167         4.03497
LJ          -2.06328         3.13883         3.32583
LJ           1.74633          4.8135         4.66692
LJ          -5.33923         4.90909        0.720419
LJ           3.81283          5.9895       -0.527421
LJ            2.7732         4.05278         -2.6002
LJ          -3.60237        0.597112        -4.78301
LJ         -0.748308        -6.03388       -0.727765
LJ           2.17715        -2.20813         -4.6769
LJ          -6.40353        -2.63708         3.79205
LJ           4.37549        -5.44625         3.94584
LJ          -5.76121        -2.29112         2.51986
LJ          -5.30926        -3.78358       -0.892474
LJ           1.28805         5.33366         -6.2939
LJ           4.85482        -2.91226        -1.11241
LJ           5.56807         4.03561         6.10206
LJ          -2.58904          4.8939         3.97015
LJ         -0.591772        0.543848       -0.797622
LJ          0.782193        -4.75254        -1.19747
LJ           -1.4466        -4.17731        -5.45288
LJ          -5.74981        -6.44978        -2.36988
LJ          -1.56888         4.86337        -4.79468
LJ           5.09938        0.363118         3.14455
LJ           4.11266         5.17978        0.677497
LJ           1.55623         4.27496        -1.31305
LJ           3.02525        0.608441         4.78119
LJ           0.94193         -5.3729           5.562
LJ          -3.88615        -2.70425         2.15736
LJ           4.38852       -0.268348        -5.48494
LJ           0.77935          4.8214         3.63028
LJ          -5.01867         1.87655         1.14365
LJ          -5.13035         5.79131          2.7889
LJ           4.46992         1.75404        -2.07696
LJ           2.63499         3.08555        -6.02173
LJ          -2.04514        -5.24475    -0.000815412
LJ         -0.206596        -3.05093       -0.899474
LJ           3.15025        -4.21582         6.22011
LJ           2.99398         1.53052        -3.54614
LJ           3.86916        -6.22123        0.298099
LJ           3.65037        -3.74142          5.3628
LJ          -4.54163         3.60603        -2.70878
LJ           3.05781        -6.45157         5.02149
LJ         -0.604116        0.933894         4.10497
LJ           1.93972       -0.462779        -4.45587
LJ           5.43582        -3.74055         -6.1839
LJ          -5.84325         1.14743         5.05192
LJ          -2.73906         2.37775         2.44345
LJ          0.455575        0.889125        -5.89629
LJ          -1.07833        -3.55858        -4.51015
LJ          -1.58243         4.01818         4.24184
LJ           5.72254         1.67758         1.88152
LJ          -2.88206         5.79917         4.19687
LJ           2.06215        -2.81795         5.74731
LJ           -5.2265           5.191         -4.7757
LJ          -4.61304         4.26869         2.33638
