108
#Comment!
LJ           4.37808        -2.21454         3.67592
LJ           5.76021       -0.222055         3.18726
LJ           4.57292        -3.04547        -2.77533
LJ           5.03981        0.879191         0.17541
LJ           3.74996        -1.59759         4.43922
LJ          0.740983        -3.15214        -1.05668
LJ          -5.26769        -4.11671        -4.56165
LJ           -2.8933         5.90624         4.77141
LJ           2.38904         5.97345        -1.13421
LJ          -6.36139        -2.40989         2.99044
LJ          -1.11172         6.04402         4.93249
LJ          0.674008        0.713821        -4.23194
LJ           1.02631        -3.19589         5.84862
LJ           4.26024        -2.95661         5.00044
LJ           5.98715         2.31878        -0.15723
LJ          -4.07128          4.2675         3.53754
LJ           4.52063        -6.34788         1.47001
LJ         0.0897202         2.54604        -1.78082
LJ          -4.40349        0.752668        -1.98256
LJ            0.5336         2.95015        -3.69489
LJ          -4.64281        -2.94303         2.13246
LJ          0.606348         3.59627         5.05165
LJ         -0.854219         3.70573         6.45023
LJ           1.41258        -3.90006        -5.16014
LJ         -0.962428          5.9332         6.09124
LJ           -4.5963         5.06104        -4.83767
LJ           3.43814         5.77656         2.62851
LJ           2.77947        -1.28078        -4.57259
LJ           1.72424        -5.27034       -0.226484
LJ           2.61369         -5.8903       0.0495859
LJ          0.985408        -2.97942         2.34204
LJ          -2.18791         5.85268       -0.600786
LJ          0.402326        -1.25478        -6.35937
LJ           3.61466        0.851179        -2.97946
LJ          -5.85218         6.37288        -1.84359
LJ         -0.619889        -6.16353         1.59091
LJ            4.5593        -2.77196         1.88552
LJ          0.853808        -1.13059        0.483544
LJ            3.8746        -4.44119          4.3042
LJ           4.90524         5.41669        -2.37073
LJ          -5.86088         2.18471        -1.06054
LJ           2.19404        0.641575        -1.14629
LJ          -2.78088        -5.95152         5.34153
LJ          -4.96259         5.00346       -0.179185
LJ          -3.05455        -4.26981         3.41703
LJ          -4.43423         2.95587         3.09937
LJ          -2.73657        -2.09786        -6.35358
LJ           5.79145        -3.39341       -0.992076
LJ           2.38287        -4.50287         4.93139
LJ            3.0531        -3.85018       -0.991993
LJ           6.30868        -3.54517         4.43735
LJ         -0.195579      -0.0104569         1.58925
LJ           3.03137          4.9098        -1.96112
LJ           6.44238         4.18135         3.26064
LJ           5.59433        -5.05082         4.80853
LJ          0.162809         5.70705        0.939977
LJ           2.96588         3.26403        -4.69858
LJ           3.49492         4.58968          3.4521
LJ           1.96682        -5.25775         1.91009
LJ           -5.7178         5.83614        -2.90825
LJ           4.86442        -0.71781         5.35397
LJ          0.257314         5.05614         2.10169
LJ           2.25519        -5.60919        -2.09381
LJ          -1.97874        -3.85366       -0.226786
LJ           6.16309        -1.40022        -1.76609
LJ           2.66163         3.09944         5.59271
LJ           6.35526        -1.87654        -3.07851
LJ            6.1412        0.727004       -0.486733
LJ          -1.69085        -4.66767        -5.45479
LJ        0.00246713        0.307415         2.95112
LJ           4.29668         3.22791         3.35782
LJ           6.15668        -6.10569        0.611875
LJ            1.9607         2.31039         5.88666
LJ          -1.29998        -2.17997         4.28947
LJ           5.77958         4.91448        0.487481
LJ           4.44225        -2.47311        -6.14323
LJ         0.0347108        -2.21645        -1.05903
LJ          -2.29653         4.50267        0.540936
LJ          -5.61861         3.00673         1.56581
LJ          -5.58348        -1.03681        0.272809
LJ           -5.4518        -5.72089        -6.44317
LJ           3.85095       -0.432474        -1.83543
LJ          -5.92359        -3.56227       -0.108682
LJ           1.25737         1.58802        -3.06945
LJ         -0.477508         3.38906        0.650251
LJ           3.14897         2.30781         -3.8261
LJ          -5.22897       -0.942182        -1.27764
LJ           5.53156        -4.19618         5.48934
LJ           2.80417        -4.09183        -5.15853
LJ          -4.97384         4.08787        -5.35069
LJ          -2.91381       -0.526813         5.53793
LJ           5.38032        -5.42409          2.5307
LJ          -6.25418        -2.24971        0.141862
LJ          -1.49299         1.79698         2.92967
LJ           2.05779         6.03246        -2.86423
LJ          -5.24249         3.95227         3.35428
LJ           2.09935        -5.51194         3.59073
LJ          -3.40429        -5.95947         3.43804
LJ          -1.34262        -2.69283        -5.89208
LJ          -2.48188         1.81056        -4.73721
LJ          -3.76178        -4.22447        -3.38746
LJ          -5.48708         4.52261         4.22221
LJ          -1.26352        -3.81511         4.28494
LJ           2.98673        -5.28083         3.09153
LJ           2.86644        -2.61495         5.76706
LJ           2.06137         4.49984         3.31594
LJ           5.25096        -3.15296        -6.23165
LJ          -5.42192         5.93349         -5.7928
