108
#Comment!
LJ           3.44149        -5.18581         2.11822
LJ          -5.27099        -4.65492         1.06772
LJ          -3.06701        0.614738         2.77943
LJ          -3.82374        -1.12268         1.73701
LJ           1.78695        -2.18198       -0.122258
LJ          -6.14607        -6.15494        -5.53738
LJ         -0.501277        -3.11394         5.20508
LJ            5.5841        -2.03044        -5.02724
LJ          0.167928           6.327         1.56841
LJ           1.38742        -2.14017         1.54286
LJ          -6.35462         2.71679         5.05313
LJ          -2.85882        -3.18135        -6.32999
LJ           3.23523         3.16769         4.18672
LJ          -1.12367       -0.826229        -1.17816
LJ          -4.62205        -4.38689        -5.95132
LJ          -2.81044         3.03209         1.61293
LJ           2.21464         6.22537         1.69954
LJ          -2.90303         2.95794        -1.04052
LJ            4.1095        -3.34578         4.18889
LJ           5.20568        -5.67838        -4.73103
LJ           -2.3296        0.848023        -2.17567
LJ          -2.17777        -1.60347        0.409887
LJ          -5.54982        -3.26439        -1.77575
LJ           3.30803         6.04917         1.75764
LJ           6.12335          5.7898         6.02366
LJ         -0.492323         3.56069         3.79193
LJ           2.71417        -1.32436        -4.86933
LJ           4.94773         2.60632        -3.49727
LJ           4.05504        -2.06152       -0.811692
LJ           4.54787         1.75143        0.175407
LJ           2.39672        0.938576        -5.56477
LJ          -3.37847         1.51498        -2.45032
LJ          -1.23137         1.16363         3.17912
LJ           2.12749        0.135225        0.053037
LJ           1.85769         -2.9521        -2.71062
LJ          -2.28338         -1.8408         4.96694
LJ         -0.208916        -5.59825         4.91179
LJ          0.832798       -0.642442      -0.0862033
LJ         -0.231526       -0.146837         4.81621
LJ           -5.2563         3.54877         2.19263
LJ           -2.6807        0.414966       0.0500469
LJ           2.92656        -2.49552        0.897036
LJ          -3.34402        -2.35503        -3.52199
LJ           2.99354          2.5102       -0.569853
LJ            3.4392         4.34155        -2.23914
LJ         -0.710529       -0.227637         1.28582
LJ           -6.2561         4.50745         1.64924
LJ           -3.1496         1.20403         1.49287
LJ           3.65324          4.7006         1.59293
LJ           2.41048          4.6633         4.04362
LJ          -4.23693         2.31213         4.78837
LJ          0.802223       -0.576422         2.31296
LJ          -5.05267        -3.03847         1.91823
LJ          -6.34427        -3.06517        0.394935
LJ           3.37171         6.03162       -0.754169
LJ          -3.28031        0.302787         5.37915
LJ           2.33298         2.46638         1.30077
LJ          -4.08467        -1.87559        -1.51943
LJ           2.87362        -3.00608        -2.07505
LJ           2.33387         4.60353        -6.42539
LJ           3.22473        -3.89839         4.28523
LJ          -2.08984        -5.85426         4.31832
LJ           4.66572       -0.933097        0.467494
LJ          -1.49914         5.53121         2.78868
LJ           2.90329         -2.2735        -4.80382
LJ            1.3924         -1.5391        -5.78025
LJ          -4.83582       -0.736016        0.125711
LJ          -4.74543        -4.18422        -2.98387
LJ           5.42411        -5.41408         3.84545
LJ           2.44485        -4.50429        -1.27394
LJ           5.10432        -5.60685        -1.70128
LJ           -1.3014        -1.03261        -4.56353
LJ          -4.75467        -5.41158        -1.14031
LJ          0.806977         4.07973         3.68792
LJ           1.92207        0.216324         5.48113
LJ           1.95226         2.43528        -1.16879
LJ           5.89033         2.49354        -5.04853
LJ           1.26214        -4.52343        -5.22676
LJ          -0.46805         4.04038         5.13887
LJ          -3.90301         5.22367         1.63744
LJ           4.88567       -0.947022       -0.961015
LJ         -0.116635         -1.8422         0.77378
LJ          -5.50447         6.20677        -6.29234
LJ          -5.86592        -0.46609        0.781882
LJ          -6.09179        -2.18178          6.4309
LJ         -0.214098       0.0470554        -5.86625
LJ         -0.295751         2.93539         2.88856
LJ           5.41059         1.07442         1.14324
LJ          -3.68305         1.93081         2.53035
LJ           1.65634          1.5646        -2.73258
LJ          -1.97315        0.550902         5.33203
LJ          0.513516         6.28223         0.46754
LJ           1.15411        0.585267        -5.18271
LJ          -4.20104         3.73901         1.98618
LJ           1.67039         3.24603        -3.81882
LJ           0.78323         6.07417         6.14049
LJ           4.23832         3.74559        0.648841
LJ            5.0389        -3.09015        -5.30987
LJ           1.77082         3.62516        -1.25775
LJ           2.58276         2.85274        -6.43162
LJ           3.97172         4.77768        -5.79091
LJ          -3.44463        -5.39202         4.47665
LJ            -4.977         1.89281        -3.31449
LJ           3.65513         1.95066        0.622988
LJ          -6.26652       0.0767331         1.65545
LJ          -5.06101         2.29567        -5.51371
LJ          -4.73338         3.17779        -4.11402
LJ          0.816326      -0.0461676        -1.21405
