108
#Comment!
LJ          -1.42272        -5.89327        0.218959
LJ          -3.10766         4.05481         4.11135
LJ          -4.96877        -2.62904        -5.83704
LJ          -3.78972        -0.79601         -4.7395
LJ          -6.09548        -5.69901       -0.350952
LJ          -5.02637         -4.7746        -3.96491
LJ          -4.60545        -4.29936        -6.30727
LJ          -4.70672        -4.37869         5.53975
LJ        -0.0881359         1.38328         3.71065
LJ           2.14304        0.213827         5.64649
LJ          -6.00847        -6.41514        0.645428
LJ           2.22584        -1.26994        -6.35211
LJ          -1.74462        -3.23312         4.35232
LJ          -5.78284        -6.18776        -6.08566
LJ          -6.29603         5.82903        -3.82729
LJ          -1.86176        -5.76005         1.30079
LJ           1.80485        -2.54781        -6.44269
LJ           3.84249        0.475767         2.62273
LJ          -4.52453        -2.83208        0.373084
LJ          -1.05331        -4.48013         3.06864
LJ         -0.977253        -3.12174         5.04095
LJ          -4.68531         4.21379          4.4357
LJ           4.19472        -5.25841         -2.1901
LJ          -1.87172          1.7031        -3.63895
LJ          -4.93771         2.56637         1.89585
LJ           2.01516        -4.30772        -1.60963
LJ           6.36128          -2.086         4.35481
LJ          -3.79159        -3.56973         6.30863
LJ            -3.154         1.64608         5.51975
LJ           5.58301        -5.12836         5.15744
LJ          -6.17237        0.800526         -6.1035
LJ          -5.01712         4.85521         1.07871
LJ            5.7502        -6.27836        0.657377
LJ           4.55352         5.92892         5.65908
LJ           5.72773         6.29691         4.87667
LJ          -5.49478           2.884        -1.49805
LJ           4.89633        -5.18618         4.26684
LJ          -5.40181        -2.35625         1.95399
LJ           5.43023        -1.83535       -0.985746
LJ          -6.28784         1.18921        -3.02693
LJ          -1.11767         2.94333        -1.18243
LJ          0.261916        -3.81432         1.45049
LJ          -5.11709        -4.50326         3.74184
LJ           3.84627         2.52882         2.08324
LJ         -0.826712         5.10735         -3.2251
LJ          -2.01571         3.04259           2.461
LJ           5.98648        -5.22322        0.736348
LJ           4.97456        -5.55893        -4.26536
LJ          -2.99001         2.74266         5.01459
LJ           4.86279          4.9445       -0.872908
LJ           2.58664       -0.412676        -5.37016
LJ           4.29161        -5.40328        0.564576
LJ          -3.16439         3.34454         0.40292
LJ          0.338012         2.06059        -6.31144
LJ          -5.63417         2.37014         1.00979
LJ           4.36801        -2.14356         3.02664
LJ          -5.86823          6.0104         4.41404
LJ           5.36678        -5.57526       -0.433892
LJ        -0.0729629        -4.08972          3.5056
LJ           4.30606        -2.17226          5.5277
LJ           1.94512       -0.795738       -0.485654
LJ           4.41179         3.43165       -0.239042
LJ           4.01477        -2.87207        -5.73278
LJ          -4.84388         5.97771         2.22683
LJ          -4.25654         1.95136         4.37071
LJ          0.678566         1.18117        -1.41694
LJ           5.80768         6.31283        -4.50883
LJ           5.69745         4.48728        -2.20257
LJ           5.63299        -3.04326        -1.44092
LJ           6.23343          1.3517        0.435795
LJ          -2.59536        -5.93075        0.446712
LJ           4.78837        -4.95717        -1.02171
LJ          -6.07139         1.84381         1.69301
LJ           3.21506         4.74859         2.12338
LJ          0.521485         4.72671        -6.04142
LJ          -2.32212        0.135318        -3.84941
LJ            3.1422        -3.39459        -6.40946
LJ          -3.20852        0.673203        -4.19669
LJ           1.04204         2.26621        -3.26949
LJ            2.5179       -0.653345         5.64055
LJ           5.82246         1.20072         1.49799
LJ         -0.252355         5.76909        -3.73805
LJ           5.57324         1.34089        -4.99431
LJ          -3.05377         5.22115       -0.146746
LJ          -5.84774         2.16192        -5.94967
LJ           5.63481         1.01897        -3.75095
LJ             5.957        -4.87254         3.29639
LJ          -4.21508         2.16229        -2.72859
LJ           3.39552        -6.02049         6.34083
LJ           1.08522         1.66599       -0.238132
LJ           4.79839        -3.65441        0.688863
LJ           1.63963        -1.08909         3.74487
LJ           -5.9109         1.44554        -4.32345
LJ           3.72047       -0.274061        -3.45126
LJ            4.9278         3.77158        -1.30121
LJ          0.239632         1.50122        -2.80201
LJ          -5.49672         5.14484         4.22623
LJ           6.33574         -4.0266        -3.55078
LJ          0.883672        -3.49328        -1.58212
LJ           3.37535         4.31516         6.30814
LJ         -0.525837         4.06669         4.96557
LJ          -3.24126         0.63412        0.622337
LJ           4.61222        -4.12675         4.35687
LJ          -1.70012         3.26312        -4.22908
LJ         -0.176884        -4.88525         4.59576
LJ           -1.3622       -0.927667        -5.37306
LJ          -6.18266         2.76621        -3.13742
LJ          -5.99275          3.5724         1.77222
