108
#Comment!
LJ          -5.41196            5.11        -5.29069
LJ           4.28773         1.70677        -3.01105
LJ          0.842872        -2.68635        -4.97773
LJ          -1.37514        -4.56691        -4.63501
LJ           3.93456        -1.77504        -2.32395
LJ           1.44419         3.61287        0.307493
LJ           1.61737        0.812087        0.821645
LJ          -4.89689        -6.28691        -2.31932
LJ           1.60577        -3.50114         -5.1548
LJ          -1.01973       0.0234425         1.62252
LJ          -5.91727         2.55938         5.05062
LJ          -6.35269         6.28813         4.44789
LJ           3.09393       -0.841541        -1.09663
LJ           6.19753         5.47974         2.07038
LJ          -4.33019        0.399457         3.94791
LJ         -0.867024         3.33304         6.32992
LJ           2.99129         1.90671        -2.72481
LJ           1.62191        -1.98739        -1.92424
LJ           5.37953         4.17108        -3.09412
LJ           0.64217         1.89406        0.288481
LJ           4.22792         2.23363         5.32033
LJ           2.58624       -0.664024        -2.92133
LJ          -5.06438         1.65465         5.00264
LJ           1.76005       -0.411501        -5.07901
LJ          -5.39717         -4.7514         4.49404
LJ           2.34058         1.14864         3.21459
LJ           4.59143         2.85892       -0.684952
LJ           3.94808         3.54903        -3.24862
LJ          -3.08479         5.31543         5.71979
LJ           2.74843         4.54195         4.82125
LJ           -5.5409        -4.05589         3.31405
LJ          -4.03912         5.98447         1.23091
LJ           5.34257        -4.98037        -3.45552
LJ          -6.16598        -1.76457         4.25836
LJ           3.65936        -2.10052        0.377214
LJ           2.74926        -4.16804         6.03898
LJ           2.66841         2.01914        -4.57076
LJ           1.86189         1.35444         2.15275
LJ         -0.731939         5.43205         -3.6342
LJ           5.09306        -2.72468       -0.361968
LJ           3.31821         3.92461         3.98513
LJ           -2.4772        -5.34197        -4.17915
LJ        -0.0312272         2.84344        0.246716
LJ           2.71184        -2.63947       -0.814286
LJ           5.43423         1.32161        0.136981
LJ           3.19289        -5.12689         1.63325
LJ          -4.35933        -2.24537         5.48532
LJ           2.08432        -2.07535         0.15122
LJ          -3.34252       -0.732521         1.20513
LJ           4.61347         3.23542         5.28173
LJ           5.63943        0.700204          1.2805
LJ          0.178093        -1.69215        -6.27471
LJ           2.69419         1.69587       -0.491042
LJ           3.72255        -3.83085        -4.44898
LJ          -3.99748         2.02611         3.80385
LJ           -4.2771        -3.30401        -1.83704
LJ         0.0269294         5.32977         1.99124
LJ         -0.160633       -0.127544         2.50707
LJ           2.70175         2.29819          5.9156
LJ          -1.55695         -4.6911        -2.33558
LJ           0.95953        0.949381        -6.24294
LJ         -0.712948         2.17569       -0.111706
LJ          0.511212       -0.923101        0.388176
LJ          -1.74718        0.566876       -0.122573
LJ         -0.712844        -3.81758         5.15767
LJ          -5.15578         2.62663       -0.733063
LJ          -4.10201        -3.10183      -0.0380725
LJ          -3.13064         1.83445        0.821641
LJ          -2.95052        0.160168       -0.973696
LJ          -3.61764         2.23618         1.56377
LJ          -5.31277        -3.14448         2.68603
LJ           5.51289        -4.09872         1.22375
LJ           1.42612        -5.81086        0.959321
LJ        -0.0761268        -6.44617        -6.23338
LJ         -0.755692         4.84619        0.266554
LJ           -2.0684        -3.82578        -5.22374
LJ          -1.14126        -2.37472        -3.76348
LJ          -4.85573       -0.813327         5.78105
LJ           1.98384         -2.0252         3.63857
LJ           1.35981        -5.33561        -6.41985
LJ          -5.38066         1.57041         1.62745
LJ          -1.43348        -5.85664       -0.226716
LJ          -2.18672         1.48791        -2.72791
LJ           4.31971        -2.37182         5.78712
LJ          -2.00677        -1.38315       0.0956379
LJ          -4.41969       -0.352708        -3.83671
LJ          -3.25777          5.0388        -2.07037
LJ           0.31528          4.5281         0.71499
LJ           1.40627         3.12499       -0.959562
LJ           5.03124         6.42314         2.45499
LJ           -0.8982        -5.49424         -2.2471
LJ          -4.37278        -2.21542        0.816908
LJ           1.30405         4.40499        -5.04791
LJ            5.7203        -2.80058        0.934972
LJ          -6.25493        -5.77766        -5.99627
LJ           -5.6331        -6.39601         5.58466
LJ           4.46277          2.7225        -3.92561
LJ           1.34032         5.81631        -5.73514
LJ          -5.08974         -1.3143        -3.09892
LJ           1.47405        0.526269        -4.90737
LJ          -3.43537        -2.01365          6.2517
LJ              3.22        -4.33433         3.77503
LJ         -0.300709        0.892421         4.65367
LJ           2.76444        -5.43072         5.58083
LJ           5.13502        -1.98825         2.41662
LJ           3.58164         1.15513          3.2886
LJ          -4.77575        -4.33949        -2.67484
LJ           4.69574         4.94666        -3.17205
