108
#Comment!
LJ           4.43421         6.08842        -1.84774
LJ          -3.10045          6.4582        0.250842
LJ           1.01666          1.9675        -6.40925
LJ         -0.442666         4.38126          5.1151
LJ           2.42355        -2.85507        -5.96464
LJ          0.274183       -0.040826          3.6892
LJ          -2.96027        -6.11399         5.39795
LJ         -0.733802       0.0817765         -5.0781
LJ           3.40477          4.4565         6.16514
LJ          -4.04469        -4.38428        -2.84916
LJ          -1.97223        -3.87168        -3.06739
LJ            5.2066         1.37445         2.29982
LJ          -2.99303        -3.50247         5.92703
LJ         -0.936113        -1.10131        -6.31865
LJ          -2.11607         3.87003       -0.436851
LJ          -4.21208         4.44475         2.29319
LJ           6.37119        0.358269        -2.25906
LJ          -6.42615       -0.492605        0.156601
LJ         -0.899101         4.17939       -0.335809
LJ           4.57501        0.403585        0.993465
LJ          -1.33081         5.78863        -4.85669
LJ           -1.2582        -1.27468         2.23458
LJ         -0.190435         4.37966         -5.0254
LJ          -5.73883        -2.70753        -4.93751
LJ          -5.27074         3.60021        -2.40251
LJ          -1.29067         -3.0903        -3.22706
LJ          -4.96695       -0.356973         4.12007
LJ          -1.56857         4.28406        -4.59584
LJ          -3.22838       -0.559467        0.300332
LJ          -4.09941         2.51603         5.98665
LJ           5.73991         5.37122        -5.81944
LJ         -0.631157        -2.84361         4.28017
LJ           5.30126        0.447714       -0.889193
LJ           4.78652         4.39389        -1.32034
LJ          -4.83947         -2.4538        -5.27756
LJ           3.00984         3.84429         5.13837
LJ            6.2785         1.15371        -1.52125
LJ          -4.57382       -0.989057         1.89709
LJ           -5.7882        -5.20218        -3.72361
LJ           3.53385        -4.03271        0.567652
LJ           4.87893       -0.076397        -5.77287
LJ          0.181374         3.87283         1.57553
LJ          -2.16818        -3.28189         4.78656
LJ          -2.04767           1.876        -4.46467
LJ           5.41558        -5.49007        -3.11553
LJ           3.47114         4.38082         2.15888
LJ           6.18632        -2.56118        -5.60136
LJ          -1.79626        -3.00717        -4.20871
LJ           5.05521        -4.62103        -4.66948
LJ           1.79105         3.67976       -0.316893
LJ          -5.26329        -5.44543        -2.42431
LJ           3.33883         5.08023        -3.57716
LJ           4.61475        -4.65883        0.959648
LJ          0.525049         2.31751        0.937193
LJ          -3.32117         -1.0427         3.74786
LJ           1.84117        -1.51899        -3.22568
LJ          0.319777        -4.47211         0.63218
LJ          -1.75761        -1.78994         4.71261
LJ          -4.93907         5.06174        -4.46958
LJ          -4.93414         2.66089        -3.13138
LJ           2.65014        -2.65727       -0.617671
LJ         -0.722949         3.23587       -0.909349
LJ         -0.314201        -2.98178       -0.836515
LJ           4.89426         2.94872        -6.23784
LJ          -2.36876         1.99277         5.20525
LJ          -5.01424        -5.50682        -6.41464
LJ          -2.61088       -0.985155         1.50756
LJ          -5.12685         3.13393         5.27441
LJ           1.83781        -5.14984        -4.55832
LJ          -2.01521        -2.72908         6.27327
LJ          -3.13324       -0.726271         2.30636
LJ           3.19544        0.694852        -6.16023
LJ          -1.70605         2.53253         3.97817
LJ          -0.45918        -2.20322        -4.35764
LJ          -5.13472         1.08308        -3.52555
LJ          -2.92366        -5.20881         -3.1902
LJ          -3.60185           -3.89        -4.14762
LJ           -4.1086         3.17444         4.74972
LJ          -3.14669         3.52021          4.3555
LJ          -4.58763        -4.04179        -3.59511
LJ         -0.474281         5.17361        0.552805
LJ           2.53802         1.11208          5.9109
LJ           4.38186        -1.88306         1.79729
LJ          -4.01104        0.728599        -4.13367
LJ          0.519282        -2.05281        -4.61675
LJ          -2.50777         1.57361        -1.69658
LJ           1.19935        -6.32915         1.23972
LJ          0.661448        -2.06831          4.2614
LJ          -1.36171        -4.42415       -0.964854
LJ          -1.68949         5.46507        -1.93273
LJ           4.27495         2.12619         1.10475
LJ           2.98537         1.07935         4.22698
LJ           3.80773         3.08489         4.32279
LJ           4.12918         1.66897         2.08424
LJ          -1.54882          -2.812         1.06803
LJ          -1.49897        -3.89546        -4.07003
LJ           5.23817       -0.767203         1.75661
LJ          -2.61619         4.37331        0.254523
LJ           3.76385         4.40166        -5.29898
LJ            1.9866         3.74068        -1.57428
LJ          -3.93615      0.00752831         2.25307
LJ          -1.68848        -4.36135        -2.21499
LJ          -2.11151        -3.91651         6.06858
LJ           3.32642         5.48776         4.92438
LJ           1.06851         -5.5924        0.172899
LJ          -1.33281       -0.500742          1.1985
LJ           2.41859        -5.31578         3.22842
LJ          -1.11384        -1.27579       -0.985414
