108
#Comment!
LJ           1.90402         1.41779        -2.74126
LJ           3.46877         3.57389       0.0423072
LJ          -2.28782        -2.50745         5.46984
LJ          -2.63384        -3.69852        -2.26757
LJ           3.52471         4.50928         -3.7745
LJ           3.33107         2.69045        -5.94014
LJ           5.48415       -0.895726         3.38104
LJ           1.97577         4.96597         5.51911
LJ           4.32175        -2.14405        -2.07371
LJ          -1.68297         3.46956        -5.73172
LJ         -0.935548          -3.383            2.83
LJ          -5.42778         -6.4012        -5.42013
LJ           4.82951         3.08456        -6.14637
LJ         -0.872137        -1.11855         -5.7358
LJ           2.43676         5.62037        -5.77417
LJ          0.492118         2.87426          4.5519
LJ           1.90924        -6.21271         -2.5588
LJ           4.27625         4.77124        -5.05115
LJ           5.64531        -5.82472         6.13297
LJ          -5.20985        -2.61682         3.10933
LJ           3.93847         2.96567         2.24543
LJ           1.04027       -0.993268        -2.26973
LJ          -6.28093        -5.24602        -2.33368
LJ          -5.04879        -2.51428        -2.70269
LJ           3.24744        0.166384          2.6781
LJ           3.45861        0.423954        -3.65031
LJ          -0.39933         2.61933        -4.06292
LJ           3.08378       -0.185663        -0.70696
LJ           3.97661        -1.03104        -5.22822
LJ            3.2417         2.88565        0.851277
LJ        0.00295198         5.68963         6.04937
LJ           3.08552        -1.82706        -4.64625
LJ           5.58549         2.95463         5.15111
LJ           1.90216         5.80325         3.57087
LJ           1.26139         4.63328          -1.107
LJ          -6.11005         4.87589         3.63098
LJ           2.12446         -6.1803        -6.31504
LJ          -2.86623         6.11999         5.36341
LJ          -5.36393        0.959273         4.22481
LJ          -1.79679         2.86617         4.28714
LJ           5.63679         2.58397        0.630996
LJ             2.498       -0.831272        -1.13752
LJ         -0.462011         2.77591        -1.77768
LJ            -6.122        -3.64737        -1.27362
LJ          -1.18194         0.16397         1.44203
LJ          -2.93137         5.56513         6.24177
LJ           5.78457        -2.97428        -2.72326
LJ           4.93502        0.695184         5.63364
LJ           1.15108        -3.62149         -2.8891
LJ            -2.987        -5.32962         1.58199
LJ           1.99314        -6.43263         4.25814
LJ          -2.19704         2.97814         5.34227
LJ           4.63426         0.73496         1.43522
LJ           5.34528         5.24988         4.66432
LJ          -2.73123          2.9784         -3.0374
LJ          -3.72745        -1.94106        -6.16742
LJ          -5.31006         6.11301         6.02928
LJ           1.27246         4.11588        -6.13368
LJ          -5.05738          5.6449        -6.05416
LJ            2.9893        -3.15623         4.75355
LJ           4.33554        -3.43342        0.569649
LJ          -4.66297        -3.11467         0.64755
LJ            3.3029         6.01598       -0.873225
LJ          -1.98539         5.94975        0.965391
LJ           -5.9173         1.73029        0.797178
LJ          0.609218        -4.35834        -6.00348
LJ           3.47304           1.139         3.13687
LJ          -4.41588       -0.114426        -4.41299
LJ          0.778212         2.83704         6.18125
LJ           6.32147        -1.72614          2.4239
LJ           4.82627        0.968845        -4.78909
LJ          -4.40162        -1.32356         0.69967
LJ          -6.10846         1.78171         3.27499
LJ          -3.50205         -1.1696        -1.52879
LJ          -1.68985         5.47979         3.18783
LJ          -1.81374        -2.00998         1.40934
LJ          -1.39392         6.25637         2.43714
LJ           1.55228         4.91719         -2.0172
LJ           3.77244        -6.42155        -6.38308
LJ           5.84137        -4.00845        -2.87225
LJ           1.09442        -4.58642        -2.47364
LJ          0.916668         3.45485       -0.687604
LJ           5.68696      0.00790735        0.161063
LJ            -1.434         5.52544         5.58778
LJ        -0.0706757        -1.99202       -0.482947
LJ         -0.855002       -0.971075         -1.9113
LJ          -3.77001        -3.53576         1.03685
LJ          -6.38778         4.18161        -4.83804
LJ          0.274517         5.22692         1.82296
LJ          -3.46996        -2.31712        0.751281
LJ          -2.79274        -1.91917        -1.10289
LJ           2.70198        -5.18575        -2.97159
LJ          -5.08892         4.21803         4.39814
LJ          -4.61183         6.18097         5.34177
LJ           3.89622         2.24275         3.89081
LJ          -6.10875        -3.11979          2.6431
LJ          -5.79916        -2.44827         3.98252
LJ         -0.583616       -0.228653         6.26154
LJ           3.94509         5.59703        -1.75679
LJ          -4.37242         4.75589         4.96902
LJ            3.6978        -2.47111         3.10276
LJ            6.3865         3.21029        -1.88354
LJ           1.02764        -6.08522         4.85601
LJ          0.580562         2.65394         1.78811
LJ          -2.28603        -3.46581       -0.876021
LJ           5.50883        -1.75305        -2.67616
LJ           3.79818         5.14116         4.51462
LJ            5.3489         4.10042         5.11145
