108
#Comment!
LJ           4.56422       -0.618176      -0.0916392
LJ            6.1219        -1.94892         5.65702
LJ           3.36022         2.52968        -6.24476
LJ          -1.88359         1.78319         5.26741
LJ          -1.30816        0.319322        0.837398
LJ           3.85117         4.60176          2.5418
LJ           1.25245        -1.90329         6.07015
LJ           1.73063        -4.53641        -5.26504
LJ          0.287266         6.15496        -5.49441
LJ            4.1982         3.43346        -1.90855
LJ           4.42161          4.2884          1.6404
LJ          -5.62952         4.79425        -5.70832
LJ          -3.60507        -1.06345         5.69759
LJ           5.12344       -0.827597        0.850313
LJ           6.21634         4.40821        -1.09477
LJ           1.21856       -0.978859         5.56853
LJ          -4.55103        -4.50608         1.95326
LJ          0.690229         4.30015         2.29054
LJ          -3.02801        -5.44801        0.817421
LJ           2.23088         2.96668         6.03636
LJ          -6.09694         3.15448        -6.38337
LJ           5.51583         1.98097         2.12075
LJ           -1.6609         0.80199         3.80638
LJ          -5.94102         3.69018         4.50342
LJ           2.80944         4.61771         3.69162
LJ           3.25245         1.47667        -0.68201
LJ          -2.68832         3.83268        -4.49099
LJ           2.89149        -2.12742         2.04632
LJ          -2.56948         3.42854        -2.43226
LJ           3.72606         5.92783         -2.6209
LJ         0.0114031        -3.67681       -0.784549
LJ          0.196197          2.3082        0.888374
LJ           2.28482         -3.0218        -4.10016
LJ          -4.44129        -2.13058        -4.84483
LJ           3.44659        -1.60001        0.272257
LJ          -1.39248         4.13838        -4.05382
LJ         -0.414705        -2.54493        -2.51447
LJ          -4.87887         2.95729         4.08935
LJ          -3.09028         6.24108         1.42627
LJ          -4.52774         2.03009         4.66047
LJ          -3.21747         5.76928         2.98534
LJ          -2.75977        -1.98884         6.00376
LJ          -5.38549        0.269806        -4.50256
LJ           0.47632         3.63072         5.82255
LJ          -2.42792         3.80891         4.73674
LJ          -4.24787       -0.884593        -3.48932
LJ          -1.39253        0.396761        -1.71957
LJ          -3.11863         4.39979         5.97516
LJ           2.77418         2.24487         1.30583
LJ          -5.58889        -2.28449         6.02675
LJ           5.80078         4.66947         1.45206
LJ         -0.186801        -3.02298        -5.34233
LJ           0.27532          1.2863        -2.43773
LJ           3.36807         5.04344         1.28149
LJ           5.00277         4.41275        -3.03281
LJ           6.02577        -1.93764        -4.94697
LJ           4.22345         1.79919         5.67912
LJ          -4.00907       -0.724154        -4.83438
LJ          -1.31764       -0.985866      0.00521918
LJ          -1.24053         5.46937        -4.64898
LJ          -2.34015        -6.09542         3.75695
LJ          -1.07172        -1.26185        -3.09564
LJ           6.14364        -1.24623       -0.550971
LJ          -1.66781          2.9564         3.74526
LJ           5.41926         4.08974        -6.40725
LJ          0.856824        -3.59136      -0.0644661
LJ           4.68001        -5.36154        -2.20416
LJ           6.04607         1.22404      -0.0278979
LJ          -2.16824         4.35771        -2.94339
LJ           3.49232        -2.71183        -5.87115
LJ           4.00139           -3.86         5.18899
LJ          -5.76976         -1.0412        -1.48549
LJ        -0.0260292        -6.37717          0.1885
LJ           5.17748        0.848043         2.00754
LJ         -0.333549        -1.31315        -1.81086
LJ           3.25498        -6.20409         4.39475
LJ            4.8021        -1.54035         4.30105
LJ           4.59402       -0.368869         1.62456
LJ          -4.21339        -4.61511         4.20745
LJ           2.44299          5.0647         1.95515
LJ           1.02789       -0.354077        -6.36404
LJ          -5.63655         4.02271        -1.37534
LJ          -1.06801        0.521878         -5.0793
LJ           5.30609        -5.66491         3.82646
LJ          -5.26422         6.34335       -0.348492
LJ          -3.13118         2.61574         5.42455
LJ           3.71332        0.421424        -2.25223
LJ          0.370674        0.220025         -5.2452
LJ           2.90907        -1.17008         5.74431
LJ            5.4072        0.745972        -1.61508
LJ           -4.4198         2.40713         3.29735
LJ           3.84003        0.270584         2.16766
LJ            5.5992        -3.88623         4.66638
LJ           3.14165        -4.61294         5.15424
LJ           0.58352          5.5377        -3.73704
LJ           1.84887          5.8937         5.18363
LJ          -3.49229         2.61723        0.979074
LJ           -3.5288        -5.53041          5.5122
LJ           4.56843        -5.03583         5.66472
LJ          -2.55585         5.38599         -4.6532
LJ           2.94196        -5.27882        -3.61947
LJ           4.51465         5.16428         5.38645
LJ          -6.31592        -3.69547         5.06789
LJ          -2.24666        -5.17816        -4.65989
LJ          -4.64386         6.16596          2.7424
LJ          -3.83201        0.394218        -6.16205
LJ          -4.76719         3.62636        -2.21843
LJ           3.64524        -5.26454         1.33933
