108
#Comment!
LJ           4.07693        0.686602         1.16069
LJ           1.26959        -3.47597        -0.98374
LJ           3.10267         1.68936        0.707776
LJ          -4.03357         2.20499         6.23433
LJ          -3.97172        -2.25423        -4.10596
LJ           2.20399         5.39762        0.493264
LJ           1.42961         5.51524        -3.59871
LJ           2.55296         2.58823        -2.67209
LJ          -1.40626         5.54463         1.33001
LJ           4.74895         1.63501        -4.08599
LJ           2.32997         5.34144         6.36814
LJ           5.68403         2.54133        -2.12338
LJ           4.71441       -0.233344         -3.6483
LJ        -0.0290896        -3.59715         4.96042
LJ            -2.593          1.8017         2.47095
LJ          -6.26459        -4.18926        -6.18525
LJ          -4.00967         2.51889     -0.00061065
LJ           5.23508         2.63839         -5.1779
LJ          -3.51518         6.30652         5.47133
LJ           3.91869         2.63545        -5.78489
LJ          -1.63743         5.90989         3.78471
LJ          -5.49067        -1.45534        -3.59745
LJ           3.35689        -3.14452         3.69309
LJ         -0.392331         1.45881        -4.18488
LJ          -2.58848         5.14076         3.83156
LJ         -0.814167        -5.96443         1.38767
LJ          -5.07748         3.28888         2.64838
LJ          -1.29058         -2.6715         -5.4248
LJ          -4.65447         3.81338        -2.91024
LJ           1.64063        -2.99789        0.798908
LJ          -4.58181         5.48556        0.390868
LJ           6.11618         -2.1875         6.07842
LJ           5.39349       -0.698848        -2.42533
LJ         -0.986713        -4.10477         1.10016
LJ          -2.63228          1.0487        -1.57477
LJ         -0.893899         3.86606        -5.41342
LJ           3.28876         6.36396       -0.325279
LJ          0.939333         2.49837         6.13702
LJ           1.53031        -2.57985         5.49279
LJ           -4.3561        -2.04435        -5.06186
LJ          -1.09824        -3.91347        -3.09184
LJ           5.21322         3.02869        -0.63061
LJ           4.85038        -1.00665         2.72853
LJ           2.96594         4.91605         4.13563
LJ           3.45927         6.36437         1.80258
LJ          0.761705       -0.792084        -5.47155
LJ          0.778793       -0.434161          3.3053
LJ           1.35806       -0.238003         5.09152
LJ          -3.35159        -2.53406         1.30031
LJ           6.14432         5.15313       -0.374313
LJ           3.33483        -4.76837        -2.42198
LJ           4.61753        -5.79658         5.77198
LJ         0.0225721        -1.18356         2.81996
LJ           3.27699         1.21986         3.13359
LJ          -1.24976        -4.84376        -2.09954
LJ           3.03592       -0.226511        -6.18511
LJ            1.5433         2.63469         1.91354
LJ          -3.85235          5.4094          4.9012
LJ           4.76231         -4.5231        -3.22662
LJ           1.87759       -0.375323         3.54761
LJ           3.61447       -0.154502         1.62338
LJ           5.61376         6.29773          5.6903
LJ           2.71528         2.35202     -0.00585454
LJ           3.81046        -5.23741         4.87848
LJ           3.64646         4.47543         3.35171
LJ           3.76808         -3.9181         -3.1403
LJ          -1.60526         1.02984         3.23524
LJ          -6.23507           1.833        -2.80838
LJ           3.47019         3.85741        -5.37269
LJ           5.26519       -0.613068          4.6634
LJ          -2.65007         -3.0626        0.366818
LJ           -5.7639        -3.37992         5.07643
LJ          -3.45977         2.17998        -5.48214
LJ           6.33273         1.52183        0.457214
LJ           2.85659         -4.5719       -0.313256
LJ           3.83272        -1.89251         4.24987
LJ           6.09352        -3.64304         6.03761
LJ         -0.119998         6.08316         2.58187
LJ           4.08922        -4.80366         2.22585
LJ         -0.029681        -3.18126        -6.39362
LJ           3.73299      -0.0596149         2.69742
LJ           4.00123          1.7261         5.06218
LJ           2.22523         5.93264         3.85654
LJ           4.15554        -3.78289         6.44057
LJ          -1.91161        -1.88847        0.201889
LJ          -5.92416         5.63894          5.5311
LJ          -1.84185        -5.45584          1.1978
LJ           1.95512        -2.12749         2.35654
LJ          -2.20713         -1.6298         1.23116
LJ           4.21846        -3.53093         1.19267
LJ           6.31166         3.12799       0.0199532
LJ           -2.9753         4.52131       -0.681846
LJ          -5.86855         1.61581       -0.396014
LJ           4.15129        -5.06098        -0.72445
LJ           3.86703         -2.5681        -2.95606
LJ           1.00399        -1.48677         4.77542
LJ           2.45289        -5.26696         2.44043
LJ          0.709137        -3.49749         1.14974
LJ          -6.07046        -2.00039         -6.2299
LJ           6.34368        -2.25377         3.33052
LJ           5.56725        -1.39682         5.19257
LJ          -2.55296         6.19053        -5.17688
LJ           6.30593         3.67532         1.92844
LJ          -4.31513         3.81771         4.89688
LJ         -0.943273        -3.23247       -0.613439
LJ          -3.42724         2.94423        -1.73001
LJ          -5.01927         4.31666        -1.54788
LJ          -1.30386        -2.74637        0.815406
