108
#Comment!
LJ           5.23261         5.26191        -3.89921
LJ           5.83506        -3.02198         1.88941
LJ          -5.43502         5.66972         1.87265
LJ          -3.47832         3.30859         2.52364
LJ           3.36311          2.7236        -5.59859
LJ           4.23375        -6.34575          2.0593
LJ           3.66055         1.35757         1.30701
LJ          -5.20373        -5.83631        -1.84547
LJ          -1.92396        -4.32831       -0.855455
LJ          -2.73884           4.127        0.670956
LJ          -5.01856         3.50878         -2.6753
LJ          -2.86459         2.43061         4.66845
LJ           2.61998        -1.41685         1.78018
LJ           5.71205        -1.33022        0.907306
LJ           1.55734         -1.4111         1.96609
LJ           4.70375         -1.9955        -6.22702
LJ          -4.55321        -1.61791         4.53854
LJ           -2.2574        -5.12546         3.97917
LJ          -2.53277          1.8999        -6.17925
LJ          -5.17767        -3.49271         2.86377
LJ           1.77236        0.867841       -0.237167
LJ           4.88588        -6.45814         3.30781
LJ           3.45495         1.36798         4.91428
LJ          0.937736         5.24729        -6.31907
LJ          -5.31865         -4.1648        -3.75402
LJ          0.580883        -5.51103         1.08858
LJ         -0.630915         5.60858        -4.64369
LJ           4.93943         3.62643         4.85244
LJ         -0.132556      -0.0641151         1.08195
LJ            3.9137        -4.96932        -2.85814
LJ          -3.53736         6.11233        -6.01468
LJ          -1.05855        -3.05309        -6.18773
LJ           4.65281         4.80933         1.08259
LJ           5.47009        -4.89818        -2.45539
LJ          -2.46718        -3.82725        -4.08145
LJ          -1.26061         3.04024         1.93563
LJ           6.18919       -0.965273         -4.7606
LJ          -2.92024        0.825083        -3.55898
LJ          -5.22617         3.12314        -5.20636
LJ          -1.43392         4.89769        -3.36556
LJ          0.622686        -4.40749         4.94377
LJ          -5.87631         5.83998        0.770538
LJ           3.45788        0.518735        -1.43394
LJ           4.88697         6.38535        -3.99031
LJ          -3.33979         1.00231        -6.42872
LJ          -4.15123         4.03012        -1.34552
LJ          0.245296         5.11911        -3.90568
LJ           5.08473       -0.858283        -5.56379
LJ           5.00818       -0.459786         1.37152
LJ           2.48261        0.729451        -5.17757
LJ          -1.78841        -2.20721        -2.76712
LJ           3.40701         4.69927         3.47748
LJ          -0.57573         2.40749         5.20227
LJ           5.74556         3.95724         -5.5686
LJ           3.28406         3.02221         6.00928
LJ           4.62537        -2.37988        -4.28189
LJ           6.31166         1.25695         5.99512
LJ           6.08449         3.23572         2.95806
LJ           3.43881        -5.39134         5.73714
LJ           2.76956       -0.615423        -6.27782
LJ          -2.82402      -0.0823027         1.90607
LJ           1.28632         1.39107         4.60527
LJ          0.574367        -3.39859         4.40115
LJ           1.15643        -5.75322         5.09266
LJ          0.405776        0.682561          4.2418
LJ          -4.84686       -0.506823        -1.46767
LJ           2.35095          5.4607        -3.23902
LJ          0.209401        -5.87958         4.70807
LJ          -2.82549        -3.02917         2.65545
LJ          -1.29004         3.59365        -3.07743
LJ           3.05061       -0.938219        -4.76652
LJ          -5.92098         6.15503         -2.0953
LJ          -1.61095         3.33193         6.06303
LJ          -6.20322         4.63332        -5.00228
LJ         -0.296706         3.35059         2.82774
LJ          -5.95136         3.97239          3.6681
LJ          -4.50592         4.86475         3.97876
LJ           -1.9559         2.95907         -1.8782
LJ          -2.56239         6.09575         3.34764
LJ          -4.62075        -4.50154         1.36185
LJ         -0.547836         4.18042         4.86274
LJ          -2.04429         3.31231         5.03114
LJ          -5.97828       -0.440439        -1.68829
LJ          -1.48957         1.83425         3.77741
LJ           2.03278        0.495915         6.17609
LJ          -5.67152     -0.00282934        -4.34811
LJ          0.285594        -0.98187         5.28238
LJ          0.222367       -0.756315        -5.61154
LJ           1.12131        -1.90013         6.09565
LJ           2.43497         1.73388         4.40885
LJ          -6.13405         4.30531        -2.50893
LJ           -4.1138        -1.77939         2.07539
LJ           4.30842         3.34682        -4.98715
LJ          -1.44625        -3.50376         1.63976
LJ          -2.79079          2.7216         5.92436
LJ            2.1657       -0.917008        -3.55405
LJ           1.51071        -6.33366         3.71736
LJ          -4.51984         2.30383       -0.135337
LJ           2.62955        -4.08447        -1.39352
LJ           4.60342        -3.49961        -6.20824
LJ           -2.3614        0.625482         2.89737
LJ          -5.85966        -1.04508         5.14619
LJ          -4.96734        -2.25556         1.28582
LJ           2.99819         3.79113         1.77327
LJ          -2.10958         2.75191        -4.06002
LJ          -2.47081        0.813911         1.53369
LJ          -3.12689         4.06431        -2.63255
LJ           4.50462        -5.34066         2.80488
