108
#Comment!
LJ         -0.532426        -2.16879        -0.44879
LJ           5.04193          1.5561         3.08717
LJ           5.14359        -1.23672        -2.78934
LJ           1.98347        -4.62996          1.1668
LJ          -3.40628        -3.43204         4.67979
LJ          -4.58719        -5.15041         5.30399
LJ           2.35822        -6.27612           4.003
LJ          -3.66083        -1.72847        -5.88924
LJ          -1.10364        -4.57956        -2.52704
LJ          -4.20489        0.487634        -2.23642
LJ         -0.868818         1.98368        0.258307
LJ          -3.81855       -0.206318         6.26219
LJ          -5.99585        -1.41594        -3.21336
LJ           3.61316        -4.55942        -5.06143
LJ          -6.11819         4.37711         2.27332
LJ         -0.662412        0.963583        -6.40231
LJ          -2.77307         3.48496        -2.17632
LJ           5.99944         4.02474        -5.95306
LJ          -2.76022       -0.665097       -0.508517
LJ          -1.42564       -0.720904        -3.23007
LJ           -2.4778         4.56917         4.31802
LJ          0.109759         6.00574         4.64257
LJ           4.71047        -4.23988        -3.20319
LJ          -5.53228         2.37209         2.87166
LJ           5.83269         5.14527        -3.47746
LJ           1.61691        0.207666         4.10357
LJ           -3.3721         2.35043        -2.46244
LJ          0.539688         2.79232         4.64487
LJ           1.04476        -1.89587         3.39037
LJ           5.11052          -2.145        -3.26743
LJ           3.41891         3.86991          -2.049
LJ         -0.293233         5.14586        -4.64937
LJ           6.00471         2.58272        -4.50507
LJ           2.70638         6.22141       -0.909509
LJ           -3.6886         2.01724        0.073143
LJ         -0.385121        -3.59179         4.61393
LJ            1.6409        -2.20317       -0.863203
LJ             1.186       0.0897109        -1.13155
LJ           4.26069         0.86206         5.18826
LJ          -3.19929      -0.0396018        -3.36205
LJ           -1.6311         2.65394         5.98558
LJ           1.75119          2.8033         5.24762
LJ          -6.41753        -1.50303        0.651248
LJ           1.99873        -1.30074         5.19146
LJ          -1.83729         3.67333         4.89402
LJ           5.07977         1.48411        -2.08801
LJ           5.40823        -3.39498          6.3092
LJ           3.43641      -0.0321708        -2.61414
LJ           -6.4632          4.5742        -2.01425
LJ           1.07748         5.06116        0.833141
LJ           5.56953        -4.56029        -1.65508
LJ          -3.19844         1.96783          4.8828
LJ           2.71019        -5.20144      -0.0973873
LJ          -6.24904        -1.62319       -0.811245
LJ          -1.81237         3.96121         3.33288
LJ           1.98793         2.00289        -1.21891
LJ          -3.62828         3.70051        -5.20941
LJ          -3.06773          1.4126         -2.5565
LJ          0.363723        -3.55169        -1.98906
LJ          -3.41618        -2.34235         3.88908
LJ           4.79363        -1.76391         1.76845
LJ          -1.67262      -0.0166164         -6.0188
LJ           2.30035        -2.13945         3.47211
LJ           4.37674        -5.61996         4.09977
LJ           -1.6889        -0.26278         3.08689
LJ          -1.92355        -3.49465         2.99041
LJ          -6.01936         -3.8576        -2.29743
LJ          -1.48261         6.00505          4.9347
LJ          -1.94779        -5.13743        -4.33104
LJ           2.65736         2.13928         -2.6939
LJ         -0.446441        -3.57988        -5.01739
LJ         -0.656488        -4.13863        0.194306
LJ           3.71176         5.36892         2.93253
LJ           5.70005          5.0546         1.38858
LJ           1.09192        -4.54145          4.3917
LJ           1.44191         3.39437         2.64077
LJ          -1.19643        -2.28921        0.952311
LJ           6.32228       -0.285381         5.36119
LJ          -3.25067        -6.23263         2.93274
LJ          -4.99039         3.60577        -2.82387
LJ          0.820116        -2.51435         4.52529
LJ           4.57511        -5.50829       -0.426646
LJ           5.60205        0.996816         5.63787
LJ          -5.49957         3.81812         3.36172
LJ           6.28805       -0.314344         4.32968
LJ          -4.01747        -3.58221        -5.36123
LJ           2.04172        -3.54158        -5.36012
LJ           4.79127         4.92948         0.17593
LJ          -2.65213         2.63751        -5.03748
LJ          -5.50808        -3.99883        0.135881
LJ           4.61512        0.269264        -1.27031
LJ          0.179951        -3.41002         1.60068
LJ          -3.55483         5.35252         6.38384
LJ          -5.78998         1.56911         4.41177
LJ          -1.56643        -2.59926       -0.556056
LJ          -2.35553        -1.44782          2.6903
LJ          -4.42339         2.45734        -2.42223
LJ          -4.55065         5.34572         6.30708
LJ          -5.89048         -5.1702         4.50677
LJ           -3.3919        -4.64222         4.34927
LJ          -3.61406         4.27507        -2.84372
LJ          -6.10868         -4.0801         1.86475
LJ           0.17374         4.56453        -2.16817
LJ           2.23055         0.27932        -1.42288
LJ          -2.97095        -1.42968         3.45982
LJ          -3.06226         4.40129         5.56845
LJ          -1.45541         3.54147        -2.55983
LJ          -2.52195        -1.61198        -3.30602
