108
#Comment!
LJ           1.44234        -3.21499         -4.1989
LJ           6.43302         -4.1581         6.45679
LJ           3.23074         6.07605        -3.99614
LJ          -1.11689        -5.26912         -6.3416
LJ          -1.46623        -0.84861         2.39203
LJ          -1.55512         4.85138          5.0303
LJ           0.36048          2.0936         3.36112
LJ           1.21498         1.13866         -2.5667
LJ           2.22298       -0.663504        -4.49082
LJ           2.51391         4.77055        -2.42025
LJ          -5.51339         1.63677       -0.668305
LJ           5.79252        -2.52159         0.12962
LJ          -2.77217        -4.71812         3.83819
LJ         -0.174015        -1.05918        -1.86328
LJ          -2.49516        -6.27775        -3.98419
LJ          0.986715         3.99783        -2.70012
LJ          -2.24787         2.30696         1.17395
LJ           5.50803        0.993349        0.907021
LJ           -6.3917        -5.37056        -4.82878
LJ           5.72294        0.372323        -5.06165
LJ          -1.83716         4.92566        -6.11535
LJ           4.40341        -3.54092         5.21558
LJ          -3.71832         2.79945         1.37828
LJ          -5.40474       -0.305614         1.98464
LJ           1.35101         2.34452         3.22264
LJ           2.63884        -2.73626       -0.843831
LJ           -1.8219        -0.91508        -6.20428
LJ           1.81116       -0.265938        -3.62354
LJ          -2.00818        0.742534        0.791454
LJ           1.60475         5.57082         2.58937
LJ           4.28977         1.10919         4.66736
LJ          -1.41336        -1.36005        -3.05046
LJ           1.19265        -5.21558        -3.03846
LJ          -1.21759        -3.85418        -4.78129
LJ           1.35547        -3.54711         2.73826
LJ           -1.3995        -5.07544        -1.30611
LJ          -1.59353         -4.7212          4.1381
LJ            2.9393        -4.42656        -2.58379
LJ          -1.92239         0.46783          2.1673
LJ           4.17922       -0.594753         1.83794
LJ            2.0591         3.40252        -2.76542
LJ          -5.92473        -5.54198       -0.630014
LJ           3.93597        -5.66775        -5.59764
LJ          -4.03867        -2.17387        -3.18705
LJ          -1.74257        -4.58019        0.137601
LJ         -0.675387         3.45564        -6.28211
LJ           6.22779         6.04964         2.99567
LJ          -2.65679        -6.21874         2.96807
LJ          -1.96581         2.58524       -0.541292
LJ          -2.99565         1.57777       0.0546207
LJ          0.607637         -4.7126         3.90821
LJ          -4.57259         2.63814         2.14511
LJ          -4.23001        -0.46432         6.01742
LJ         -0.454705         1.76566         6.10739
LJ           -1.4109        -4.77286        -3.33968
LJ          -5.19049          4.8559          5.0564
LJ           3.44032        -1.32989         4.71548
LJ           3.89666          5.0228        -1.98442
LJ         -0.563427        -3.53985         2.11985
LJ              1.34        -3.72585        -5.56055
LJ          0.557709        -1.92969         -1.5915
LJ          -4.59131         4.27465        -6.28963
LJ            4.6571         5.01867         -3.8656
LJ          -4.51165         2.20152         -2.0519
LJ            5.6486        0.182116         4.48335
LJ            6.0428        -1.46955         3.60865
LJ           5.75631      -0.0876146        -6.33173
LJ           6.37233         4.51848        -6.24757
LJ          -6.23891         6.40152        -5.31816
LJ          -5.04492        -4.54892        0.839447
LJ           5.70293         -1.1341        -1.64287
LJ         -0.787183        -4.25957        0.211926
LJ           3.35873        -3.32644       -0.195693
LJ           3.35756          3.7617        -2.68041
LJ           5.25835        -3.44702         -2.9737
LJ          -4.61302         6.39143         2.42679
LJ           4.12719        -6.09542         4.77184
LJ          -5.04569        -4.90462         -1.3311
LJ           5.05617         1.27665        -4.72757
LJ           6.44866         5.33567        -2.76482
LJ           4.07374        -2.53514         5.31397
LJ         -0.907285         2.38941        -3.19349
LJ           -3.2692         5.74449        0.466429
LJ          -1.42371       -0.843962        -1.33536
LJ          -5.14306         6.40047        -4.23352
LJ          -6.43246        -2.38636        -2.28265
LJ         -0.690205        -4.04939          -1.324
LJ          -5.60094         5.44416        -3.94808
LJ          -5.33357        0.788623        -2.29341
LJ           2.87079         -5.2568        0.690084
LJ           1.07674         6.43193         3.73047
LJ           4.68242        -3.64667         3.99521
LJ          0.953945         -1.9213        -3.04863
LJ         -0.538458        0.373756         2.11777
LJ           4.60332        -1.91121         4.67882
LJ           1.36268         4.05884        -4.18098
LJ           5.83144        -5.08658        -5.60927
LJ         -0.955581        -3.85193          4.9312
LJ           3.07258        -4.73435         -3.4744
LJ            2.9072         1.15505        -3.69924
LJ           3.66923        -4.29363       -0.193985
LJ           6.00642         -1.3112        -5.18729
LJ          -2.26293        -1.39253        -2.39886
LJ         -0.418264        -1.67711         3.72188
LJ          -1.62331         4.87056         -3.9401
LJ           -3.0062          4.4123        -5.23789
LJ            6.1306        -0.58883        -2.46141
LJ           2.46175         2.39625         2.18368
