108
#Comment!
LJ           4.79224        -3.62258        -4.74307
LJ          -1.28011         5.65823         4.42103
LJ           1.89282        -4.29379        -1.86019
LJ          -3.37055        -3.47867       -0.639359
LJ           2.03872         3.00215        -4.02862
LJ           -1.6049         -2.8829        -3.80216
LJ          -2.00942        -1.81446        -2.97286
LJ           4.43687        -3.72281         5.22301
LJ          -2.21111         2.33967        0.917108
LJ          -1.31483         1.52855         4.50522
LJ          -2.61438        -1.13901         -3.5619
LJ            5.1087         1.55529         5.07246
LJ             2.155         -5.3223        -1.81278
LJ          0.927745         3.28303        -1.74076
LJ           -4.6299       -0.259271        -1.23185
LJ           5.14947        -1.62463         -5.3167
LJ           5.14222         2.74884        -3.28176
LJ          -4.20158        -4.71974        -4.21969
LJ          -5.21227         5.06666        -6.11028
LJ           5.83147        -5.25315         1.09848
LJ           3.82891        -4.24677         3.43179
LJ           1.55056         5.92614         3.24847
LJ         -0.834986         1.13347         5.33378
LJ           1.97662        -1.50274      -0.0382812
LJ          -0.34475         -6.2506        -3.04667
LJ          0.482554        -4.57711        -2.04211
LJ          0.560925         2.65869         5.76365
LJ          -6.42054        -2.70586        -3.47324
LJ           3.22102        -5.39178        -4.16305
LJ           5.60037         2.99715        -4.66067
LJ           2.00608         -4.4772        -3.83438
LJ           -6.3287        -3.56709        -2.43096
LJ           3.43973         3.26131        -6.46068
LJ          -1.54817         4.14068        -4.09872
LJ           2.11652         1.87641       0.0652127
LJ         -0.711401       -0.195784         4.02703
LJ          -1.60837         2.62875        -1.54255
LJ          -2.61415        -5.85464         1.18552
LJ           4.67606        -6.08031        -3.59945
LJ          -3.63123        -2.25857       -0.911431
LJ           -4.5214         2.84052        -5.54844
LJ          -2.13277         5.89511        0.454857
LJ         -0.835612        -4.75949         3.70087
LJ            2.8983        -3.31065         -3.3467
LJ          -1.46039         1.38429        -2.76243
LJ           4.55809         5.73863         6.04115
LJ         0.0785059        -3.43443        0.263528
LJ          -5.13107         -4.0434        -3.00013
LJ           1.49417         3.79597        -3.11779
LJ          -2.21113       -0.166286         0.51296
LJ         -0.502432        -6.28693         3.70409
LJ           -2.1849         6.33146         3.88359
LJ          -6.28078         4.17002         3.60976
LJ           -1.8195        -4.06565        -2.22012
LJ          -4.58155        -6.19295        -2.57097
LJ           1.32211        -5.90774        -5.38988
LJ          0.230379         6.45937         5.39618
LJ           3.78375        0.209746        -3.43666
LJ          0.972938        -5.06937        -1.25973
LJ          -4.55843         2.19652        -3.38346
LJ          -1.75022         3.04361         1.41056
LJ         -0.641809        -3.42406         5.78621
LJ          -3.83942         1.04075        -1.69037
LJ           2.31634        -2.26766         4.22856
LJ           1.24939        -4.15733        0.251299
LJ             2.883           -4.32         3.04335
LJ          -2.00645         2.58187         2.46302
LJ          -6.16829         1.32612         1.19035
LJ          0.517656         -6.1679        -4.45667
LJ          -5.40438         2.92377        -1.19674
LJ           1.23337         3.62197        -4.66173
LJ          -4.75128         4.97186         3.64177
LJ          -3.33154         2.44322        -3.99916
LJ          -4.45159        -3.72769        0.581729
LJ          0.634241        0.816945         3.63341
LJ           3.39433          5.8927        -5.45184
LJ          -3.01042         -4.6467        -1.74959
LJ           -5.9359          5.9179       0.0208207
LJ          -2.86452        -2.48176        -5.11467
LJ           2.49215        -6.40161         1.85669
LJ          -3.82703         2.91592        -6.28471
LJ           1.29829        -3.74305         4.08017
LJ           1.64639        -5.82671        -4.03832
LJ           5.01029         3.12307        -6.33941
LJ          -4.97936         4.83599        -1.27815
LJ          -2.09491        -4.15202         1.75459
LJ            1.6811        -5.27224         3.90524
LJ            6.2755        -4.61162       -0.765676
LJ          -3.53066        0.398009         3.24105
LJ          0.776634         3.58891       -0.785234
LJ           4.49369         5.39811        -2.30631
LJ           6.06175          3.8229        -5.05335
LJ          -1.64555        -2.60887        -1.40279
LJ           1.63479         6.40912          5.2014
LJ         -0.526129        -3.51816         -3.5461
LJ          -4.83781         6.12564        -3.63993
LJ          -4.06815         6.28335         2.49077
LJ            1.7955         5.29528         -6.0203
LJ           5.36239        -6.35676        -1.72419
LJ          0.916083        -1.42508         2.59613
LJ           -5.6254        -4.87025         -3.9618
LJ         -0.917026        -2.52105        -6.44627
LJ         -0.130177        -4.52698         2.77532
LJ           1.38761        -1.57747         3.59375
LJ          0.577735        -5.04554         3.61937
LJ         -0.329388        -5.01346         0.44874
LJ          -1.54793         4.65018        -1.47255
LJ           3.61213        -3.91822        -3.86196
