108
#Comment!
LJ          0.543209        -4.28985         2.93783
LJ            2.8172          3.5593        -5.29007
LJ          -2.89572       -0.387908         4.87505
LJ           4.62018        -2.04564         4.31889
LJ         -0.605271         2.60498         5.74166
LJ          -5.69168         5.31164       -0.692603
LJ         -0.597403        -1.77961         1.69708
LJ          0.015795        -1.16184        -4.59718
LJ          -2.46792        -1.94113       -0.515581
LJ           4.46286        -4.23787         5.56535
LJ           4.42561         -5.3562          1.7982
LJ          -4.07518         4.60896         2.86859
LJ           5.30294        -1.38603         1.23753
LJ          -5.43274       0.0850497          1.1446
LJ          -5.22282        -5.66906         2.82371
LJ          -6.45456         4.06755        -5.33665
LJ           1.88665        0.585348        -4.34298
LJ           2.94204        -5.34286          3.7808
LJ           3.33917         4.94524        -4.27633
LJ           -4.0382       -0.366442         1.97581
LJ           1.69505        -4.44026         5.86641
LJ           2.92053       -0.871578         3.18266
LJ          -2.55302        -2.09956        -4.84966
LJ           5.59071         3.96511         1.63154
LJ         -0.266374         1.09937       0.0578512
LJ           4.26523       -0.648864         3.99506
LJ          -3.23706        -6.22875       -0.829011
LJ           0.73955        -1.35038        -5.92486
LJ           5.75228         6.33229         2.55563
LJ           2.57947         5.98617         -6.2011
LJ           1.47895        -4.47735        -4.13578
LJ          -1.06699         4.69955       -0.359641
LJ           5.15958        0.756812         2.14062
LJ          -1.84785         2.46439         6.11607
LJ           1.32265         3.93506         1.70979
LJ          -3.87228         1.37482         4.68912
LJ          -3.74407        -6.37785        -5.07559
LJ           1.02121        -3.24917        -3.24022
LJ          -5.80164        0.738333        -5.43618
LJ           1.60902        -2.68222        -0.22027
LJ            -2.391         6.32003        -1.20819
LJ           2.59733        -2.74957        -5.59332
LJ           5.06155        -4.41538          -4.498
LJ           6.32537        0.248625        -2.27851
LJ          -1.51623        -5.46401         3.96839
LJ           5.63214         5.77586         6.02579
LJ           6.44866       -0.315708         5.91473
LJ           4.56295         1.66054         5.50995
LJ          -4.53862         -2.1483         1.79471
LJ           1.67343        -1.74107        -2.46815
LJ          -2.93676         2.97452        -1.75436
LJ          -4.91623        -1.41725        -1.89387
LJ           4.75932         4.25989         -5.6482
LJ           3.46934         4.37361       -0.308012
LJ          -2.29785        -3.54829        -5.00757
LJ          -1.25669        -5.22783         -3.2741
LJ          -2.61321         4.47962        -3.10208
LJ           2.23641         5.00738        -5.59991
LJ           3.61884        -6.27031         3.47052
LJ           1.24997        -4.58296        -2.65504
LJ          -6.22003         1.99931         6.07841
LJ          -3.64616        -3.91984         4.99237
LJ           3.04695         4.19431         4.09087
LJ          -3.55221        -1.11006        -3.68597
LJ           6.40823       -0.537545        -3.22294
LJ           2.98076       -0.681712        -5.42626
LJ         -0.876038         5.70166         1.34205
LJ           4.90603        -1.90261       -0.627934
LJ           3.88129          5.0812        -2.18499
LJ          -1.74889        -1.45063         2.50578
LJ          -1.35318         1.65007        -6.16327
LJ           0.65939        -3.12923         2.44982
LJ           5.68072         4.75297       -0.820547
LJ         -0.368752        -6.04538         4.41913
LJ           1.44676         3.83788        -6.17047
LJ          -1.93445         2.44902        -2.86553
LJ           3.27876        -5.52866        -4.62947
LJ           4.64821         6.07951         6.25527
LJ           2.19305         6.28296        -2.27849
LJ           2.16813         3.71396         4.83331
LJ          -1.57259         5.17873         3.67344
LJ           2.11545        -1.60411        -5.37696
LJ          -4.07624         3.36745          4.0016
LJ           4.23631         5.11001         1.64752
LJ           3.86411       -0.688294        -4.12137
LJ           5.09755         5.22662         4.72884
LJ          -5.23434       -0.839217         4.22826
LJ           1.67084         2.79651         5.15707
LJ          0.614031         2.49453        -2.00474
LJ         -0.145018        0.758164        -1.47105
LJ          -1.41905        -2.83483         4.40401
LJ           1.12593        -1.82326          2.3566
LJ           6.17752         1.91938        -5.70336
LJ         -0.267243       0.0789828        0.899567
LJ         -0.306436         3.96518        -5.79007
LJ          0.805656        -2.08878         5.91328
LJ           2.21433         2.14721        -6.07388
LJ           3.62732        -4.00446        -2.67141
LJ         -0.462369        -5.82876        -6.22751
LJ           4.43215         2.32413         -3.8105
LJ             6.114        -2.43253        -5.84673
LJ           4.03859         1.09157         1.90903
LJ           1.60478        0.594816        -3.34147
LJ          -3.72489        -2.88133       -0.116269
LJ          -4.23421        -2.03915         3.18006
LJ           5.87356         -5.9757        -5.44224
LJ           4.22367           5.029        -5.04168
LJ          -3.67662        -5.34085       0.0626288
