108
#Comment!
LJ         -0.777642         2.99949         5.17389
LJ          -6.29741        -6.24658         4.55908
LJ           5.45241      -0.0212228        -2.97037
LJ           1.30208        -2.09664         2.41191
LJ          -2.26846        -2.78642         5.38684
LJ          -3.13264        -3.35974         -1.3751
LJ          -1.41322         5.71233         0.37613
LJ           5.64309        -3.84066        -5.20322
LJ         -0.505121        -6.42555        -4.87397
LJ           3.25747        -1.13092       -0.854931
LJ           4.74748         5.04546        -5.36344
LJ           2.65747        -1.71441         5.88481
LJ          -6.23398         3.94852        -1.88071
LJ           -1.0517        -4.46707          3.9188
LJ          0.296251        -2.82255         5.52788
LJ           -4.3579         1.84126        -4.50339
LJ           5.89189         2.55345         4.28456
LJ           2.83814         4.16507        -4.75297
LJ          -2.69812        -2.32396         4.15093
LJ           1.20619         3.77317          -3.571
LJ           4.13426        -0.66791        -2.98653
LJ           4.99753         3.76954         4.19343
LJ           4.71439         4.93099        -3.45878
LJ           1.31976         3.07181         1.45731
LJ         -0.124587        -6.35451         1.59193
LJ          -4.85269         4.60026        -1.86505
LJ          -1.00629         2.43202        -6.37101
LJ           1.46785        -2.07908         5.66707
LJ          -2.07202        -5.59021         2.84358
LJ          0.339902         3.89417        -2.62727
LJ           5.92856        -3.09256        -3.36343
LJ           3.70791        -5.91878         4.14472
LJ         -0.518589        -5.51508         1.05706
LJ          -3.77394         3.65135         5.74175
LJ          -6.15351       -0.403497         1.84819
LJ          -3.70915        -3.77547        -3.45171
LJ         -0.719348        -2.03656       -0.392871
LJ         -0.175704         4.25243        -4.01196
LJ          -5.11762        -2.69767         3.10022
LJ           -1.8121        -4.15911        -5.21594
LJ          -3.53316        -3.77264         1.41426
LJ           5.59784         6.45872         6.39755
LJ          -2.32711        -4.69253        -3.29578
LJ           5.02689        -5.47987         4.34761
LJ          -2.11975         5.72376        -2.45561
LJ         -0.772338          6.4577         0.49455
LJ          -4.16264        -2.00485        -3.43956
LJ          -6.30069        -2.27379         -3.9742
LJ           4.67183         2.87216         5.24178
LJ           1.47469         1.08494         -5.4703
LJ           3.29251        -5.26948          1.7477
LJ          -3.67402        -6.29709        -3.14874
LJ          -3.61738         -4.0763         5.56549
LJ         -0.542337         -1.2521        -4.41844
LJ          -1.34408         4.02754         -6.1636
LJ           5.18793          2.7852        -3.98669
LJ          -3.07442        -2.46488         5.97797
LJ          -3.83482        -2.08713         4.75553
LJ           2.89705         2.46444        -4.76202
LJ            3.9914        -4.96549          2.7214
LJ          -1.92718           1.382          5.7748
LJ           5.56109        -2.86437       -0.361644
LJ          0.876215        -5.88666           1.246
LJ           4.17788       -0.882555        -5.04201
LJ           5.55164         1.98237        -3.11552
LJ           0.57943         4.94929         1.91367
LJ           -6.4099        -1.87676        0.240762
LJ          -4.30995          4.1852         2.16429
LJ           1.02765        -4.53994        -5.56568
LJ          -3.18165         4.74981        -3.74101
LJ         -0.221687         1.10891         5.16853
LJ           3.59963        -6.16081        -3.52771
LJ          0.728726        -5.87472         5.68165
LJ         -0.698979          6.2759         3.22725
LJ           3.51173         5.32609         3.45383
LJ            5.8427        0.827324         4.50999
LJ         -0.796146        -5.74093        -5.78194
LJ          -3.97572        -2.06397        -4.44739
LJ          -2.75284        -4.71728        -0.85191
LJ          -5.36332         2.85713        0.577658
LJ           -4.8623        -3.32106          1.3838
LJ          -6.34225      -0.0343929        -2.81361
LJ          -2.05736         6.20916          5.5064
LJ          -3.03287         1.53246        -5.63736
LJ           2.54043       -0.864439        -3.65454
LJ         -0.783294         1.50534         1.49709
LJ         -0.805238         4.85395         4.57399
LJ           2.09424        -0.91151        -1.17115
LJ           5.93417         6.33024          3.7776
LJ           2.27883         1.61627        -1.38297
LJ           3.42477          5.1614        -1.42334
LJ           2.94392       -0.360558         5.28663
LJ          -2.05913        -3.24698        -0.99385
LJ          -3.07046        -4.81412        0.149424
LJ          -3.85453         2.96009         4.29113
LJ          -5.38549        -2.32023        -5.53881
LJ           3.82778         2.99055        -1.60552
LJ            -3.712        0.675777        -3.71161
LJ           1.66841         4.31306         2.16178
LJ          -2.55292         3.14713        -0.44245
LJ          -4.83753         1.26399        -5.22546
LJ           1.47305         2.41954        -3.85827
LJ         -0.445147         3.94879       -0.457775
LJ           2.04153        0.310189          3.6819
LJ           3.69863        0.542322       -0.655848
LJ           -6.0026        -4.45712         5.88294
LJ          -1.78813         5.81286        -5.74004
LJ           3.22091        -4.11291        -4.51011
