108
#Comment!
LJ            2.1322        -2.79526        -4.04555
LJ           6.15735        -3.88302        -5.69761
LJ          -6.28384          6.1798        -5.35901
LJ          -0.90705        -4.90384         5.61396
LJ         -0.318068         1.45968        -1.98387
LJ         -0.278294         3.63606         2.64954
LJ         -0.396415       -0.377157         2.76568
LJ           1.48853         2.02933        -5.24232
LJ           1.28439        -1.24737        -4.13541
LJ           2.61538         3.94749        -3.36101
LJ          -5.70107        0.657091        -2.06386
LJ          -6.35084        -1.86348         1.42459
LJ          -3.66118        -5.57185        -4.98533
LJ         -0.793331         2.11724        -3.23226
LJ          -3.41443        -6.38345         4.69364
LJ          -1.60108         4.06822        -2.79847
LJ          -4.09319         1.67278       -0.603296
LJ          -5.75166        0.590807        0.704238
LJ          -6.04312        -3.13672        -4.85567
LJ           1.59517        0.955931         5.28408
LJ          -1.21459        -6.08163         5.40629
LJ           5.02189        -4.21679         5.31021
LJ          -3.52647         2.25633         1.23143
LJ           6.27615       0.0907806         2.88727
LJ          0.673973         2.18294         2.34691
LJ          -6.38417        -1.90459        0.179351
LJ         -0.697524         -2.8684        -4.06254
LJ           1.18967        -2.37963        -3.23159
LJ          -3.42644         2.36852         3.14566
LJ         -0.082576        -5.44197         3.61635
LJ           5.27048       -0.146102      0.00673493
LJ         -0.975637        0.193734        -3.28776
LJ           3.26053        -3.99029        -3.91586
LJ           -2.3387        -3.29029        -6.10158
LJ          -1.91275         -4.6665         3.03536
LJ          -1.20906        -5.31609        -2.24069
LJ          0.235491        -2.47184         4.83191
LJ           3.13387        -2.83343        0.125554
LJ          -3.98951       -0.306423         1.81172
LJ           2.21899        -1.32678         1.33859
LJ           1.16375         1.69008       -0.495684
LJ          -4.31811        -4.79257         1.37177
LJ           1.22291        -4.86268        -4.48976
LJ          -6.20675       -0.330815        -2.56474
LJ          -2.81834        -4.49678        -2.27026
LJ          0.745202          4.9597         -2.5334
LJ           5.85248         4.64679         1.06985
LJ          -1.89281        -4.95606         4.53211
LJ          0.423394          1.0059       -0.304179
LJ         -0.105381        0.197124       -0.839747
LJ          0.549242        -5.46507          2.2653
LJ          -4.43612         2.93874         1.33455
LJ          -5.24427        -2.68674         6.27007
LJ          0.385362         3.18548         3.79674
LJ         -0.164313         -4.1624        -3.34661
LJ          -5.01005          4.9952         4.49635
LJ           4.60573       -0.868624           5.416
LJ           2.83554         4.97325        -2.65951
LJ          -3.15523        -5.04062         3.21692
LJ           4.08181        -1.70016        -3.06075
LJ          0.796259        0.802673         -3.3819
LJ          -3.01214         4.60837         5.52209
LJ          -5.92774         4.77621        -4.69092
LJ          -4.56254         1.52761        -2.80348
LJ          -6.37794       -0.227522         5.64283
LJ           3.36162       -0.127354         4.73292
LJ           4.07102          1.4061        -6.23345
LJ           6.05175         3.47405         3.84457
LJ          -5.45688         5.52065        -4.02733
LJ          -6.08794        -4.40939         1.33444
LJ          -5.65777        -1.23067       -0.611138
LJ          -1.16482        -4.21654         1.63002
LJ           4.94589        -4.04908         2.52182
LJ           2.37119         2.14051        -4.02235
LJ           5.25646        -2.66856        -2.59198
LJ          -1.24497         5.77449         4.50113
LJ           4.56427        -6.09523         5.93985
LJ          -5.63038         -5.0481       -0.341014
LJ           2.99844         2.82699        -4.77965
LJ           5.11722         5.94678        -1.67932
LJ           5.94965       -0.859546         4.79565
LJ          0.177953         0.23643        -4.07968
LJ          -1.65926        -5.25118       -0.526595
LJ         -0.656591        -2.70782         -2.7589
LJ          -4.56772        -5.91171         -5.5625
LJ           5.92896        -1.08442        -2.96237
LJ            1.3858         6.05497        -1.01526
LJ           5.31796        -3.76284        -3.36925
LJ           6.06238         1.57234        -2.39997
LJ          0.659499        -5.76573         1.16894
LJ          0.817115        -4.65725         3.95143
LJ           4.77818        -3.53648         4.45311
LJ          0.556463        -0.67704        -4.03382
LJ          0.169359     -0.00793588         1.61314
LJ            3.4274         -1.3666        0.636198
LJ           1.76208         6.37776        -4.61733
LJ           4.56425        -4.89652        -2.36936
LJ         0.0158687        -3.88622         4.90617
LJ           3.30124        -5.12888        -3.47241
LJ           4.61065         3.86009        -3.44427
LJ           4.63023        -5.09104        -0.66406
LJ           4.97676         -2.1159         -3.9531
LJ          -1.99871        -1.86099        -2.57273
LJ          0.422562        -1.24263         1.54977
LJ           1.50874         5.19368        -5.21682
LJ          -1.72073         5.63881        -5.19669
LJ           -5.1948       -0.753532        -1.81621
LJ           3.53815         2.88799         1.38557
