108
#Comment!
LJ           5.82235        -1.49691       -0.697177
LJ         -0.259251        -4.42991         3.46503
LJ           5.66193       -0.682998         -5.5765
LJ           2.48868        -5.92761        -2.58443
LJ           4.56279         6.24055         -6.0241
LJ          0.184836        -5.93071         3.45858
LJ          -2.39658         -2.1078        -4.69294
LJ          -1.86787         3.69692        -1.56078
LJ           4.45888        0.825978        -5.34049
LJ            3.8109        -5.89296         1.61717
LJ          -4.27053        0.861263         1.42282
LJ           5.29179         1.38501         3.33296
LJ           3.88737        -2.66628        -3.19278
LJ          -4.18006         0.89689        -2.96067
LJ           -3.2855         2.28479        -6.34355
LJ         -0.407858        -1.26003         1.41724
LJ          -5.09408         1.68141        -4.68583
LJ           3.52569      -0.0596572         2.14485
LJ          -2.81776         -4.8496        -1.03631
LJ           5.84323        -3.86526         1.94661
LJ            5.8363        -4.61921        -2.67747
LJ           4.74123        -1.52612        -2.74964
LJ           6.18348         2.08569       0.0935079
LJ          0.273252        -1.36851         2.29236
LJ           3.91856         5.98878         5.24487
LJ          -4.74649         1.94677        -1.79287
LJ          -3.87175         2.38829         5.78578
LJ          -3.15908        -1.78381        -2.87996
LJ          -4.71931        -1.92648        -2.28884
LJ          -1.69166        -6.44065         4.30948
LJ            4.6246        -1.18349        -4.34772
LJ          0.124352        -4.11966        -2.67544
LJ          -1.18443         -5.9612        -5.60488
LJ          0.412367         1.19077       -0.804404
LJ           4.97583       -0.652169         1.26588
LJ          -2.19582          -1.706         5.78411
LJ          -4.11663         2.38916         2.83421
LJ           3.59663         6.00694        -6.31168
LJ           5.52544        -4.19615        -3.67369
LJ          -1.98495       -0.655318         5.95428
LJ           5.12622         5.92528         2.91616
LJ          -2.23706        -2.47252        -6.26615
LJ          -1.79609        -5.39965        -4.74021
LJ           2.94045         2.31273        -3.56561
LJ         -0.305219         6.06218         2.95939
LJ           4.56126         5.88947         -1.5642
LJ           2.25852          4.2176        -3.88394
LJ          -1.91415         4.01641        -3.28364
LJ          -2.18247         4.48882        0.957034
LJ           5.89401        -4.34486         3.96376
LJ          -5.08232        -2.75151       -0.764992
LJ          -1.46144         4.83824         -3.7813
LJ           5.09678         5.47898        -5.33432
LJ           3.17781           1.948         6.17863
LJ          -1.26054        -3.67705         3.27065
LJ           2.50148       -0.979645         3.32416
LJ           5.45076         5.66718         1.23484
LJ         -0.607654        -5.58028         6.00774
LJ          -6.09935        0.247726        -5.20188
LJ          -2.64165        -3.86233         -2.0725
LJ           4.60278        0.676446         3.06843
LJ          -5.40721        -3.04642        -2.08199
LJ           2.41961         5.54312        0.974129
LJ          -5.39489        -0.92611        -3.32642
LJ           5.63465         4.76262       -0.647356
LJ        0.00220465        -2.50446         1.00741
LJ           5.82098         2.30766        -2.38602
LJ          -2.59679       -0.697816        -4.36789
LJ          -3.64271        -2.43088       -0.944727
LJ           0.92342         3.44403        -4.19254
LJ          -1.84246         -5.1198         3.96915
LJ          -4.58523         6.30948        -2.75095
LJ           5.17485        -2.53881         -5.7238
LJ          -5.10736        0.357431        0.147942
LJ          -5.54022        -5.67664         2.16326
LJ          -2.66738         1.31094        -3.30023
LJ          -5.26539         2.15901        -3.08932
LJ           4.64434        -2.23047         4.84334
LJ          0.263704        -4.92577         1.24856
LJ           5.07558        -1.18654        -1.67557
LJ           4.72812        -4.93674        -1.46808
LJ           2.13793        -6.30754        -4.11839
LJ          -4.01178       -0.213916        -5.19137
LJ           2.03841         5.82021        -1.67111
LJ           0.44261         -1.7292      -0.0766114
LJ           -3.3071         2.25562       -0.818903
LJ          -1.12146        -2.56079        -1.17473
LJ           4.48062         6.30904        -5.06104
LJ          -5.98957        -5.86161         5.30219
LJ           3.47165         -2.2966        -2.43565
LJ           6.14066       -0.535242        -4.70285
LJ          -4.63554        -4.77477        -5.50938
LJ           1.77437         1.86631        -3.13938
LJ           1.09299        -1.29015         3.65763
LJ          -5.38937         -6.4129         3.32035
LJ           4.16609          6.2017        -2.46965
LJ            -2.972        -3.52931         2.32478
LJ           2.53272        -5.54066         3.99145
LJ          -4.28279     -0.00124315        -6.41436
LJ          -1.98137       -0.565638        -5.65885
LJ          -1.31745        -4.49679        -1.05061
LJ         -0.647716        -1.24197        -6.34372
LJ           3.88302         4.46154        -4.87111
LJ          -6.40337        -2.15394        -4.57768
LJ          -4.06244        -6.20903         4.85298
LJ           2.53654        -4.21345         4.69429
LJ           3.89157         2.59293        -2.02008
LJ           3.56178        0.305185         5.87206
