108
#Comment!
LJ           5.03761          5.6256        -5.61849
LJ           5.48206       -0.623976        0.943285
LJ           4.42173        -0.41617         5.09929
LJ          -1.77946         0.21019        -2.79721
LJ           4.79936        -4.66273         3.55077
LJ          -3.32611         3.65054        0.765098
LJ           1.53959         3.29484       -0.309025
LJ           1.22632         2.92567        -1.30859
LJ          -2.88641        -3.94701        -2.38011
LJ           3.31661         5.86377         2.66839
LJ           6.41507         1.03085        -3.94977
LJ           4.94128         4.41903        -2.43375
LJ          -3.99038        0.987334        -1.60342
LJ           2.83389         5.16853         5.76636
LJ           2.79615         3.86085         5.81952
LJ           3.48481         3.71267        -3.75675
LJ           4.44537         2.16557         2.27574
LJ            4.2217          6.4272         2.75905
LJ          -3.61409         2.84014        -3.74765
LJ         -0.663841        -4.06044        -3.23431
LJ         -0.774989        -2.28913         4.54511
LJ          -3.66066        -5.75346         4.88124
LJ          -2.96828       0.0416056          4.9915
LJ          -3.97916         1.42566         1.89457
LJ          -3.64958        -5.69679         1.73388
LJ           -1.6162        -3.62864         2.27394
LJ           2.43435         5.16419         1.42299
LJ          -4.25131        -3.79574         2.12043
LJ          -3.35654         5.37073        -5.90088
LJ          -2.20134       -0.304151         5.88147
LJ           4.07112        0.484119        -5.38628
LJ          -3.93464           3.197         3.35122
LJ          0.774344         -5.2523        -2.36179
LJ           1.20568         3.58831         6.32569
LJ         -0.455445         -1.4862        -3.03683
LJ          -4.30022        -1.51368         3.22743
LJ           2.41806         3.04511        0.829262
LJ           2.35676        0.716327         4.58756
LJ           3.37769          0.8631         5.97075
LJ          0.123507         1.80671           5.095
LJ          -2.82585        -4.44897         0.68494
LJ          -3.28743        -1.45753        -6.35475
LJ           6.12302        -6.07841        -4.51058
LJ            3.4417        -4.38036        -4.83533
LJ          -5.15294         5.69318         0.59819
LJ          -1.03476      -0.0596542         5.28313
LJ           4.44228         2.37272         3.74166
LJ            1.8062        -3.90018         1.42595
LJ           3.55946         1.54532         1.79397
LJ           4.31559        -4.72368      -0.0759261
LJ          -3.63314         6.17803         2.81691
LJ           6.17174         2.58162        -4.17776
LJ           1.57773        -1.22037        -3.62475
LJ           5.94413         4.81645        -4.38173
LJ         -0.463805         -3.3449         3.18713
LJ          0.887771         5.73929         3.60117
LJ         -0.156842         6.39839        -2.25079
LJ          -3.67916         2.22452        -1.82509
LJ           5.98425         3.07373        -3.02944
LJ           3.61115         2.39933       0.0108879
LJ         -0.660331        -3.36131       -0.233951
LJ           3.13873         3.20378        -1.55105
LJ         -0.304479         6.18786         6.02718
LJ          -5.61393         3.84687        -4.86515
LJ         -0.972295        -5.14449         5.60784
LJ          0.138414        -4.14266         4.82897
LJ          -3.35181       -0.388341         6.14323
LJ          -6.27119        -5.41462          3.8642
LJ           2.06356        -2.32859        -1.99355
LJ           1.68268         5.98904         4.14396
LJ           -4.1508        -4.01424        -2.91232
LJ          -4.99229        -3.63509         4.73661
LJ           1.05347         -3.8174         4.59964
LJ            4.0336         5.94301        -5.19613
LJ           3.88212         6.01991         -2.6153
LJ           6.06887         4.46971         4.53813
LJ           2.45062        -3.24544        -5.97843
LJ          -2.26852         4.93079         5.14263
LJ          -5.31354       -0.297955        -2.28445
LJ          -6.18923        -2.70163        -4.53963
LJ           1.13958        -1.27344         4.06448
LJ           6.45078        -4.80507          4.7585
LJ          -2.89533        -1.06347        -4.74301
LJ           1.57655        -2.73945         -5.6737
LJ          0.313007         1.99639        -3.77438
LJ          -2.54459        -4.99825        -6.39236
LJ          -1.51486        -1.94863         2.94656
LJ          -6.20831         5.54151        -0.76528
LJ           3.45676         0.62278         2.25826
LJ           5.95025        0.749362        -1.10193
LJ           3.77352        -4.42498         2.86329
LJ          -1.25681         5.75829        0.962562
LJ          -6.38737        -2.26948        -3.29578
LJ           2.18029         5.66642         2.86478
LJ          -5.68241         -6.2117        -1.71288
LJ           1.22028       -0.632997         4.89935
LJ           1.33306         5.74394         5.29198
LJ          -1.86692        -1.29825         5.49708
LJ          -3.76524         3.38342         6.24466
LJ          -4.93376         -3.3656        -5.47248
LJ          -2.17492         2.93224        -4.29384
LJ          -4.55484        -1.66224         4.66622
LJ          -2.47304         2.99705         1.18666
LJ          -3.45201         1.31827        -2.94322
LJ           3.42193         1.47594         -5.3365
LJ          0.703377        -4.12939         -2.1034
LJ           1.19762        -2.95745        -2.50679
LJ           3.17376         5.65742        -1.61162
