108
#Comment!
LJ           1.72119        -1.61738       -0.224122
LJ         -0.585264         5.33066        -1.37667
LJ           5.75515         5.24044         4.80044
LJ          -1.28847         1.71124        -6.06895
LJ            6.0133          5.6141         3.74575
LJ          0.967711         4.95307        -2.57276
LJ           2.57902        0.476857        -4.14339
LJ           1.75559         3.24539        -4.73111
LJ          -5.83386          1.9374         3.57751
LJ          0.273567        -4.31475          5.5922
LJ           -3.3772         5.82858         5.11691
LJ           5.82095        -4.31165         5.66863
LJ           1.16376         5.09334         3.91311
LJ          -6.39804        -2.83675        0.390562
LJ           4.02079         3.04968         5.96629
LJ          0.396352         4.53832         5.75033
LJ          -4.45606        -4.02535        -3.97013
LJ           -3.1489         2.20295        -3.76766
LJ          0.264871        -4.59244        -4.08544
LJ           5.15216         3.30299         4.41886
LJ           2.27073        -3.21833        -2.50162
LJ          -1.56785        -1.24822        -1.48516
LJ          -3.73046        0.560238        0.260753
LJ           1.16154        -2.01077           6.375
LJ          -3.53616         -3.3831          3.8641
LJ           1.16372         5.64618         5.46209
LJ           3.23862       -0.562984        -1.69557
LJ           3.01833           6.381        -5.02092
LJ          -2.65412        -6.00676         6.12403
LJ          -5.84513        -4.70532         3.65507
LJ           6.10713        -3.61575         1.64265
LJ          -6.39965        -6.43001         5.25004
LJ          -1.59712         2.67217        -6.28426
LJ          -4.59881       -0.305949        -4.82599
LJ          -2.16333         2.58195         1.01033
LJ         -0.353844        0.192591         6.24766
LJ           -3.3895        -0.52476        -1.14247
LJ          -3.56274        0.632039          4.5071
LJ          -2.41301         5.02481        -2.56089
LJ          -3.11071         -3.1715         -6.0181
LJ          -6.06211       -0.978033        -3.88468
LJ         -0.465681         4.72465        -3.07876
LJ        -0.0215121         1.09505        0.870191
LJ            4.7711        -1.82913        0.209331
LJ           3.35469        -2.26849          4.8702
LJ          -2.70052       -0.295742        0.776674
LJ           2.24361         3.68131        -3.75933
LJ         0.0568706       -0.539137         2.52925
LJ           6.30519        -2.25264        -6.09286
LJ          -2.70061        -2.09797        -2.41415
LJ          -1.16984         3.78117         1.61237
LJ          -2.15599         -1.9709         5.53024
LJ          -5.54012         2.22147        -4.06005
LJ           6.03088         3.19727        -4.32859
LJ         -0.816956          3.3616         2.99368
LJ          -3.54786         2.20038        -1.91068
LJ          -4.32036        -4.81659        -1.55193
LJ           6.20439         2.52326         2.37151
LJ           4.55602         4.21242        -4.59085
LJ          -2.86075         4.47217        -0.09514
LJ          -1.31577        0.261135        -1.75678
LJ          -2.39453        -6.18315         4.65304
LJ         -0.306066        -2.95367         5.78901
LJ       -0.00231286         2.45137        -4.14728
LJ          -3.72235         6.10366        -1.03676
LJ          -2.04362         -2.5532         2.69882
LJ           -4.5312        -3.02765         -5.0684
LJ           2.87099        0.499963        -5.28947
LJ            4.2262         5.84673        -6.18948
LJ          -4.60762        -5.98864        -2.03028
LJ           1.81421        -3.75441        -6.17815
LJ          -3.17454         4.46185        -4.70977
LJ          0.148543        -5.99695        -4.50372
LJ           5.06359         1.13959         2.33827
LJ           2.51064        -2.44484        -1.63594
LJ          0.948843         3.45463        0.715104
LJ          0.600404         3.43376        -4.35915
LJ           2.70544        -6.40622        -1.74599
LJ         -0.379798        -3.54943        -6.22843
LJ           6.27337        -4.44168         -2.3053
LJ          -1.55384         3.95038         2.50905
LJ           -6.1838        -2.47705        -5.12217
LJ          -1.82325        -5.09697         4.44492
LJ           2.44418        -6.33299         1.53078
LJ            1.2124         3.24132         4.97632
LJ          -2.36991         5.49546         4.46328
LJ           5.80459        -5.23036         6.23025
LJ          -1.54939        -2.23105        -0.71901
LJ           -2.4604        -0.30941         3.16308
LJ          -5.58677         -4.8534         5.72339
LJ          -0.31401         2.70962        -2.97223
LJ          -3.39942       -0.480622        -4.82231
LJ           2.63575        0.154642        -2.12892
LJ          -4.83253         2.44152         3.15553
LJ          -4.52668        0.481048         2.45982
LJ           -3.9297        -1.29132        0.609847
LJ           4.20686         5.40807         4.36977
LJ          -4.45074         3.75271      -0.0354821
LJ           4.85438         5.30043        -2.02563
LJ           1.28498        -2.17571        -5.47532
LJ            4.6104        0.780416      -0.0431677
LJ          -1.46076         6.24347          -5.486
LJ           5.79581        -2.95655        -2.92733
LJ          -4.22841         2.28532        -4.32771
LJ           -1.4112        -5.21621         5.62924
LJ          0.294446        -1.58862         -5.0639
LJ          -4.73115         5.64628        -6.25516
LJ           4.68519        -4.80773        -6.37147
