108
#Comment!
LJ          -4.90848        -6.39182        -6.37829
LJ           1.28279           3.002        -0.92898
LJ          -2.25915         3.72366         1.91109
LJ         -0.825972         3.38411        -5.73135
LJ           2.21217         -6.3776       -0.654966
LJ           3.15523        -0.87889         6.16652
LJ          -1.33581        -2.30027        0.632655
LJ          -4.16768         6.19173         1.01896
LJ           4.43936       0.0133377        -3.30915
LJ          -5.18933         6.21142         3.68089
LJ           5.78629        -1.54607        -6.08447
LJ          -6.30631        -5.51357         4.06229
LJ            5.4109         4.09171         1.74852
LJ          -2.95929        -2.96123         -4.6574
LJ         -0.413799       -0.409096         2.43214
LJ          -0.17936         2.17094        -5.46126
LJ          -5.61883        0.106416        -1.62425
LJ           2.82519        -5.80401        -4.42237
LJ           4.59921        -4.68019           6.311
LJ           -2.6585         5.87882         5.09992
LJ          0.640401       -0.898373         1.02946
LJ           3.90303         2.90844        0.870909
LJ           3.41486         5.55707        -6.20245
LJ          -4.56911         4.13601        -4.52163
LJ           1.91154        -2.14818       -0.756559
LJ          -5.85176        -5.32989         5.92566
LJ           2.05908        -1.24917         6.44649
LJ          -2.29106         1.40873         0.58098
LJ          -1.60209         2.18239        -5.60641
LJ           2.99362        -1.33992         5.03282
LJ           1.01542         1.74801         4.20448
LJ          -4.71115         -4.6212     -0.00470611
LJ         0.0825124          3.3644        -3.60548
LJ           3.29311        -2.72546         5.16216
LJ          -4.33896         0.70088       -0.230604
LJ          -5.68358        -5.85825         3.30172
LJ          -3.55329        -1.51746         4.49956
LJ          -2.11697       -0.900596         5.86362
LJ           1.23004        -1.50926        -1.93135
LJ          -2.18862        -4.65687        -3.50291
LJ           5.74512         1.33784        -2.92761
LJ         -0.597301         5.11124         1.23088
LJ          0.882068        -3.19419         3.92832
LJ           5.58053         2.06461         1.07717
LJ          -2.51318        -4.80321         1.57092
LJ          -2.47176         5.34516         6.10515
LJ          -2.34635        -2.90326         3.76173
LJ           4.90429        -2.86854        0.989796
LJ         -0.989341        -4.57578         5.56719
LJ           6.09266         4.35868        -3.41458
LJ           3.20895         -5.5571        0.621633
LJ          -5.76231        -5.99575       -0.426012
LJ           2.06303         1.06305         4.15307
LJ           2.00771        -6.16505        -5.93744
LJ          -4.48962        -3.45887         3.58457
LJ          -2.27307         -4.9592        -5.02684
LJ          -5.67079         2.54695        -1.82588
LJ          -5.45723        -1.08003         3.11313
LJ          -4.74754        0.670817         5.22554
LJ           -3.6707         5.54489         3.07146
LJ           1.58306        -5.54409         2.21573
LJ           5.04272        -5.11755        -4.47824
LJ        -0.0224778        0.769459        -3.84535
LJ           2.53899        -4.13576         2.88186
LJ           2.54335         4.32951        -6.40469
LJ           1.80485        -5.97079        -3.24873
LJ         -0.186027         1.73703          6.2828
LJ          -3.34176         4.17059        -3.69756
LJ          -1.62956        -5.83525        -4.16967
LJ          -2.27982         2.07504         2.60354
LJ           -1.5299         3.46256         1.11354
LJ         -0.571911        -3.70072         5.52611
LJ          0.245599        -2.29225         1.68958
LJ          -5.24398        -4.66729        -1.26846
LJ          -1.25544         5.93298       -0.339397
LJ          -5.80072         1.99285         4.56561
LJ          0.312872         2.13646        0.832667
LJ           2.19696        -1.04578        -4.76524
LJ           6.45156        -0.82094         2.41626
LJ         -0.736367         -4.9213         -2.9244
LJ          -3.89711        -6.40067         3.97326
LJ          0.349977        -1.60445         3.96892
LJ          0.479633        0.271527         2.57143
LJ         -0.429008        -2.98692         3.90334
LJ            5.2386        -1.53486         5.73263
LJ           1.17827         2.40184        -3.30253
LJ          0.649318        -6.34767          6.3231
LJ          -3.24241         5.41849         1.13245
LJ          -5.25084         4.87557       -0.990496
LJ           5.03855         2.41535        -1.09959
LJ           1.39802         1.66758         1.36709
LJ          -1.41181        -5.12198         6.25575
LJ          -4.91652       -0.298189         4.11016
LJ         -0.686462          1.0019         5.72192
LJ           3.89657        -1.98002        -3.45128
LJ          -1.15828         -5.8972         1.46095
LJ           2.08901         1.62715        -5.52377
LJ           2.14214      -0.0131848         2.16529
LJ         -0.956904        -2.88472        -5.34007
LJ          -4.70247         4.86103        -5.86714
LJ           4.37236          -2.049        0.390208
LJ          -1.80024        -2.07574         3.35063
LJ          -6.32351         1.59135         3.73393
LJ            1.1525        -3.21045       -0.737622
LJ          -2.68748         4.16695       -0.866723
LJ          -3.25862       0.0264582       -0.930123
LJ          0.814425         2.29368         3.23466
LJ          -2.88829       -0.969194         -1.0068
