108
#Comment!
LJ           2.70352        -5.26629        -5.02737
LJ           5.08807        -4.23835        -0.68601
LJ          -6.41813          4.0094         -3.7081
LJ           5.76393         4.39266        -1.44512
LJ         -0.470516        -2.63762          -2.247
LJ          -1.07164        -4.08187         1.50658
LJ          -1.86983        -5.40961         5.68678
LJ           1.01785      -0.0743173        -5.37672
LJ          -3.05563        -1.29199         6.24768
LJ          -2.80906        -5.13312        -6.34525
LJ          -2.56424         1.32436         -3.1223
LJ          0.374271         2.90644         3.89362
LJ          -5.94676         2.73535         6.07168
LJ           2.34641         3.58454         3.16348
LJ          -1.03621         1.17083         5.61406
LJ           5.25358        0.506141        -5.10659
LJ           5.90718        -3.99282         3.32568
LJ          0.642661        -4.42231          3.2224
LJ           1.16406        -0.81507        -2.07001
LJ           5.19865       -0.497196          -4.807
LJ          -3.98062       -0.654832         6.22898
LJ          -5.05007        -0.89147        -1.88272
LJ           3.40853         3.73701        -5.45798
LJ           4.13077        -1.93032         3.37196
LJ           2.08552         5.19486         2.24424
LJ          -1.00607         5.42378         2.80655
LJ           5.98145        -4.34668         5.80253
LJ           2.02545         1.82859         3.87727
LJ           5.91814         5.70663        -4.47299
LJ          -6.24702         2.03204        -2.05414
LJ         -0.773787         3.82814        -1.11707
LJ           1.56657       -0.591458         6.00068
LJ          -2.13082        -2.61103         1.01534
LJ          -3.19216        -1.00991        -2.55922
LJ           2.02826        -6.04128        -2.51329
LJ           3.04287        -5.42571         5.73843
LJ           4.62328      -0.0446042         5.01656
LJ           1.18599         3.86924         3.53181
LJ          0.983718         2.10162         3.40451
LJ          -4.49268        -3.28885         5.04007
LJ           1.09999         1.35696          1.0356
LJ          -2.29997        -4.27794         1.97934
LJ          -4.86368         -1.0364        -3.36399
LJ          0.157388       -0.216467        -2.66035
LJ          0.124376         6.33757        0.665558
LJ          -3.71913        -4.30508         2.23608
LJ           3.64535         4.47143          -1.835
LJ            1.6439          2.3699        0.945071
LJ           6.30019        -1.03264        -2.66483
LJ           2.14714        -4.49956         3.07252
LJ          0.880589        -1.23578        -4.40104
LJ           1.09946         2.58414       -0.660208
LJ           -6.1645         5.41597        -1.49289
LJ          -1.35131         3.10053          2.1991
LJ           5.17091         2.36606         3.92784
LJ           4.31431        0.280491       -0.869305
LJ          -6.12052         4.30159          4.7043
LJ         -0.166004         4.98678        -6.22695
LJ           4.93433           4.159        -6.05456
LJ           2.24402        -3.91131      0.00225985
LJ           5.98716          3.4355        -5.13632
LJ          -4.27388        -5.89727        -3.17496
LJ        -0.0894411       -0.132763          6.3239
LJ          -5.82126        -1.37929        -6.26108
LJ          -3.89733        -1.23294        -4.88382
LJ           2.32151         4.20715        0.036923
LJ           4.56685        -3.23751         6.24677
LJ           5.80622         6.26559         3.20671
LJ           3.55799         5.13274       0.0799049
LJ          -4.78561        -3.31684         2.36618
LJ           2.12871         6.40967         5.91755
LJ          -3.17124         6.37722         4.16847
LJ           1.21163        -5.81509        -4.35583
LJ          -2.23866        -4.80959        0.736497
LJ          0.770114         5.87885         6.01772
LJ          -3.97516         0.79829        -5.19216
LJ           5.78358        -2.47898        -3.63027
LJ          -2.90922         4.37692         2.58335
LJ           2.09074        -3.31433         3.32339
LJ           0.55114         6.16275        -2.69997
LJ          -3.27048         3.61959        0.804122
LJ          0.593998        -4.60583         4.26371
LJ           3.27205        -3.15392        -4.64865
LJ          -3.67592        -2.49353       -0.952495
LJ          -1.65536        -2.92467         4.19545
LJ           1.29768         4.74599        -3.02419
LJ          -3.75133        -1.36845         3.88988
LJ           -1.8669        0.796133         5.08964
LJ           3.58627       -0.515667       -0.557894
LJ          -0.80461        -1.48276        -6.24224
LJ          -5.26394         3.40572        -3.50813
LJ          -4.26246        -1.16225         2.71986
LJ         -0.039853         3.10512        -5.92695
LJ          -3.08272        -4.49216         1.15461
LJ          -2.49536       -0.735221         1.08715
LJ          -4.30079        -3.86127          -1.346
LJ           3.56089         2.50183       -0.175284
LJ            5.9135        -3.30338        -2.52421
LJ           2.64329         5.95947        -3.51616
LJ           2.54565         4.52729        -2.48304
LJ          0.535851       -0.809982        -6.00191
LJ          0.617175         3.47558        -3.24023
LJ           4.23147         4.70834        -2.65742
LJ           3.06559        -1.83283        -1.40517
LJ           3.26375       -0.651041        0.816177
LJ          -2.98523        -1.37621        -1.29476
LJ          0.281531         4.00057         6.37115
LJ           4.21432        -2.78811        -4.51706
