108
#Comment!
LJ           1.42328      -0.0374176         4.39521
LJ        -0.0773701         1.39002       -0.649424
LJ          -4.41033        -3.83018         -5.6538
LJ           6.21535        -5.59368         5.55304
LJ           -1.0616         5.03583        -6.36507
LJ          -4.51599         5.10185        -2.33715
LJ          -1.89445         5.12434        0.970129
LJ          -4.52392        -5.77854         3.16336
LJ          0.285725        -4.85781         2.09665
LJ           6.04325        -3.02648         2.10549
LJ           2.50138        -3.70657         3.85762
LJ          -1.53034         4.32217         2.29429
LJ           6.20002        -3.95989         1.76661
LJ           5.00719        -2.55655       -0.314512
LJ          -4.60057         6.08373        0.636858
LJ          -4.91321         4.71974         5.89832
LJ           2.17302       -0.960097         5.76096
LJ           6.07764        -4.83562        -5.51507
LJ          -1.35318         3.93277        -2.69224
LJ          -1.10916        -5.18476         2.64283
LJ           2.26263        -3.38589          2.7947
LJ           2.99047        -1.98319        0.642759
LJ          -1.99201        0.490575        -2.74424
LJ           1.74577         3.03473        -2.45512
LJ          -1.46294          1.8756        -5.31577
LJ          0.959046        -1.21783        0.356951
LJ           1.26221        0.561017        -2.46173
LJ           5.76742        -2.37537         4.87271
LJ           6.07958        -6.07674        -5.92326
LJ          -4.73989        -1.73514        -6.02015
LJ           1.44536        0.137799        -5.41669
LJ         -0.428131         3.58703        -3.70807
LJ           3.21263         2.65525         2.44066
LJ          -3.23276        -3.15937         5.18772
LJ          -0.35659         0.29571         0.32052
LJ          -3.19783         1.57042         3.97031
LJ          0.967932        -4.02503        -4.60494
LJ          -2.11378        -6.33736         0.97518
LJ          -4.70092        0.671336        -5.94166
LJ           3.44649        -4.34818        -1.61663
LJ            3.2457         2.90204        -5.75759
LJ          -2.91278        -3.55509        -4.21168
LJ           6.31421       -0.415859        -5.50631
LJ          -2.65509         1.98729          -1.746
LJ          -3.18674        -4.88081         4.28153
LJ            3.4229         -1.9953         5.62145
LJ          -5.06256        -5.97074         2.17566
LJ           4.80701         1.50383        -3.99328
LJ           5.71955        -2.98803        0.757681
LJ          -5.09515         5.12328         4.44889
LJ          -5.13651        0.631134        -3.92246
LJ          -5.99228        -2.00179        -3.30487
LJ          -1.38317         5.52307        -5.58455
LJ           6.00313         6.27464        -2.75961
LJ          -3.68974        -3.21662         3.44931
LJ         -0.703389        -5.88002         -6.0983
LJ           1.12832        -4.10784         4.35369
LJ          -4.65533        -3.95176         5.69849
LJ           4.30045         1.80523        0.460457
LJ           6.23792         1.74786        -3.87099
LJ        -0.0376795         4.71129         4.09499
LJ          -3.22867        0.126445        -4.44651
LJ           4.62073        -3.77757         3.80131
LJ          -1.34234        -2.27716        -5.37305
LJ           1.15937        -3.21834        -5.08287
LJ           4.54742        -2.78429         6.39455
LJ           3.03779        -5.93485         -2.6446
LJ           1.90206         5.63701       -0.572338
LJ          -4.08086         5.16103        -5.63094
LJ           -2.9485        0.192027         5.94732
LJ          -1.41052        -2.77453        -6.28809
LJ          -1.61328        -5.19463        -3.86484
LJ          -2.32828        -4.80678         3.22013
LJ           3.52484       -0.977022         3.36556
LJ           1.10151         5.55484        -1.70646
LJ           1.55383          1.5857    -0.000191843
LJ          0.458497         1.01019        -5.15367
LJ           2.89222        -2.78556       -0.632336
LJ          -3.61866        -6.40845        0.230073
LJ          -3.96434         3.80095        -2.92992
LJ          -3.41313        -5.80226         2.61357
LJ           3.54252        -5.68914         2.40567
LJ          -4.55962         2.27431         1.38105
LJ          -5.72797         2.60933         5.65986
LJ          -3.32813        -1.88013        -2.20855
LJ          0.103897          2.8829        -5.17543
LJ          -4.69316        -2.86242        -1.34849
LJ          -2.05896         4.21178         5.09764
LJ          -1.18095        -3.84065        -2.37023
LJ           1.44394        -2.07327       -0.259396
LJ          -3.29907        -3.12357        -6.07329
LJ          -3.40046         4.17819           1.316
LJ           4.46465        0.104027        -3.64324
LJ           5.25535        0.444756         2.28928
LJ            4.6553         6.41334         4.95425
LJ          0.840392        -4.64945         5.41428
LJ           6.00155         1.26002         4.53252
LJ           4.14334        -4.92339        -5.05999
LJ         -0.217126        -4.26526         4.21465
LJ           3.24813         6.27394        -3.24171
LJ             3.511         3.14896        -2.23217
LJ           6.02915       -0.170951         3.37439
LJ           1.85103         2.88586      -0.0251416
LJ         -0.793346        -2.28545         3.37181
LJ          -5.81039         6.30142        -4.35698
LJ            4.4809         4.64498         5.83928
LJ          -5.06791        -3.47776        -5.01522
LJ          0.737242         3.01286        -3.95313
