108
#Comment!
LJ           6.18635         1.71636        0.661767
LJ          -4.05489        -4.25874         5.10652
LJ            3.6511       -0.312758          5.6982
LJ          -2.23224         3.49579        -2.80288
LJ            1.6057        -1.48946         3.14832
LJ           3.11201          2.5733         2.45641
LJ           2.88086         2.27922         4.32191
LJ          -5.81106         2.20884         -1.1777
LJ          -2.34753         5.34537       -0.609163
LJ          0.172655         2.30083         5.54878
LJ          -4.31536        -1.38305        -2.27644
LJ            1.2149        -2.08966         4.01423
LJ           2.04522        -6.37614        0.200965
LJ           4.67644        -3.45521        -3.18963
LJ           6.07081        -4.93579        -5.45178
LJ         -0.572051       -0.745607        -1.56987
LJ           2.96469         -2.0217        -2.84388
LJ          -2.51845        -6.14912        -3.73196
LJ           3.87919        -2.07873         5.48063
LJ           5.57154          4.9744        -4.24425
LJ         0.0246275         1.26157       -0.821409
LJ          -1.06124           6.023         1.66343
LJ          -4.15732         4.02905       -0.480075
LJ            2.2065        -5.65124        -4.97559
LJ           5.47396         2.72088          4.4918
LJ          0.983627        -4.18925        -1.05622
LJ          -5.77937        -1.32484        -2.17173
LJ           6.11016        -2.54595        -2.87864
LJ          -2.70416         1.73986        0.356373
LJ           3.64639        -5.36738        0.263773
LJ          -2.13029         -2.9568        -2.46893
LJ           4.13835        0.808207         -2.1333
LJ           3.77917        -5.57741        -4.82706
LJ           3.56239         4.27659        -2.29683
LJ           2.36343        -1.92136        -6.06654
LJ           4.85644        -4.09899         1.14321
LJ          -4.78143         -1.9422        -1.59224
LJ           5.91719        -3.09321         6.04327
LJ           -5.5046         1.32858         4.47627
LJ         -0.861678         0.22019        -1.85042
LJ          -1.33774        -5.25546        -2.94672
LJ            6.2368        -2.50734        -4.24049
LJ           3.19329         3.30852          -1.911
LJ         -0.456504        -3.96232        0.516717
LJ          -5.66899         3.72584        -5.59769
LJ           3.48384         2.08222       -0.813999
LJ          -4.21987         1.88377         4.25555
LJ           -6.2315        -5.46982        -2.98476
LJ          -4.03035         5.91976         -4.5154
LJ           5.86807         3.20915        -1.81935
LJ          0.753066        -1.65747       -0.916575
LJ           6.12249        -4.35095        -1.13985
LJ           1.35658         4.11114        -2.23644
LJ           2.53297        0.795207         1.34923
LJ          -1.07825        -1.74417        -1.46003
LJ           3.85129         -4.2913         4.99805
LJ          -1.51358        -3.33999         4.24171
LJ          -1.60966         1.31111       -0.463907
LJ          -2.38653        -2.82589        -1.49379
LJ           3.24814         4.13747        -3.80397
LJ           3.84205         4.25826        -1.16138
LJ          -5.87094         5.13711        0.296978
LJ           3.99258        -6.19212        -6.08462
LJ           1.23145         2.32467        -4.66289
LJ          -5.88305        0.339714         3.41209
LJ          -3.99293        -3.71084         3.44559
LJ           5.12238        -6.12657        -0.04591
LJ           3.03161         -4.5647         4.36047
LJ           1.54455         1.09612        -2.34283
LJ          -1.17707         3.50772        -3.67623
LJ           1.94193        -1.60195        -4.87738
LJ          -1.04942         3.34347        -2.23399
LJ           2.92275         1.22306       -0.860158
LJ          -5.70177       -0.239234        -2.51066
LJ           2.68802         5.00349        0.453219
LJ            4.2704        -5.16361        -1.99811
LJ           5.65947         5.19352         4.20778
LJ          -6.14718        -4.05506        -0.25318
LJ           4.83494         4.23405         0.34812
LJ           1.73452        -6.11357        -3.50335
LJ           5.44293         4.98251        -2.91337
LJ           4.62607         5.60779        -5.53957
LJ          -3.15094         5.21879          6.3829
LJ           1.18738         2.92797         3.51584
LJ           5.56867         2.56929        0.763544
LJ           4.17875         2.87099         -4.8702
LJ          -3.32287        -4.77192         -5.6902
LJ           5.91359         1.51357         -2.4507
LJ          -5.25594           -1.58         1.02744
LJ            6.1208         6.10667        0.642324
LJ           4.74311         1.26352         4.76245
LJ         -0.735256         5.56734        -2.15214
LJ          -3.90372        -4.31504       -0.312906
LJ           5.56689        0.841752         3.19515
LJ          -3.40871        -5.79206        0.853292
LJ           -5.8224         4.53806        -2.55603
LJ           3.64674         2.49083         1.01829
LJ          -4.72111         2.42387        0.747171
LJ          -5.28975       -0.969895        -5.43522
LJ           4.24744          5.1785         2.04543
LJ          -1.92463       -0.678579        -6.38512
LJ          0.253637        -1.81576          4.6155
LJ          -3.76893        -1.83448         6.35039
LJ           4.48514         5.86044        -4.47545
LJ           1.31344        -4.09181         2.50131
LJ          -5.29289        -4.33225        -3.49764
LJ          -2.32906         1.35327        -5.92277
LJ           2.93751         1.71516         -1.8805
