108
#Comment!
LJ           4.44766        -4.04633        -4.65703
LJ            2.9692         4.36346         -5.6772
LJ         -0.246167         4.20197         3.60175
LJ          -4.20118         5.98393        -5.13741
LJ          -0.54834        -1.84391         -2.4926
LJ            2.8323        -2.80177         1.96959
LJ          -4.38686       -0.331851         6.21927
LJ           4.91268         2.47048       -0.909076
LJ          -5.58269        -4.13613          6.3373
LJ           2.38253        -2.82679         1.07151
LJ          -6.43189         -1.4389        -3.93167
LJ          -4.22213        -4.81167         6.18697
LJ          -6.00097       -0.923483        -3.24505
LJ           1.57891         1.67066        -3.24429
LJ           4.90119         1.94079         6.11483
LJ          -4.38252         5.68557        -3.07374
LJ           4.72235         6.27618        -4.07232
LJ          -5.90962         4.47063          4.9867
LJ           4.20562        -6.39872         3.40801
LJ           1.39305        -6.18686       -0.199192
LJ           2.39575          -2.783         3.03414
LJ          0.455597         3.85397        -3.89034
LJ          -4.43399        -2.64427         2.46408
LJ           -3.1843        -6.15917       -0.405452
LJ          -4.07423       -0.981848        -5.82178
LJ         -0.780576        -4.17865        -4.07234
LJ           4.20427         1.52106        -3.02132
LJ           4.92562         3.10519        0.195772
LJ           3.82675        -5.67978          5.2135
LJ          0.951715        -2.34331         6.36946
LJ            3.2378         4.15611         5.12686
LJ          -2.04924        -5.25847        0.611959
LJ             3.953         1.30866         1.95941
LJ          -3.69524         4.57881         6.43006
LJ           5.21913        -6.18315        0.944351
LJ         -0.114999        -2.75034         -4.0642
LJ          -2.47563        -3.97641         1.55892
LJ          -2.65008         6.40806         1.01007
LJ           2.81755         4.99855        -1.66685
LJ          -4.50313         3.01796       -0.738602
LJ         -0.185465         3.59797        -2.86341
LJ            2.0481       0.0635546        -2.24471
LJ         -0.655658        -2.66726       -0.499516
LJ           -3.7371        -3.34402        -3.27716
LJ          -1.15524        -5.53099         5.08581
LJ          -1.71996        0.156678        -5.09483
LJ          -5.30129       -0.947583        -5.51507
LJ           2.55016        -3.74854         1.84148
LJ          -2.75633        -3.96762        -1.70023
LJ          -5.26945        -2.43751         5.72494
LJ          -3.83601          -1.714         6.43629
LJ           5.31633         2.31402         3.28767
LJ          -6.34896        -2.02259         4.31435
LJ          -5.92786        -4.33032        -5.37941
LJ           4.94985       -0.775326        0.541501
LJ           -4.1244        -6.25417        -1.41863
LJ         -0.850288         4.64616        0.714123
LJ         -0.531341         6.35539          1.2304
LJ          -4.60182        -3.43217        -1.43799
LJ             3.076         5.07171         6.45876
LJ           4.21072       -0.211674         3.82662
LJ          -4.31924         5.70529         2.65209
LJ          -5.32539        -1.32946         5.86748
LJ           1.18929         3.02962        -5.38234
LJ          -1.08399         2.59569         1.71691
LJ          -1.96038         2.27541         4.58443
LJ         -0.159245        0.582171        -6.34015
LJ           2.00675        -1.95789         6.06254
LJ          -5.20057        -5.97359        -6.01275
LJ          0.375367        -3.91544         1.12463
LJ          -3.15812        -5.45244        -1.93788
LJ           2.39361       -0.166272         5.55846
LJ          -5.60789        -4.14297         2.60051
LJ          -4.85246        -1.18544         4.94663
LJ            1.8391        -3.31343        -3.16209
LJ          0.681166         2.66546         6.26307
LJ           6.05481        -4.34812         3.79897
LJ          -3.43284        -5.41625         1.30163
LJ           5.98272        -2.98089        -5.29226
LJ          -5.54211        -5.17668         4.63223
LJ          -2.27385        -3.58242         -4.9455
LJ          0.158204         1.90705        -6.03542
LJ           1.96037        -3.14302         6.19312
LJ           2.55761         2.64969         4.46786
LJ          -1.45244         5.05933         1.62372
LJ          -5.98902        -4.16748         4.00555
LJ          -4.24222         4.38181        0.217154
LJ          -3.05964         -4.5973         6.01675
LJ           2.67988         1.23941         1.17228
LJ           3.32175         4.71158        0.904464
LJ           6.30661        -2.38793         2.78165
LJ           4.19058         1.60257         5.12471
LJ          0.948529        -2.71808          1.3889
LJ         -0.663093        -3.11244         2.76931
LJ           3.36488         1.68839        -1.08282
LJ          -5.99763         -5.2488         -2.3533
LJ          -5.17225         2.51475          -2.029
LJ           -3.4291        0.310298        -3.88728
LJ           1.07362         0.40035        -4.00705
LJ           1.76413         5.10196         3.29934
LJ          -3.84718        -6.01505        -2.65547
LJ          -6.20423        -4.88132        -6.26873
LJ          -3.45133          0.4643         4.79923
LJ           3.34451         1.03223        -3.84627
LJ           1.24267         2.52174       -0.708898
LJ            4.1918         6.13236       -0.147088
LJ          -4.00628         5.46741        -1.82264
LJ        -0.0883505         4.02049        -5.80177
