108
#Comment!
LJ          -1.12155         -6.2987        0.165087
LJ           4.44918        -4.64881        0.425879
LJ         -0.610914         5.92237        -2.13759
LJ           6.18075         -2.2661        -1.65824
LJ          -1.57768         4.08952         2.28699
LJ           5.99473        0.309769        -4.66088
LJ          -2.66829         5.79985        -4.76115
LJ           4.68066         5.28417       -0.614531
LJ            0.7044         6.38459        -2.37074
LJ         -0.964169         1.44452         4.10551
LJ          -1.85914        -5.64754        -5.55369
LJ          -6.31534        -4.26076        -4.80711
LJ           2.17787        -3.04288         2.80277
LJ          -3.14912         -6.4342         -1.4171
LJ          -4.74112         1.31455         4.02095
LJ           6.22778        -3.50118         5.08561
LJ          -4.54954         2.58592         -2.2831
LJ          -6.40409        -1.74645        -4.72547
LJ           2.68256        -3.82355         1.96318
LJ         -0.627506        -4.34096         1.50513
LJ            2.9931        -5.40504        -5.48889
LJ         -0.948485         6.18507         2.75572
LJ            1.6857         3.47815         4.22454
LJ          -2.17828        -0.62676         4.47615
LJ          -0.73279        -3.71549         3.07824
LJ         -0.412547         5.23537        0.522386
LJ           1.22493        -6.05151         5.37993
LJ          -5.32777         4.06002         4.31699
LJ           -1.3161         2.81298        -4.98775
LJ          -4.22681        -4.71316        -6.26185
LJ           1.52505        -4.18606          5.4114
LJ           2.12977        -6.08206        0.355338
LJ          -2.71332         3.47415         3.40971
LJ           5.33951         2.73299         0.15357
LJ          -5.06206         3.82381         5.75824
LJ          0.368109        -4.58511        -1.42201
LJ           5.67783         5.97751         1.50207
LJ           3.13472        -3.87378        -1.68851
LJ           5.86345         3.54004         3.13217
LJ           5.43741        -2.83077        -3.55995
LJ           5.07669         1.84472        -3.96666
LJ           -3.0627         6.12624        -3.89002
LJ           5.07462        -2.53415       -0.710311
LJ          -1.51637        -2.76342         -5.6352
LJ           4.62274        -6.00503         1.59397
LJ         -0.616595          6.2151         1.38651
LJ           4.82571         6.36663        0.272971
LJ           3.63602        -1.09463         6.35395
LJ            5.0522         0.48616        -5.44743
LJ          0.479431         -1.2225         5.07767
LJ         -0.867369        0.190703        0.693774
LJ           -1.3295        -2.65548         3.05178
LJ           6.18046         1.53992        -3.86666
LJ          -3.95396         6.06436        -2.59648
LJ          -1.44028       -0.219288         2.41906
LJ           -5.9665        0.193202        -2.81055
LJ          -1.69179        -3.78587       0.0415697
LJ         -0.670901         5.84584       -0.453356
LJ           3.50735         3.04338         4.91898
LJ          -4.18659        0.510599         3.19739
LJ           6.04215        -3.68919        -2.93264
LJ          -2.89746         4.46789         1.65011
LJ           1.08315        -1.38242        -3.63533
LJ          -3.98775         6.16448          -5.439
LJ           3.99026         3.67239         3.05338
LJ          -2.25485        -2.75979         4.06436
LJ           1.05347        0.762031        -1.36844
LJ           6.19775        -1.99314         5.29085
LJ          -2.03866        -1.82958         1.91818
LJ          -4.79677        -0.74261         3.24023
LJ           -1.4999        -4.43966         5.89385
LJ          -2.93189       -0.835137         1.81327
LJ            3.8051        -6.45317        -4.81233
LJ           6.15806         4.97432         1.90737
LJ          -3.25843         3.53705         1.94276
LJ           2.81636         3.78956         3.70974
LJ          -2.51982         4.79886        -4.57462
LJ          -2.18002        -2.59354         -4.4913
LJ          0.984861         2.07936        -2.79711
LJ          -1.85035         6.28536        -1.84148
LJ            3.2515        -3.81956       -0.539065
LJ          -3.33107        -4.06601        -2.09984
LJ          -3.85574        -4.60598        -4.87378
LJ            2.5327         5.93391         -2.8155
LJ          0.678112        -3.50802         3.20094
LJ         -0.338288          2.3685        -5.40545
LJ          -1.59319         2.41351       -0.678696
LJ         -0.704364        -3.32268         1.90105
LJ           1.73805          2.1093        -4.07588
LJ          -1.69882         2.05353        0.403577
LJ           3.38274        -1.71564        -4.21868
LJ           2.96539         5.91884         2.18655
LJ          -6.27411         1.82853         5.65095
LJ          -3.25368         5.40127        -3.08654
LJ           1.55849         5.59127        -4.47626
LJ           4.90155        -6.17521        -4.70697
LJ          -1.79622       -0.319762        0.860991
LJ           2.38693        -0.84604         5.32636
LJ          -2.16977         3.13578          4.4404
LJ           2.92111        -2.56038          -1.073
LJ          0.537315          0.8985       -0.258322
LJ          -1.36414         4.64673       -0.399634
LJ            1.6463       -0.482341         3.87256
LJ          -4.51572       -0.964386         5.34771
LJ           4.31369         -6.0134        -6.38466
LJ           3.00062        -2.52275        -2.71702
LJ          -2.62684         0.80419        -3.46812
LJ          -3.68186         2.93004         2.76684
