108
#Comment!
LJ          -6.40012        -2.17776         -3.6511
LJ           6.35343         4.68489        -2.13411
LJ           5.06292         6.07854         4.67941
LJ           6.39298        -5.51982        -3.20978
LJ         -0.718019         3.04164        -6.18719
LJ           2.91773          5.8788          3.1129
LJ           -3.9209        -6.20103        -3.15665
LJ           4.39054        0.343654        -5.90518
LJ           2.30291        0.990205         6.01581
LJ           5.02621         2.70022       -0.410682
LJ          0.246874        0.213172        -2.41228
LJ          0.875493         -5.0638          4.9088
LJ           4.36615        -2.89303        -5.72078
LJ          -5.15716         4.98442       -0.244285
LJ           6.09364         2.45514         3.68011
LJ          -2.40449        -1.63272        -1.28644
LJ           5.05591         3.03397         6.20721
LJ          -6.44004        -2.25184         3.55744
LJ           3.99197         2.87527        -2.68114
LJ           1.80925         5.59816        -6.34581
LJ           3.09568         1.05906          2.3813
LJ         -0.769553       -0.294002       -0.394569
LJ          -2.89329         0.80959        -4.82981
LJ          -5.57995        -3.82759         3.78967
LJ           4.79755        -6.46166        -4.64009
LJ          -3.28605        -4.02779        -3.18442
LJ          -5.94393         4.26475         6.34541
LJ           2.32181         1.72507        -1.04021
LJ          -1.07807       -0.902142        -3.50606
LJ           -4.3239         -1.4103         4.34394
LJ            6.1229        -6.19388        -1.90067
LJ           2.32696        -6.09986        -3.60985
LJ           4.80493         4.81696          2.0179
LJ           2.32754         1.93799        0.950203
LJ          -6.39106         3.65358         3.91753
LJ          0.864626         3.89289        0.124204
LJ            4.1508        -2.84604           5.448
LJ          -4.12229         3.78728         5.38462
LJ           6.34688        -5.03847         6.42819
LJ          0.324458        0.784363         1.71551
LJ          -5.49975        -5.87345        -5.21396
LJ           -4.4358         3.36407        -4.39907
LJ           2.36902        -4.93525        -4.06481
LJ          0.828558        -1.55037        -4.39081
LJ           -4.0147         2.40297        -3.38831
LJ           5.60032         5.91205        -1.46025
LJ          -3.21656         4.24265       -0.862528
LJ          -6.35186        -4.46876         5.18367
LJ          -3.72363         4.94047         3.96732
LJ         -0.339902        -2.24906         -2.2915
LJ          -3.96916        -5.60953         4.34466
LJ            2.9636         3.78137        -2.80731
LJ          0.820136         2.82691        -5.69605
LJ          -5.40806         3.29648         4.19904
LJ          -4.64809         1.27089        -4.61781
LJ           3.24054        -2.77663        0.153295
LJ           5.86564       -0.148323        -5.36447
LJ           -5.0722        -1.97221       0.0921913
LJ          -3.08332         6.04042        -5.70746
LJ           0.48381        -2.97795        -2.60807
LJ           1.10738        -6.17625        0.949169
LJ           3.76653         5.04729         -2.7471
LJ          -1.17237        -3.05568        -1.99159
LJ          -1.88458          1.4957         1.04052
LJ          -2.87765        -2.34207         4.22377
LJ          -3.89591        -3.61993        -4.13499
LJ          -5.41857        -6.29393        -1.47852
LJ           2.95836         4.95279         5.11574
LJ           1.76632        -4.49783         4.23238
LJ            4.9191         2.09277         5.38148
LJ          -4.12668         -4.6994        -6.34183
LJ           3.64131         5.37436         1.88347
LJ      -0.000437566         2.80522        -1.85602
LJ          -3.64512        -2.29376         5.08436
LJ          -2.76936        0.374603         2.98294
LJ           -3.0806        -3.81528         4.43174
LJ          -6.05016         3.10602        -4.34268
LJ           2.37179         -2.8298         5.94125
LJ          -4.58374        0.876164         1.54182
LJ           1.77341         0.60109        -4.07287
LJ          0.552737        -4.24576        -4.50527
LJ           -5.3719        -1.61259         6.26355
LJ          -3.99501        -6.05411         5.52234
LJ          0.628819         4.29929        -5.20154
LJ          -2.76264         1.94016         6.33468
LJ          -4.30841          4.2557        -2.99181
LJ          -4.80865        -3.93053        -4.57785
LJ          -4.78398         5.63567        -1.38142
LJ          0.440095        -5.54996          2.1469
LJ          -2.94164         2.72545        -2.90916
LJ           1.89036        -1.98494        -2.19406
LJ           1.66721        -3.32715        -1.02251
LJ           5.01695       -0.155128        -1.87489
LJ            -5.351        0.817074        -5.43971
LJ           5.04203        -3.96519        -4.20357
LJ           5.80899        -1.18371         1.26948
LJ           3.49582          5.9521         4.92145
LJ          -2.21631         1.48934        -3.88978
LJ       0.000808472        -3.69118          5.4531
LJ           3.59271        -2.92446         6.27099
LJ           6.41188         2.91046       -0.343985
LJ           5.92837         6.06669        -4.03451
LJ          -2.56135         5.16026        -4.20555
LJ          -5.97627         1.64744         6.01165
LJ          -4.92772          3.1546        -2.97058
LJ           6.24303         2.95289         5.38191
LJ           3.54697       -0.446665          5.3465
LJ         -0.114238         6.05056       -0.942381
