108
#Comment!
LJ          -5.04272        -3.77485         5.62899
LJ          -1.20151          5.7144        -3.97102
LJ          -1.61696         3.33023          1.6076
LJ          -4.91929         4.10301        -4.89417
LJ          0.720271        -6.42813        -1.12907
LJ           3.36517        -1.81377         5.85662
LJ         -0.540748        -2.72363        -1.89913
LJ          -5.20861        -6.06446         2.67146
LJ           3.53189         0.17818         5.93622
LJ           5.85392         4.42645         3.77457
LJ          -5.24449        -1.37768        -2.14236
LJ           5.39685         6.31742         5.24767
LJ          -4.65915          6.0575       -0.186081
LJ          -2.35456        -1.24028        -4.88898
LJ          0.667797         -1.2358         -3.1586
LJ          0.162095         3.67468         4.43615
LJ          -3.49245         3.53269        -1.33762
LJ           5.98887        -2.41723         5.37236
LJ           5.26742         3.99626        -5.45446
LJ          -4.24594         4.25572         1.27395
LJ         -0.959616        0.109221        -1.97511
LJ          0.551691         5.73963        -2.26905
LJ           2.13577         6.31398         5.91643
LJ         -0.221197         4.92097        -2.26193
LJ         -0.476962        -1.77337         4.39394
LJ           4.92614        -3.09423         3.31742
LJ           1.89571        -2.16024        -6.27623
LJ          -2.11755       0.0122831         -1.1164
LJ         -0.981999        0.959226         4.56114
LJ           5.20404       -0.703028        -4.50032
LJ          0.277335       -0.676336         2.27367
LJ         -0.327191        -3.61225        0.758833
LJ          -5.70424         5.86829         5.50372
LJ           2.81131        -1.63155         -6.2854
LJ          -1.95554         1.96883          1.5985
LJ          -5.25928         6.07679          1.1843
LJ           -3.5027        -1.18939        -2.70079
LJ           1.04633       -0.220727         4.85497
LJ           1.41145        -1.40406        -4.35344
LJ          -1.73612         6.22154         -2.7743
LJ           4.09037         1.24835        -5.03714
LJ           1.58396         4.31602         1.14094
LJ         0.0911474        -4.48687         5.13599
LJ           1.60133         2.96428         2.73283
LJ          -4.92525        -5.59994        -1.14577
LJ           5.39976         3.85917          5.4797
LJ          -4.36378       -0.365675         4.64507
LJ           5.46618       -0.987733        -2.29071
LJ           1.21538        -3.23339         5.51582
LJ          -5.43956         3.81595         1.29814
LJ          -6.42626        -5.75102        0.295523
LJ           0.33042        -4.87411        0.264868
LJ           5.40561        0.854793          4.4362
LJ          -2.30857        -6.42263         6.46138
LJ           -1.8311       -0.878061         2.03851
LJ          -2.86823        -3.88061        -4.31666
LJ            6.0347         6.20633         2.88156
LJ          -4.74343        -1.99262         4.77039
LJ           -1.9802        0.575844         4.28182
LJ          -0.24906         4.63028          2.8282
LJ           5.20019         5.37384         3.35187
LJ        -0.0316565         6.37474         -4.1968
LJ          -1.25195        -1.52289        -2.97451
LJ          -5.71297        -4.50021          3.0878
LJ           4.50598         3.24962         5.73066
LJ           1.13916        -6.39349        -2.92153
LJ          -1.10705         3.29101         4.70204
LJ          0.346518         3.82794         -3.7631
LJ          0.595569         2.83506        -3.35089
LJ          -3.95509       -0.149409         1.10671
LJ          -4.47566        -6.15099         1.39234
LJ           1.21128        -3.24169        -6.27863
LJ           3.28657        -3.04068         1.52681
LJ           4.68755       -0.737926      -0.0294144
LJ          0.842885        -5.38406        -1.57632
LJ          -4.08707        -2.19174         5.75512
LJ          0.545484         6.03712         2.60009
LJ            3.9047         1.00348        -6.00419
LJ          -3.49335        -4.94447         3.47208
LJ           1.20147        -3.55571         -1.6053
LJ          -2.66401         5.30114         3.19958
LJ           2.26659        -1.24791            5.04
LJ          0.522904         2.05436       -0.271123
LJ          -1.26131        -2.69117         4.87183
LJ           3.37886          1.1561         3.84342
LJ         0.0413294         3.10462        0.226809
LJ         -0.645926         -1.1507         5.10933
LJ          -4.85909        -4.31768         2.03318
LJ          -4.54336         5.38742         1.42031
LJ           3.26891          0.1404        -0.14321
LJ           2.45012          1.2647         1.06005
LJ          -2.70261        -5.32397       -0.242779
LJ          -3.39269        -3.25777         3.37045
LJ          -2.58688       -0.469542         4.05445
LJ           1.14416         -2.1557        -5.46026
LJ         -0.249175        -6.18189        -2.06356
LJ         -0.721211         4.27682         5.49917
LJ           2.20185       -0.120728        0.804627
LJ          -3.11742        0.907249        -5.11847
LJ           -4.7752         3.77203         5.83323
LJ           6.05921       -0.129963         -2.1848
LJ          0.609232         2.37071          3.3756
LJ          -4.46087        0.140449         2.14013
LJ           1.62616        -1.79077        -1.91479
LJ          -5.61281        -5.78478        -2.04903
LJ          -0.49655         2.13934       0.0472277
LJ          0.996021         1.13186         3.02091
LJ          -3.85857        -6.38139         -2.0063
