108
#Comment!
LJ           5.01075         5.88704        0.677788
LJ           6.40732        -6.32317         2.67648
LJ          -1.87738       -0.758433         4.11196
LJ          -2.50863        -3.71839         3.08372
LJ           1.16586        -2.77094       -0.603591
LJ          -4.47385        -5.86516         4.85868
LJ         -0.403246        -3.55849         5.91027
LJ           6.06557        -3.56963        -5.78956
LJ           1.32433         4.51099        0.597243
LJ           3.04833         -5.0856        0.477678
LJ           5.83444         1.77093         4.04909
LJ          -3.50274        -4.94372         3.91035
LJ            1.8972         3.09367         4.70741
LJ          -2.87314        -3.66523         1.08536
LJ          -5.84095        -6.01733        -5.86447
LJ          -1.12676         2.70582         2.16057
LJ           1.40533         6.10627        0.790023
LJ          -3.40634         4.82754        -1.75876
LJ          -5.53929        -2.23252         5.90129
LJ           5.03787        -6.45448        -4.53035
LJ          -1.58187         2.77553       -0.498387
LJ           2.16409        -4.58787         1.96968
LJ          -5.48197       -0.975976        -1.38938
LJ           1.67893         5.81107         1.85789
LJ          -5.91206         5.76419         6.14161
LJ          -1.12805         3.82949         4.49315
LJ            2.2542        0.199395        -5.30695
LJ           4.52959         2.05129         -1.8899
LJ           2.59867        -1.52803          1.2845
LJ           3.51753         2.60802        -1.93477
LJ           1.77196       -0.629743         -3.2021
LJ           -4.1637         1.19297        -1.55234
LJ          -1.14424        0.267218         3.65453
LJ          0.754721         2.79818        0.857282
LJ            1.7767        -2.75347        -2.46178
LJ           -4.3488        -1.58857         5.91345
LJ           1.80433         5.92391         3.71167
LJ         0.0449245        -1.84061       -0.216324
LJ          0.390558         1.17041         5.22654
LJ           5.90083         5.69037         5.37104
LJ          -3.26517         4.06152        0.156517
LJ           4.15701         -2.3491         1.67252
LJ          -3.43668        -3.81249        -3.78188
LJ           4.30303         2.22576         1.05754
LJ           5.40735         6.33343       -0.979657
LJ          -2.01512         1.31127          1.6841
LJ          -4.91495         5.35453        0.742436
LJ          -5.98675         1.77186         2.22188
LJ           4.11803         3.95569          2.0305
LJ             4.252         5.11216         3.11336
LJ          -4.71735         3.35065         3.42309
LJ           1.04503         -3.2831         2.66378
LJ          -4.62082        -1.22879          3.9982
LJ            5.7195        -1.11692         1.89486
LJ            3.9552         6.08779         1.52971
LJ          -5.05881        0.854259         4.02532
LJ           2.32866        0.430937         4.08965
LJ          -5.90394        -3.78477       -0.850164
LJ           1.82516        -2.04184       0.0941192
LJ           2.43323         4.79367         3.12694
LJ           2.94023        -4.51938        -6.12779
LJ          -1.94442        -5.82457         4.66832
LJ           3.66999        -1.64509       -0.927481
LJ          -4.07453         4.04831         1.78652
LJ           2.29711         -2.8645        -6.24186
LJ           0.35234        -2.55104         5.73813
LJ          -4.42579        0.265965        -1.30427
LJ           -4.0951        -4.00662        -5.05657
LJ           6.11498        -2.81252          5.9343
LJ           1.07139        -3.87179       0.0525418
LJ          -6.18597        -5.13743        0.208912
LJ          -4.52826        0.197134        -3.42018
LJ          -6.00968         6.28982       -0.891765
LJ          0.963629         3.60935         3.53411
LJ            2.8012        -1.14741          4.5772
LJ           1.79093        0.459377        -1.47248
LJ           4.50388          2.4882        -4.75748
LJ         -0.746623         4.94177        -3.85097
LJ          -1.29012          5.8859          6.2165
LJ          -4.68181         5.75344       -0.528226
LJ           4.79961         -2.8511       -0.686579
LJ         -0.495713      -0.0956999       -0.664084
LJ          -2.55115         5.30274          6.3979
LJ          -5.30489        0.310573         1.94817
LJ           5.80628        -1.87401         5.65813
LJ         -0.161195        -2.07777         4.79967
LJ           2.79766         2.64781          1.8344
LJ           3.13308         1.12329        0.909933
LJ           -5.6964         1.58432           3.878
LJ          0.572067       -0.187609         -2.8754
LJ           -1.1847         2.96328         5.25299
LJ           2.61587         4.85968         -1.5248
LJ          0.423412         0.67869        -4.99093
LJ           -4.8326         3.43244         1.44252
LJ           3.09783         3.60142        -4.68937
LJ           1.18076         6.36474        -6.10975
LJ           3.53958          4.3374        0.753041
LJ           5.07381         -2.2649        -6.35391
LJ           1.73039        0.159487        0.152057
LJ           2.48507         2.59617        -4.67498
LJ           4.99061         3.00694         6.26738
LJ          -1.05127        -3.94143         3.18524
LJ           -2.8776         3.52788        -3.30439
LJ           2.40542       0.0553173         1.00572
LJ           5.59385        0.443224         1.62692
LJ           6.15147         3.00349         6.41485
LJ           -5.6448         3.37758        -2.28044
LJ          0.628469        -1.97184        -2.30297
