108
#Comment!
LJ           2.45701         2.77271        -4.06841
LJ           3.54615         4.22481       -0.431194
LJ          -0.58283        -4.00589        -4.71061
LJ          -1.90682        -3.77738        -3.95537
LJ           3.87866         4.68604        -3.11489
LJ           2.57819         2.88048         6.34189
LJ          -4.98631        -2.95493         2.15921
LJ           1.09184         4.87455         4.71483
LJ           4.35118        -1.81305        -2.70929
LJ          -2.54499         4.84887         5.04695
LJ         -0.258905          -3.078         3.38429
LJ           -4.2525        -6.08435         6.37291
LJ           3.97047          4.4611        -4.20242
LJ         -0.076462       -0.599201        -5.03162
LJ          0.804648         3.94663        -5.85597
LJ          0.442016         4.69011          3.9713
LJ           1.91504          6.2831        -2.62944
LJ           2.72492          1.5331        -2.80141
LJ           3.02854        -4.74228        -6.16267
LJ          -3.55698          -2.168         3.04732
LJ           3.73639         4.81603        0.602024
LJ           0.41151        0.671212        -3.31544
LJ          -5.17586        -5.03525         1.18499
LJ          -3.40864        -2.32398        -5.35123
LJ           4.39693        0.120438         1.28058
LJ           2.97508         2.09743        -4.61075
LJ          0.956415         1.86764        -3.83793
LJ           2.49608         1.34296       -0.551573
LJ           2.73656        0.775158        -3.46577
LJ           3.36666         3.03877       -0.151942
LJ          -1.00231         5.20963         4.24655
LJ           4.89094        -3.30841        -5.07454
LJ          -5.47857         2.91013         2.80908
LJ           2.50614         5.47195         3.50845
LJ         -0.489431         5.62939       -0.726994
LJ          -4.04793         5.63582         3.65441
LJ          0.529051         6.15774        -5.79499
LJ          -2.86688         4.98642         3.89377
LJ          -4.47982         1.50992         4.90804
LJ         -0.445553        0.276091         3.61203
LJ           6.06895        0.494519         1.82853
LJ           1.04689       -0.480499        -3.19766
LJ          0.995984         3.10119        -3.06383
LJ          -4.26916        -3.29538         -1.4487
LJ         -0.953907        0.837386         1.99791
LJ          -3.78863        -4.87668        -5.79277
LJ           5.21963        -2.46136        -1.85644
LJ           4.44267          1.0205         4.94828
LJ           3.02631        -5.20332        -4.12719
LJ          -1.93496        -3.95808         1.17114
LJ           1.37571         -3.4249         3.52356
LJ          -3.87371         3.07731         5.33849
LJ           3.24763          1.9654       -0.109717
LJ           5.21347        -6.33151         4.51715
LJ          -4.92482         4.43997        -4.05952
LJ          -4.91741         -3.2981         5.57677
LJ          -5.34938         6.43784         4.74089
LJ         -0.192436         5.46914         6.37194
LJ          -3.92812         5.78371        -6.30472
LJ           4.90881       0.0534938        -5.33273
LJ           3.60503        -3.56752         1.29551
LJ          -3.98965         5.58994        -1.95763
LJ          0.913181         5.89052         1.04385
LJ           1.39194        -5.98529         3.00198
LJ          -5.35125         1.88985         2.36817
LJ           1.67258        -6.22544        -3.77687
LJ            3.9738        0.418642         2.67987
LJ          -3.70449        0.398484        -4.85517
LJ           2.74042         2.28387         4.90772
LJ           4.44279        -2.92075         1.18627
LJ             4.904         3.22158         -4.9296
LJ          -3.43261        -1.21731        0.188883
LJ          -4.75324       -0.648988         2.57072
LJ          -2.34414       -0.946988        -3.34523
LJ          -1.54404         3.20334         2.07694
LJ         -0.392255        -1.66485        0.583224
LJ          -2.00887         5.82326         2.98744
LJ           1.58773        -5.53039        -1.28998
LJ           2.89942          4.8739         6.17306
LJ          -6.29708        -3.53942        -3.73003
LJ          0.792209         5.83594        -3.47026
LJ            1.8548         3.82995        -1.84278
LJ           4.62425       -0.823475         3.83986
LJ          -1.23601        -6.30431         3.49071
LJ          0.344567        -1.73891       -0.934978
LJ          0.460364       -0.201566        -2.35933
LJ         -0.685095        -2.43099          1.7619
LJ          -4.27999         5.21966        -4.37635
LJ          0.798721         4.81721         0.22943
LJ          -4.56905        -2.58828        0.958362
LJ          -3.82328        -1.97795        -1.01582
LJ           3.97485          -2.257        -3.48857
LJ          -6.44478         5.24482        -5.98705
LJ          -2.86344         -6.2463          3.8713
LJ           1.25262         1.60668         3.29279
LJ          -6.30355        -3.99693         2.12227
LJ           5.13195        -3.39186         3.09922
LJ          -1.11829        -0.29399        -6.44163
LJ           3.01757          5.7892        -1.58104
LJ          -5.25174         5.04143         6.37828
LJ            3.3403        -1.71957          4.3997
LJ           5.47285        0.393364        -3.29041
LJ           1.49853        -3.16289         5.09256
LJ          -1.93678         4.56801         3.97649
LJ          -1.95319        -3.58455        -1.08992
LJ           4.86726        -1.11305        0.527942
LJ           3.69354         5.17846         4.41079
LJ           5.15894         6.11115         5.45993
