108
#Comment!
LJ           2.69927        -3.13342        -4.40562
LJ           4.80268        -4.39484       0.0278265
LJ           5.43873          3.4164        -4.00719
LJ           5.49921         4.87275        -1.83067
LJ          -1.21025        -2.02831        -1.30053
LJ          -1.05859        -2.75569       -0.263165
LJ          -3.12742        -5.59263        -5.66563
LJ         -0.204571        0.287651        -5.74239
LJ          -2.61042        -1.37231         6.28672
LJ          -2.99302        -4.09201        -5.85064
LJ          -1.92091        0.235856        -2.30325
LJ           1.04383         2.42468         5.23933
LJ          -5.49837         2.78513        -6.33574
LJ           1.91972         2.54435         4.42333
LJ         -0.319602         1.93448         5.59949
LJ          -6.10579         1.03243        -5.73757
LJ          -6.17111         -3.6937          3.4296
LJ           1.20449        -5.27273         3.39387
LJ          0.383047       -0.341493        -3.27816
LJ           5.27859       -0.184824        -4.70034
LJ          -4.05643       -0.306368         6.04526
LJ          -5.41345        0.550081         -2.3276
LJ           2.98792         2.79702         6.19164
LJ           4.46284         -1.4407         4.29404
LJ           1.66592         5.19992         1.58164
LJ          -1.63042         6.44336           3.308
LJ          -6.35122         -4.6853          4.2858
LJ          0.966774        0.989723         3.29363
LJ            5.8181         6.32018        -5.53343
LJ          -5.96648         2.37349        -2.58659
LJ          -1.84106          3.5236         -1.9016
LJ           2.54379        -0.60404         4.25657
LJ          -2.03459        -1.18013          1.1721
LJ          -2.97307        -1.29571          -1.584
LJ           1.41592         6.20355        -2.48054
LJ           4.18739        -5.02086         -6.3872
LJ           3.58102        0.506968         5.22761
LJ           1.74585         4.36647         3.69154
LJ          0.926442         3.32042         3.14164
LJ          -4.25884         -3.1767         4.62201
LJ           1.83048         1.68895        0.774706
LJ          -1.97573        -5.28998         1.64826
LJ          -3.95764        0.193933        -5.55316
LJ         -0.543957         1.70116        -2.91439
LJ         -0.494519        -6.00575        0.383406
LJ          -2.87365        -4.67029         2.83985
LJ           3.40764         4.09884        -2.99353
LJ           1.83799         2.69123         1.29611
LJ          -6.27221      -0.0511727        -3.63764
LJ            2.3879        -5.94966         2.92899
LJ           2.58085        -1.36404         -3.8344
LJ           1.52488         2.54091       -0.862534
LJ          -5.89988         4.71144        -2.00239
LJ         -0.569811         2.04253          1.7155
LJ           5.64156         1.14772         2.87072
LJ           5.60109        0.101294      -0.0264039
LJ          -5.67275         4.18424         3.99681
LJ         -0.318765         4.39062         6.25861
LJ           5.25737         4.08116         6.31677
LJ          0.953059        -5.17506        -1.06087
LJ           4.49697         2.86492         -5.9719
LJ          -4.41834        -5.75245        -2.33799
LJ         -0.988376         1.21973        -5.70491
LJ          -4.94793        -1.62465         6.44302
LJ          -3.51755         -1.0596        -5.41839
LJ            2.7193         5.13989        0.255233
LJ           2.00596        -3.83098        -5.43854
LJ           5.12063         6.38734         1.96664
LJ           3.22415         5.95552       -0.741523
LJ          -4.84868        -2.16811        0.413622
LJ           2.31903         6.10195         6.00034
LJ          -2.08091        -5.79928         3.95093
LJ          0.561483        -6.21954         -4.7486
LJ          -1.44659        -4.17052        0.107541
LJ          0.463757        -5.92768         5.67601
LJ          -4.51038         2.31241        -4.72183
LJ           4.46508        -2.00704        -3.02119
LJ          -1.55833         5.41357         1.83872
LJ           2.55756         -4.5809          2.4674
LJ          0.695829         4.93017        -1.73056
LJ           -2.3351         3.61521         1.01546
LJ          0.523727        -4.80506         4.98787
LJ           3.66622        -2.77019        -4.99419
LJ          -3.36419        -2.87866        -1.11261
LJ          -1.02919        -2.85705         3.02492
LJ           1.04872         5.12686         -3.5606
LJ            -2.607        -1.92824         4.39009
LJ          -1.74884         0.61812         5.75087
LJ           4.99008       -0.882025        -1.07593
LJ           -1.4094       -0.574099         -5.9984
LJ          -4.69959         1.45796        -2.06613
LJ          -4.48201      -0.0460588         3.43419
LJ         -0.326067         3.65261         -5.8938
LJ          -3.60981        -4.00092         1.16674
LJ          -3.26016        -1.56057         1.71111
LJ          -4.31894        -3.76099      -0.0197456
LJ           3.07853         2.66558       -0.205336
LJ           6.29929        -3.02435        -2.47181
LJ           2.17521         5.81398        -3.40481
LJ           2.59628          4.6935        -2.60691
LJ          0.233309       -0.281199         6.00778
LJ          -0.62757         3.60782        -2.22759
LJ           4.95084         5.76176        -2.98675
LJ           2.96667        -2.94484        -1.45987
LJ           4.68572       -0.459865       -0.160507
LJ          -3.27558        -1.57705       -0.624719
LJ          0.969184         4.28344         6.36701
LJ           5.12048        -4.24214        -2.39445
