108
#Comment!
LJ          -5.31147          5.3075        -5.30681
LJ           4.22162         1.62083        -3.05822
LJ          0.851935        -2.67207        -4.79161
LJ          -1.36878        -4.60918        -4.63627
LJ           3.99267         -1.8816        -2.29283
LJ           1.43343         3.54413        0.422832
LJ           1.51378        0.682057        0.750935
LJ          -4.93898        -6.32241        -2.20863
LJ           1.65881        -3.42455        -5.13067
LJ         -0.906757      -0.0341643         1.54777
LJ          -5.96884         2.64551         5.03677
LJ          -6.26054         6.29271         4.52753
LJ           3.10975       -0.807091        -1.05339
LJ           6.15534         5.48212         2.12357
LJ          -4.31909        0.405865          3.9683
LJ         -0.941154         3.30784         6.24141
LJ           3.08619          1.9241        -2.83471
LJ           1.49122        -1.83676        -1.82996
LJ           5.42714         4.21042        -3.11872
LJ          0.518955         1.87464        0.193723
LJ           4.39855         2.15313         5.38089
LJ           2.58978       -0.622993         -2.9119
LJ           -5.1242         1.72514         4.91223
LJ           1.77526       -0.429682        -5.12565
LJ          -5.38872        -4.70667         4.55941
LJ            2.3077         1.01011         3.11423
LJ           4.58229         2.86877       -0.661624
LJ           4.02178         3.54323        -3.29159
LJ          -3.10703         5.50538         5.88671
LJ            2.6313         4.47449         4.79462
LJ          -5.52657        -4.14051         3.21662
LJ          -4.08772         5.95246         1.24242
LJ           5.36258        -4.92058        -3.55584
LJ          -6.19727         -1.7729         4.26471
LJ           3.67055        -2.22313        0.466623
LJ           2.67999        -4.11951         5.93621
LJ           2.81065         2.09655        -4.65272
LJ            1.8452         1.49304         2.12156
LJ         -0.769848         5.41154        -3.60399
LJ           5.15889        -2.72289       -0.453213
LJ           3.20942         3.91663         3.89212
LJ          -2.38142         -5.2485        -4.16185
LJ        -0.0404173         2.83453        0.301953
LJ           2.66722        -2.63705        -0.94114
LJ           5.46656         1.28339      0.00794646
LJ           3.16645        -5.11587         1.63598
LJ          -4.39512        -2.10172         5.52908
LJ           2.22793        -2.11621        0.130218
LJ            -3.366       -0.679363         1.13119
LJ           4.62523         3.13635         5.34958
LJ           5.64217        0.760283         1.31425
LJ          0.170994        -1.81515        -6.35549
LJ           2.68794         1.68206        -0.57751
LJ           3.86324        -3.81684        -4.38263
LJ          -3.98861         1.95534         3.76049
LJ          -4.15662        -3.23815        -1.77441
LJ         0.0458574         5.33091         2.07694
LJ         -0.186549      -0.0885256         2.33328
LJ           2.64084         2.41555         5.87413
LJ          -1.61835        -4.69374        -2.32267
LJ          0.968695         0.99875        -6.08271
LJ         -0.667134         2.21707       -0.197084
LJ            0.5837        -0.84504        0.371891
LJ          -1.76325        0.473189      -0.0788241
LJ         -0.706682        -3.79814         5.16829
LJ          -5.06692         2.64312       -0.736667
LJ          -4.14369         -3.0821      -0.0915313
LJ          -3.25078         1.88178        0.723251
LJ          -3.08559         0.15128       -0.973693
LJ          -3.59306         2.17343         1.59668
LJ          -5.29941        -3.13005         2.82477
LJ           5.46073          -4.181         1.18182
LJ           1.47004        -5.91945        0.969051
LJ         -0.230893        -6.44686        -6.20347
LJ         -0.672433         4.82163        0.175492
LJ          -2.09481         -3.8509        -5.14045
LJ          -1.21337        -2.43175        -3.79874
LJ          -4.92019       -0.657232         5.77055
LJ           2.07765        -2.03378         3.60275
LJ           1.46446        -5.39481         6.41487
LJ            -5.492          1.7532          1.5568
LJ          -1.55502        -5.83851       -0.164103
LJ          -2.09292          1.4351        -2.66918
LJ           4.39244        -2.30441         5.73401
LJ          -2.16478         -1.4797         0.18607
LJ           -4.3727       -0.334091        -3.85225
LJ          -3.29057         4.89292        -2.04899
LJ          0.380438         4.58262        0.732816
LJ           1.33649         3.20956       -0.995607
LJ           5.08328        -6.34668         2.36899
LJ         -0.928769        -5.50423        -2.31414
LJ          -4.32036        -2.14892        0.799657
LJ           1.31306         4.46783        -5.08008
LJ           5.77873          -2.872        0.969345
LJ          -6.16094        -5.65398        -5.94172
LJ          -5.62958          6.4238         5.49092
LJ           4.38637         2.70858        -3.88708
LJ           1.33567          5.8892        -5.69136
LJ          -5.08899         -1.2393        -3.02792
LJ           1.55308         0.61794        -4.96926
LJ          -3.39694        -2.08539         6.10379
LJ           3.30646        -4.39194         3.79369
LJ         -0.315442        0.901925         4.62597
LJ           2.75526        -5.49701         5.62916
LJ           5.16638        -1.85542         2.42132
LJ           3.75881         1.27074         3.35631
LJ           -4.7485        -4.26236        -2.69365
LJ           4.72013         4.94004        -3.20339
