108
#Comment!
LJ          -3.78488        -3.93153        -5.74395
LJ           1.53243         3.54342         4.92502
LJ          0.641569         4.61589          3.4311
LJ           2.60168        -4.67035       -0.277622
LJ          -2.36272         2.06948         4.80499
LJ          -2.15986        -4.72075        -3.56773
LJ          -2.12436         4.15293        -5.11393
LJ           -4.1851         2.20438         4.30932
LJ          -1.66747         1.42278         3.28097
LJ          -4.63019        -6.14633          3.8088
LJ           2.92733        0.703533        -4.87489
LJ          -2.60019         3.27475         1.38445
LJ           5.26661           3.252         5.71714
LJ         -0.890494         -3.9975         2.57974
LJ          -5.28852         4.38714         5.10234
LJ           1.82425         1.63892        -3.39291
LJ           -1.5516        -4.35697       -0.831502
LJ           2.88658       -0.146794         1.85803
LJ            3.4224         -2.4212         6.39022
LJ          -2.67886        -1.60253         1.83951
LJ          -5.90495         4.39539         1.25621
LJ          -4.67936        -6.30835        -5.86418
LJ         -0.766065        -2.32114         2.65214
LJ          -5.14032        -5.44396        -5.67904
LJ           -5.4694        -3.85039         -5.7733
LJ         -0.270348        -5.19057        -5.29485
LJ          -1.58352         -4.0242        -6.24195
LJ           4.17449         3.31897         3.65622
LJ          -5.05105        -1.21369        -2.24985
LJ           5.13905        -3.03345         2.24533
LJ           -1.7725         5.95601         1.65348
LJ         -0.616574         -3.8488        -4.07912
LJ           4.25631         3.14609         -2.5812
LJ        -0.0393443         1.34433        -4.87473
LJ          0.743652        -4.19867        0.210601
LJ           6.44517         2.67068         -2.7638
LJ           2.83023         5.47171         5.28954
LJ          -3.72435         3.20074        0.201938
LJ          -1.55248         1.06291        -4.96073
LJ          0.770511       -0.046314         4.93862
LJ            2.7419         3.86683         6.09315
LJ            6.0401       0.0741708        -3.73647
LJ          -3.39055         5.01939         1.10579
LJ          -3.45447         1.48527         5.42188
LJ           1.79802        -5.64513        -3.44904
LJ          -3.10795        -6.11512       -0.803159
LJ           4.61013         -5.8415         -4.0841
LJ           1.88496        -4.05132        -5.85378
LJ          -6.27727        -3.41695        -3.30135
LJ           3.63241         5.18835         6.23048
LJ           2.65336        -2.97664         2.83816
LJ           2.29267         5.21794         3.64358
LJ          -3.15421        0.833384         -4.3707
LJ           3.76397         -5.4448        -2.10212
LJ          0.690866        0.474321         1.86457
LJ           5.92472        0.820566         2.76024
LJ           3.87196        -4.97286       -0.969451
LJ          0.439711         -3.2568        -4.34178
LJ          -4.95525         1.02313         4.21376
LJ           1.14185        -2.13174        -4.36787
LJ          -2.68367        -4.03718        -6.01878
LJ           4.64892         1.23849        -2.83575
LJ         -0.947982         5.77943         2.97214
LJ           5.88047        0.366743       -0.216251
LJ           -2.1969         2.87906        -4.75557
LJ          0.399376       -0.685678        -3.90862
LJ           -5.0837        -3.79923        -2.27346
LJ           1.82839        -2.82279        -4.75782
LJ          -6.18949          2.3463         5.09552
LJ          -4.14189         4.53824        0.540846
LJ           4.34203         2.83473         5.22835
LJ          -5.77496         3.23227         -0.6578
LJ           1.36701         -1.3294         2.52985
LJ          -2.29072         5.16819         5.98162
LJ          -0.48606        -4.94274         -3.5651
LJ          -5.34817         -3.8008         2.62302
LJ           2.39539        -3.62943         5.04462
LJ           4.22603          3.8442        -3.64829
LJ          -2.65375      -0.0353196         1.54525
LJ           4.98407         4.42341         3.60733
LJ         -0.454743         4.64654         5.59936
LJ           5.14539         2.06569         4.56659
LJ          -5.73153          1.5641        -3.37149
LJ           2.28829         1.52392        -5.18336
LJ          -4.44691         6.41942        -1.93487
LJ          -4.77792         3.57661        0.356399
LJ           1.27289         1.27402        -2.34068
LJ           2.68757       -0.106423         3.69194
LJ          -1.58191        -1.24374         1.38537
LJ          -2.26639        -5.02867        -5.98295
LJ           2.18901         6.18628         3.02951
LJ           4.29089        -2.35969        -6.13962
LJ            2.6701         5.88672       -0.852485
LJ           2.45484        -2.15372        -3.18094
LJ         -0.220357         6.44742         4.13765
LJ         -0.758814       -0.501326        -5.87957
LJ           4.21269        -2.68766        -3.37314
LJ          -2.36733          5.4791        0.823922
LJ           3.30611         6.24698        -2.83831
LJ          -3.25392         4.07363        -1.39839
LJ          -0.92625         5.69982        -5.36089
LJ          -3.23583         -5.2744        -6.11437
LJ           4.72593        -5.82579        -2.78227
LJ          -1.93498        -1.50666         6.30972
LJ          -6.32793        0.806956         3.92905
LJ          -4.03773         3.66805        -3.95682
LJ            1.9663        -5.47136        -1.06813
LJ           5.40225         5.58064        -3.95248
