108
#Comment!
LJ          -5.30423         1.79934        0.695935
LJ          -3.83376        -3.60964        -1.40309
LJ          -2.93772        0.495882       -0.609366
LJ          -4.27306         1.32128         4.32148
LJ           2.38122        -2.36057         2.52603
LJ          -5.81147         3.00902        -5.91287
LJ          -2.22969        -1.20629         -3.3012
LJ           5.60404         2.80095      -0.0887228
LJ          -2.46951        -4.23247         -6.3368
LJ           3.02749        -3.48181         1.61166
LJ          -2.26094        -1.30602        -5.64491
LJ          -3.78398        -4.53421       -0.596362
LJ          -2.18265         4.17613          5.8432
LJ          -4.89789         -4.3959         3.24552
LJ          0.592345         1.36547        -2.38813
LJ          -0.15795         6.18339        -1.32348
LJ          -1.47492         4.64564         6.44237
LJ           3.52382        0.732347         2.49956
LJ          0.923723         2.88545        -3.96347
LJ          0.714717        0.780314        -1.37322
LJ           -4.2302         3.89142         3.33563
LJ         -0.354221        -5.52974         0.59662
LJ           4.26561        -2.77967        0.287637
LJ           3.46479         4.94041         -5.8864
LJ          -6.20697         2.77673         4.07843
LJ           -3.4368        -5.00266          4.8057
LJ           5.28632        0.760735        -0.90833
LJ            1.5506         5.78482       -0.349213
LJ           3.55193          -4.857       -0.467435
LJ           2.53164         -1.4519         1.40318
LJ           2.78692         6.18312          3.2978
LJ          -5.07974         5.15268        -3.77406
LJ           3.21853        -2.33209       -0.566571
LJ          -1.40859        -3.93059         1.95679
LJ          0.213668        -4.57911        -2.74275
LJ           3.87769        -1.84169         6.18524
LJ          -3.86852        -1.52803         4.99221
LJ           5.55095         -3.0054         1.25769
LJ           3.61281        -2.66684         1.08944
LJ        0.00430192         4.36322         5.09276
LJ           5.63043         5.97612         6.14898
LJ          -1.99025        -5.43219        0.222015
LJ          -5.23639         6.07754        -4.31407
LJ          -0.56322        -3.72654         -4.2215
LJ          -2.09007         4.99327         0.17049
LJ          -5.52768         6.35001         6.20348
LJ           4.17897         2.47835         3.38147
LJ           5.97136        -3.75532         4.83902
LJ            3.4981        -4.06995        0.840304
LJ          -6.45532       -0.982982         2.77847
LJ           4.17239         2.01966        -2.85532
LJ           6.14276        0.750733         -3.1292
LJ           4.21364        -3.06326         5.96375
LJ            1.1474        0.728285         5.86702
LJ        -0.0137315         3.30806         1.55349
LJ          -0.98407        0.336518         1.19775
LJ           1.88178         -5.6392         2.95611
LJ           1.09469          5.3001         6.15218
LJ           4.74703         2.03978         5.19562
LJ          -6.00179        -2.72739         6.10186
LJ          -4.23938         -1.3868         3.74855
LJ         -0.940475         1.27425        0.357052
LJ          -6.27011         3.13181        -2.33601
LJ          -5.03757        0.574868         1.54303
LJ           3.79988        -4.52478         2.80337
LJ          -0.71859      -0.0813725        -5.31869
LJ          -1.30325          3.3532        -4.54639
LJ          -4.28214        -1.48925        -3.10981
LJ          -1.93058         4.08198        -3.81524
LJ           2.45893        -3.56124        -1.14854
LJ          -0.97573        -6.38906       0.0172163
LJ           2.63193      -0.0871967         -3.6009
LJ          -1.74878        -1.47888        -4.63073
LJ           4.25382         2.82298         1.11058
LJ           6.07294        0.653899         1.08006
LJ            4.4518         2.83073        -0.82404
LJ           5.84523        -2.22367          6.1129
LJ          -1.64703        -5.76864       -0.661021
LJ         -0.862675        -2.32112         3.45683
LJ           -3.5315         2.33143        0.213511
LJ           6.25469         3.69225      -0.0740564
LJ           2.88953        -3.83205         3.23424
LJ          -1.89682        -4.80803        -2.00927
LJ         -0.833447        -6.08645        -2.69695
LJ           1.38767        -1.00227        -2.35893
LJ           3.00519          6.4261       0.0939929
LJ            5.7122         3.99906        -1.13951
LJ          -3.37735         3.60363         4.51074
LJ           2.51652        0.168046         2.98005
LJ          0.257948        -2.60375         6.34892
LJ           5.78076         1.78014        -2.38194
LJ           1.74513        0.321922        -1.36517
LJ           1.01483        -4.42049       -0.422337
LJ           3.36139         4.49779          -3.692
LJ           0.98463         2.94632         3.88763
LJ           1.31718         5.64556        -5.37523
LJ         -0.897515        -4.24412        -5.30986
LJ          -5.86269         1.85816         5.19863
LJ          -5.24311         5.27595         4.95292
LJ           5.59879         4.89126         -4.9951
LJ          0.404587        -5.45964        -5.70378
LJ            1.4491         4.28146       -0.212964
LJ          -1.74217         5.82389         4.99838
LJ          -3.86564        -1.22134       -0.680392
LJ           5.71243         6.12204        -5.67424
LJ           5.09467        -4.90657         5.75285
LJ           3.29817         3.54042         2.25755
LJ           4.93336        -1.47098        -2.66486
