108
#Comment!
LJ           6.16233        0.202308         2.94828
LJ           4.37837        -5.94847         3.77287
LJ          -4.94388       -0.385069        -3.04243
LJ          -0.38555         5.77467         6.43608
LJ          -2.89897         3.34728        -5.76962
LJ           6.01851          1.5874         5.18798
LJ         -0.357014         4.85633        0.166502
LJ          -3.63615         4.84454         1.06675
LJ          -3.80181         4.80834         4.92286
LJ          -3.79048         4.21681         5.79115
LJ         -0.140438          3.0241         4.66088
LJ           5.79189         -2.6716         4.05634
LJ          -5.16836        -1.19617        -5.94769
LJ           2.73455        0.724709        -2.28754
LJ           6.03179         1.62733         3.37734
LJ           3.13415         5.00796         5.52054
LJ          -1.24585        -6.02832        -1.73644
LJ          -2.52925        -2.71884        0.876966
LJ          0.754979        -2.94108         2.50879
LJ          -5.87454        -2.84493         1.71302
LJ           2.99433         5.37237        -6.29129
LJ             6.443         3.51027         4.47683
LJ          -2.56809         3.66663         3.05343
LJ          -3.18654        -5.88295        -4.74441
LJ          0.490556         4.78134         5.32569
LJ          0.509544        0.943904        0.246235
LJ          -2.78544         2.41095        -5.24108
LJ         -0.313318        -3.43483         5.68429
LJ           -6.3649         4.72015        -5.70658
LJ           2.72128         3.35714        -4.46587
LJ          -2.21431         6.43788        -3.91968
LJ          -3.79177         1.11578        -6.46073
LJ           4.68932         1.35225         2.30179
LJ           -5.2175         5.87828         2.01733
LJ           2.36618        -3.09016        0.889614
LJ          -1.22218         4.39883         6.08981
LJ           -1.9508        -2.51286        -5.56151
LJ          -4.24643         3.51332         5.03435
LJ          -3.26772        -5.05304         2.49086
LJ          -2.73173        0.354956          5.0472
LJ          -1.62465        -3.90777         4.60108
LJ           2.36931         -1.7422        -0.97339
LJ          -3.84324        0.168197         5.04131
LJ          -3.15667         1.98641         3.73539
LJ           -2.8214        -1.92752        -6.10488
LJ           5.68602         3.03291        0.553957
LJ          -6.36931        0.141844        -4.35406
LJ          -1.49252          -4.012        -6.46207
LJ          -1.56687         3.84743        -1.08571
LJ           1.82453        -6.21008          5.4838
LJ           6.26228         4.85652        -3.09102
LJ          -1.03258        -4.66185       -0.696991
LJ          -3.11059        -2.89464         2.49228
LJ           5.43097          2.9649        -5.15644
LJ           2.19499         4.92911        -2.38082
LJ          -3.99602        -2.31819         4.08929
LJ          -6.06138         3.77611         3.35874
LJ           3.03095        -1.55026         3.10102
LJ        -0.0332638        -2.22389         2.06317
LJ          -2.67451         2.54224         5.08701
LJ           2.77442        -6.35142        -3.20136
LJ           3.97802        -1.47599        -2.79828
LJ           -5.4784       0.0624418       -0.754965
LJ            1.3617         5.46547         5.16313
LJ            3.8176         5.64213        -1.16765
LJ          0.492747         6.40153         5.53516
LJ          0.276068        -2.21901        -5.66359
LJ          -4.76716         6.29252        -2.73751
LJ          -2.25731        -6.24821        -2.43834
LJ           -3.9073         3.19403        -2.27486
LJ         -0.987161         6.37997        -5.59853
LJ          -1.63167         1.06666         2.07572
LJ            1.5694         3.48069        -3.59263
LJ           6.13784         6.07346        0.676877
LJ          0.497337        -1.41027         1.66776
LJ           1.33144        -4.37629         3.70769
LJ           4.37756        -6.43159        -5.35034
LJ          -5.81939        -3.05263          3.0911
LJ          -5.22536       -0.295559         6.16165
LJ          -1.18471         -5.8086        0.677312
LJ            -1.758        -2.05412         4.14975
LJ           2.61306       -0.133382         2.93497
LJ             2.724         4.94614        -3.81584
LJ          -4.98202         6.14695        -3.67169
LJ          -2.07562         4.93928        0.497469
LJ           4.66435        0.306523         4.63272
LJ          -5.66394         -1.3781          2.5091
LJ          -5.39531      -0.0351604        -5.73932
LJ          -1.42752         0.26011         2.85578
LJ          -6.11624        0.207744        0.959785
LJ          -4.43509        0.948675        -5.23241
LJ           2.16389        0.578757       -0.948942
LJ           3.79109        -1.72645         3.90143
LJ         -0.568885         4.43665        -5.42345
LJ         -0.731456         5.09667         5.42783
LJ          -1.35579         5.40729        -5.74309
LJ            3.4886         2.11349        -4.33292
LJ          -1.07075       -0.828507         4.17372
LJ          -2.83322         2.39728         2.49254
LJ          -3.94819         1.98989        -0.26967
LJ          -3.39749         3.66471        -3.38728
LJ            4.4939         1.32319         5.59249
LJ          -5.73834         1.98532         5.10644
LJ          -5.70256         -4.1451        -2.32936
LJ          -5.47753          3.6838         5.64885
LJ          -1.40935         5.43303         -4.6974
LJ          -5.48683        -2.32542         3.93628
LJ          -6.04976         4.45438         6.33198
