108
#Comment!
LJ          -3.20515         4.94336         4.97383
LJ           3.14273        -2.26577         1.34025
LJ           2.27763         4.00138        -5.53121
LJ          -5.34437         1.48874        -2.64035
LJ          -5.46923         2.44454        -6.17991
LJ           5.30662        -5.79765         2.05483
LJ          -1.47623        -6.45412         4.24994
LJ          -4.41007         1.12634         2.89386
LJ           4.05056         4.42811       -0.587654
LJ           3.91842        -2.81995       -0.206527
LJ           1.24612        -3.28673        0.219581
LJ           2.37013         2.14173         1.53849
LJ           4.48648         4.32077        -5.42872
LJ           1.17747         5.62483        -0.66267
LJ           5.17325          6.0356         4.91256
LJ           2.96042        -1.71716        -2.48238
LJ           1.41651        -4.53507        -2.42552
LJ           2.86467         1.11824         1.35932
LJ          -1.20276        -4.02789         3.94795
LJ          0.345973        -3.94805         4.20954
LJ          -6.27472        -6.03704         -1.4843
LJ          -5.60859         1.28922         5.44148
LJ           1.31046          5.2439        -5.37731
LJ           6.09382         5.43014         4.92875
LJ          -4.89701        -6.19616         5.91693
LJ         -0.497729        -2.36849        -2.11884
LJ          0.142772        -2.69931         2.95979
LJ          -4.42223         0.36716         4.23579
LJ           3.60273        -2.93485        -4.08252
LJ           2.65587         6.04918        -4.61412
LJ          -2.07954        -4.69318         1.05736
LJ        -0.0640117        -4.10438        -3.07646
LJ           4.61223         3.18744       -0.256388
LJ           1.07083        0.139338          1.4389
LJ          -1.25214       -0.440004       -0.506937
LJ           5.57569         4.89003        -1.95014
LJ           3.67599         5.59271         1.57899
LJ          -0.32346         1.10169         0.91997
LJ          -6.22812        -1.22852        -4.81138
LJ            2.3616        -2.99357        -4.76332
LJ           1.49197        0.526007         4.72082
LJ          -5.37721       -0.369885         1.40022
LJ          -1.99375          4.8771        0.415256
LJ          -4.32835         3.58088         2.56285
LJ          -1.11359        -2.28834        -3.59482
LJ          -3.44114         4.70979        0.891945
LJ           1.44481        -4.78121        -5.36428
LJ           2.85408        -2.95722        -1.82209
LJ          -2.45304        -2.34483        -6.22512
LJ           4.38101         5.47161        0.591754
LJ           4.92945        -4.55167        0.384349
LJ           3.02341        -2.05127         4.33112
LJ          -5.43452      -0.0609508        -6.41441
LJ           1.61774        -4.98657        -3.73251
LJ            1.7877        -3.47663         1.82998
LJ           4.94704        -1.72588         4.43009
LJ           6.22289          5.3163         1.37506
LJ          0.689692        -3.67764        -2.15693
LJ           5.44689         2.59596         4.15817
LJ          -1.54831         1.75998         6.37715
LJ           -4.8157        -1.34439        0.219785
LJ           5.22958        -4.01704        -1.82575
LJ          -5.04963        -5.67013        0.340786
LJ            3.0933        0.114559         2.88041
LJ           6.20014         2.29665        -4.51737
LJ           -5.8619        -3.53032         4.94625
LJ          -5.10411         -4.4795         6.31088
LJ          -1.12561        -3.18332         4.97661
LJ           4.63945        0.889809        -5.88996
LJ          -3.57541         3.78189         1.74303
LJ           1.17985        -4.36665         4.65884
LJ           5.73154          5.1063         3.12132
LJ          -1.54974        -1.03764         4.35903
LJ          -4.46527         3.41467         4.63714
LJ          -5.69764        -4.37601        -3.82653
LJ          -5.56329        -1.47527        -1.04141
LJ           2.48525        -4.45095         3.30985
LJ           5.12601        0.493231        -4.27266
LJ           -3.1935        -5.62533        0.805895
LJ           4.33943        -6.16086         0.80202
LJ          -2.31933         5.95653         1.70576
LJ           3.05191        0.446697       -0.194255
LJ           5.57412        -5.97208        -2.58653
LJ           3.08199         4.63207        -2.21773
LJ          -3.88834         1.63586       -0.393817
LJ           4.90561         5.50728         2.30755
LJ          -1.13918        -1.27108         2.13323
LJ           5.34809        -3.26515       -0.458563
LJ          -1.64343        -5.70996         3.62969
LJ          -1.29333         3.79773        -5.36725
LJ          -0.22781         6.39337         5.20087
LJ           4.24839        -3.56088        -4.56037
LJ          -4.35354        0.867088        -2.12533
LJ           5.65966        -1.11253        -1.86781
LJ          -1.60755         3.99161         4.60408
LJ          -1.99394        0.890183        -1.59201
LJ          -1.79788         1.39557         2.05949
LJ          -3.23101        -3.47171         2.38867
LJ           6.04599         1.77187        -3.46393
LJ          -4.25235         3.72262        0.449448
LJ         -0.107418         6.40707        -2.26069
LJ          0.949629         5.55296        -4.22132
LJ          -3.66602         5.22396        -1.49245
LJ           -3.6021        -3.02556        -5.11198
LJ          -2.12447         -5.4061          4.6622
LJ          -6.33767         1.03933        -1.95286
LJ           2.96539        -6.06051       -0.338764
LJ           4.76788         5.16183        -5.01678
