108
#Comment!
LJ           2.10724        -1.77027         6.06971
LJ           1.99367         5.50874        -2.39751
LJ           2.91372          1.0935         3.64323
LJ          -1.93888         3.97031         3.32072
LJ          -2.47498         5.39099         3.31542
LJ           5.52092         4.37517         3.27739
LJ          -6.45511         4.65232         2.40604
LJ          -2.87033       -0.393095       -0.299668
LJ          -2.70173         4.55413         4.81593
LJ            1.2499         2.91238         2.08951
LJ          -0.49634         4.88367        -4.61879
LJ           5.34327        -3.41297         1.04715
LJ           2.10144        -3.76542        -5.38525
LJ           4.18665        -1.33465        -4.19256
LJ            4.9451         -5.7256         3.89853
LJ         -0.599396         3.81494        0.522248
LJ         -0.822181        -4.43063       -0.505145
LJ          -2.57016         1.06193         6.23903
LJ           6.23534       -0.886637          2.0182
LJ           2.93531       -0.845779        -3.51392
LJ         -0.218317        -4.22289        -2.09319
LJ           3.91657        -6.23199        -4.40276
LJ         -0.862839        -4.79181         4.53595
LJ           5.83393         6.33432         5.52825
LJ         -0.349193          1.0682       -0.597211
LJ           2.37288        -4.78212         1.56868
LJ          -2.59876        -6.36104        -3.10719
LJ           4.77893         4.93043         1.76906
LJ          -3.34566        -5.54882        0.395594
LJ           4.54324        0.305369        -3.78112
LJ         -0.137162         2.75891        -1.12502
LJ          0.106991        -1.74481         4.52943
LJ           5.28448       -0.528339         3.06996
LJ          -2.61808         3.51973        0.902749
LJ           2.23347        -3.70562        -1.41931
LJ            6.1917        0.186377         5.34028
LJ          -1.20368        -3.79137         1.57041
LJ           4.74953         4.51045        -1.31838
LJ          -2.76998        -1.23715         5.49073
LJ           4.47127        0.660404        -5.33804
LJ        0.00194413         -1.6633        -4.17584
LJ          -5.19926        -1.35294        -4.75049
LJ           5.29091         2.92759        -3.68007
LJ           1.97308         1.80012        -2.83065
LJ            -4.326        0.681624        -1.70444
LJ          -3.54726         2.53455         2.78185
LJ           -1.5158        -1.43138        -6.23454
LJ           4.46642        -4.34487        -5.21999
LJ          -4.23086         6.22509         2.77877
LJ           4.27044         0.49705        -1.40015
LJ           4.00494       -0.602317        -2.17138
LJ           4.44445         -2.3618        -1.30086
LJ         -0.303376         4.65846       -0.293839
LJ         -0.729751        -2.43767         4.66865
LJ         0.0502323        -1.84046        -2.16391
LJ           1.24882        -3.88351         4.75223
LJ           1.82143        0.135659        -2.43477
LJ          -1.44202        -3.19324         4.15284
LJ           6.41929         1.52867        -2.28683
LJ         -0.134135        -4.49638         5.21856
LJ           2.13033        -5.34271        -3.92547
LJ         -0.849142          2.7934        0.204403
LJ           4.02227         2.01259        -1.34684
LJ           4.66443         3.26463         2.05555
LJ          0.827486        -5.90594        0.364991
LJ          -3.42829         4.29089         2.95641
LJ           5.13261         -3.7668        -3.59198
LJ          -0.17258         4.00991         1.38953
LJ            4.8376       -0.169132        -6.17654
LJ           2.01801         3.38261        -2.93882
LJ            2.4078        -3.23761         5.69822
LJ          -1.46595          2.8854         4.80645
LJ           5.47686        -2.09845        -1.72137
LJ           5.77763       -0.453678        -4.13277
LJ         -0.430751        -3.51038         3.82119
LJ           1.70085        -1.68839        -1.03648
LJ           3.25132         5.64522        -3.80587
LJ          -2.04222         3.63669        -0.15123
LJ           5.82239        -5.12117        -3.70871
LJ            -3.056        -4.07279       -0.316206
LJ          -2.26498         6.04036          5.3305
LJ           4.89079        -3.61665        0.228377
LJ           1.31124        -2.21919         5.27399
LJ          -3.63495         6.17502         4.18825
LJ          -6.45031         5.30423         1.55576
LJ           2.67911         6.02148         6.10112
LJ          -4.48477         6.04022         1.49765
LJ         -0.726614         6.41639        0.731717
LJ           -2.2445        -2.64545        -4.64759
LJ          -3.11514         -5.6339          2.5955
LJ           1.40226         1.43846         3.94688
LJ        -0.0612648         5.26804         -1.2808
LJ           -5.7586        -1.36324        -1.83376
LJ           2.57454         5.42808        -5.88722
LJ           -1.9606        -4.14224        -5.82431
LJ           3.00676         2.31807         2.05766
LJ           5.28117         1.95585        0.231462
LJ          -2.98039       0.0157874        -3.67629
LJ          0.987849         4.60217        -4.25454
LJ          -1.02694         1.14414         2.07855
LJ           2.77013        0.228352        -5.12566
LJ           -2.9067         1.75637         2.23957
LJ         -0.516077         -1.7605        -1.00025
LJ           5.75302        -3.61892         -1.1761
LJ          -1.50652        -4.17989        0.621607
LJ          -5.04596        -2.91952        -5.49875
LJ          -2.00427        0.137453       -0.521583
LJ           5.49379         1.03919        -5.55387
