108
#Comment!
LJ           0.95745       -0.241577      -0.0765953
LJ          0.880368          3.8277        -1.12515
LJ           6.26935         3.22828        -6.43328
LJ          0.572533         1.16606         -5.7473
LJ          -4.79742          5.2536         4.64547
LJ         -0.290564         4.74743        -2.53846
LJ           1.69931        -1.31911        -0.87635
LJ          -0.40001          1.9608         -3.8287
LJ          -3.46085        0.859564         4.02254
LJ          -2.95282        -3.05045          -5.435
LJ          -2.70217         6.31699         3.81157
LJ           3.50503        -3.92996         5.84494
LJ          -0.23408         5.20083          3.4745
LJ           6.12402         -2.3193        -1.14826
LJ            3.4913         1.88478        -4.88982
LJ         -0.589355         5.67277         5.71334
LJ          -5.10527        -4.79706        -5.76442
LJ          -4.59821         1.07306        -1.43433
LJ          0.770356        -3.74749        -1.75447
LJ           4.67742          4.9704          4.1713
LJ          0.266177        -3.27808        -3.44645
LJ         -0.911993        -1.57244       -0.865115
LJ           -4.6681       -0.290708         1.22011
LJ           4.59167        -2.94253        -6.38917
LJ          -3.95207        -2.08085         2.55795
LJ          0.131597         6.17161         4.64946
LJ            2.6477        -1.29907        0.314897
LJ           3.12118         5.13211        -5.07642
LJ          -3.16199         6.44919         5.37365
LJ          -4.92273        -6.09176         5.59019
LJ           4.95701        -4.14492         1.71611
LJ          -6.16398         5.38595         4.58935
LJ          -1.93519         2.95081        -6.32712
LJ           6.19783        0.250571        -4.79451
LJ          -1.03647         2.61162       -0.437809
LJ          -1.03154         -2.6555         5.95519
LJ          -1.37073        0.122262         -2.1943
LJ          -2.14413        0.449191         4.81247
LJ           -2.8332         4.18221        -4.43749
LJ          -3.70941        -3.12476        -6.39212
LJ          -6.38879        -0.40897        -2.98998
LJ         -0.542504         4.03913        -3.78039
LJ          -1.29104        0.440228         0.59869
LJ           5.63602       -0.909981        -1.13853
LJ           2.12567        -3.50034        0.281968
LJ          -3.98471         2.74242         1.36552
LJ           2.66032         4.73072        -4.31408
LJ          0.903881       -0.759922         3.23583
LJ           5.08264        -1.96402        -6.20836
LJ            -3.688        -2.64652        -1.18055
LJ         -0.125595         3.46591        0.910652
LJ          -2.52646        -2.00733         3.07939
LJ           5.68551        0.865886        -2.64012
LJ          -5.56686         1.75788        -3.87195
LJ         -0.981698         2.32203        0.874082
LJ          -3.76358         1.91811         -2.6426
LJ          -1.93252         6.13932         -1.0381
LJ            6.2124         2.52997           2.809
LJ           4.76585         5.68261        -2.78771
LJ          -3.63717         4.05223        -1.76849
LJ          0.575883        0.521024        -3.01819
LJ          -1.55649         6.26571         4.25855
LJ           0.42051        -2.61771         6.21614
LJ          -1.25492         3.28031        -4.45007
LJ            -3.262         5.16075         1.26201
LJ          -2.74617        -2.33824         0.97427
LJ          -3.11882        -1.76744         6.20083
LJ           1.56002         2.24533        -4.16761
LJ           3.87093         4.24449         -4.3676
LJ          -4.57441         6.03454        -2.97509
LJ           1.65498        -4.59119        -5.44149
LJ          -4.02691         2.39885        -6.43097
LJ           0.43109        -6.24752        -4.14736
LJ           4.58065        0.572877         1.32643
LJ            1.6623        -2.75358        -2.37036
LJ           1.04664         4.18856          1.5186
LJ        -0.0808716         4.09111        -4.73136
LJ           1.62169        -5.72647       -0.512296
LJ           2.15738        -2.34187        -6.13579
LJ           5.84955        -4.84056        -1.69418
LJ         -0.723152         4.87155         2.30738
LJ           5.20669        -1.72986        -3.09379
LJ          -2.54504        -5.52011         5.03297
LJ           2.39175         6.41156        0.985474
LJ           3.67586         2.29611         4.05165
LJ          -1.92545         5.04495         3.59528
LJ          -6.14159        -5.44307         4.86785
LJ           -3.3042         -2.2843      -0.0364435
LJ           -1.9027       -0.721718         4.86059
LJ          -5.71158        -5.38752         5.93272
LJ          0.317515         1.98434        -1.73148
LJ          -3.45078        -1.97693        -3.87394
LJ           1.93265         2.32412       -0.267228
LJ          -5.14916         4.12454         4.16553
LJ          -3.82457        -0.67571         2.56673
LJ          -4.28376        -2.35057         1.69537
LJ            5.3788         5.26708         2.22268
LJ           -5.0732         6.02997         1.27932
LJ          -5.89137         4.21446        0.490547
LJ           1.70826        -1.85106        -3.09138
LJ           4.55786        0.390187        -1.84017
LJ          0.656124         6.11772         -5.1087
LJ           6.17686        -2.63494        -2.60718
LJ           -6.4189         3.16751        -2.73179
LJ          -3.63182        -4.35679        -6.45413
LJ          0.803473        -1.60018        -4.70586
LJ          -6.24597          4.8485        -5.74537
LJ           5.44285         -5.9554         5.14625
