108
#Comment!
LJ           4.03506         4.63182       -0.906473
LJ           3.62278         1.06672         5.34623
LJ           1.66315        -5.04192        0.675908
LJ           2.87493          1.3333          1.8502
LJ          -4.40505       0.0117215         3.75695
LJ         -0.852827        -1.40134          6.3888
LJ           2.99635         6.14128        -3.97114
LJ           6.07381        -6.04713         3.20994
LJ           5.07682          2.3422         4.14072
LJ          -2.63868        -3.68861        -3.43707
LJ            3.4024        -1.61845        -4.67711
LJ          -3.84588         2.14149         -5.6617
LJ          -3.06152        -3.98175          2.1242
LJ           -5.9429         5.11188         4.79217
LJ           2.10495         3.60083        -2.06195
LJ          -5.02942        -1.64124         -1.9217
LJ             4.749        -5.91893         3.70577
LJ           1.09811        0.435134         1.61929
LJ           2.43024        -4.25535        -3.43887
LJ          -4.70047         3.51327         2.17417
LJ         -0.428969        -3.88826        0.316811
LJ          -2.61999        -6.14628         5.44755
LJ          -3.40184         1.93186        -3.49892
LJ           2.64408         2.42368         -1.4974
LJ          0.324617        -3.42168         1.85166
LJ           2.91132        -4.63688        -1.72178
LJ        -0.0473888          4.3064        -5.57341
LJ         -0.401382         4.26594        -2.20306
LJ          -5.48221        -5.37056        0.228565
LJ          -6.41949        -4.55311      0.00948595
LJ          -1.95422        -5.50878        -3.70843
LJ           3.36843         4.45616         2.84751
LJ          -0.10997        -1.75978        -1.33142
LJ          0.411219        -4.62775         1.42224
LJ          -5.69243         5.60663        -4.39463
LJ          -3.62169        0.848022          -3.859
LJ         -0.484276         5.14517        -3.17326
LJ           3.58557        -3.91711         2.61973
LJ          -3.58592        -5.95199        0.816034
LJ          -6.21388        -1.93652        -4.00747
LJ           3.33845         1.69454        -1.37867
LJ         -0.465708        -2.48146         2.26078
LJ          -4.45992        -6.12478       -0.160371
LJ           2.20361       -0.268562        0.110918
LJ          -3.75013         1.12261         3.74949
LJ          -1.67547        -6.13129       -0.535664
LJ           4.90004         2.29489        -2.23989
LJ           4.46012         5.83394         1.11441
LJ           0.62324         4.54969         3.71559
LJ          -4.93955        0.319596       -0.946751
LJ            4.8252        -3.66443         1.80054
LJ            1.6844         4.64649         2.01001
LJ          -2.50179         4.50202         4.29541
LJ          -1.41892         5.70738        -3.98499
LJ           2.86955         1.61237         3.56931
LJ           4.41444       -0.330518        -2.69117
LJ          -1.37527         6.36992         5.01213
LJ          -3.38767         5.24533         3.50254
LJ           3.58651        -3.61861        -2.35291
LJ           5.79964        -2.96873         5.56945
LJ          -4.88909        -2.66584        -5.90322
LJ          -2.10717         0.24437         4.51724
LJ         -0.330143         3.94282        -4.60468
LJ           5.06815        -6.24676        -5.03866
LJ          -4.34136         -4.5996        0.880418
LJ           2.97666         5.30414        -2.27787
LJ         0.0155533        -1.44154        -5.50647
LJ           1.70641        -2.32292         5.33852
LJ          -1.22009       -0.365343        -5.05612
LJ          -1.51065        -5.18015         4.02382
LJ           1.83198        -3.84716        -2.01223
LJ           -4.1235         5.79064         1.23069
LJ           4.33779         1.78068         2.16045
LJ          -1.69248        -6.28247          4.0432
LJ          -0.48524         4.37623         4.07395
LJ           1.48129       -0.264072        -3.57394
LJ           3.92107       -0.172513         6.30314
LJ           0.31582        -4.96843        -5.33859
LJ         -0.572834          2.8022         4.94528
LJ          -2.12885        0.277534         6.22939
LJ           5.80982        -3.07645         2.78332
LJ           2.18709        -5.97371        -3.29038
LJ          -1.42098        -4.36119        -4.02383
LJ            -3.396         4.98506        -2.50182
LJ           -5.8093        -5.74952         5.68118
LJ          -2.03922        -1.06062         1.44129
LJ          -5.26034        -5.61281        -3.37555
LJ           3.06347        -1.98913         2.48861
LJ         -0.336585         2.93917         -2.5469
LJ          -1.96437        -2.02109           5.185
LJ           -5.4548        -4.54824         2.49578
LJ         -0.629972        -3.53517        -5.89132
LJ           -4.2126        -2.82671         1.92303
LJ         -0.910782        -3.60235          4.0813
LJ           -2.4012         -1.9574         3.95324
LJ           6.13254       -0.626463         3.82159
LJ          -3.54412         5.60988       -0.176198
LJ           2.23609         3.09996        -3.28308
LJ           5.87346         5.33741        -3.69612
LJ          -4.92599        -5.91625         5.08401
LJ           1.23834        -1.08107         5.25912
LJ          0.461536        0.301449       -0.184465
LJ           0.83766        -1.17152         2.57732
LJ         -0.126039         1.18208          4.1053
LJ            6.3198        -1.31474          2.3327
LJ          -5.10227         4.37391        -4.50827
LJ           6.14723         4.80763         5.39919
LJ          0.697212        -2.76527         2.69961
