108
#Comment!
LJ           4.31177         4.61534        -4.75456
LJ           4.90823        -1.10135        0.577446
LJ           -6.0442        0.060505         3.85828
LJ          -2.31605        0.916561        -3.57596
LJ           5.41313        -4.48549         4.25823
LJ          -2.37995         4.00764        0.736735
LJ           1.77088         4.00618       -0.892445
LJ            2.2011         2.60021        -1.29721
LJ          -2.36539        -4.77804         -2.7607
LJ            4.1981         4.68807         1.62131
LJ            6.2517        0.357503        -3.79996
LJ           5.44207         4.58949        -2.09082
LJ          -4.99862        0.844355        -1.81496
LJ           2.11168         3.93545         5.38424
LJ           1.86807         3.09871          4.7214
LJ           3.99685         1.94537        -4.39163
LJ           4.90913         2.33196         1.63034
LJ           4.80521         5.63566         3.64043
LJ          -3.75247         3.28245        -4.31317
LJ          -2.40071        -3.23598         -3.4583
LJ         -0.939569        -2.45912         4.07097
LJ          -4.23379        -4.91967          5.8708
LJ          -2.32965       -0.611623         4.14518
LJ          -5.62823         1.37855         0.80669
LJ          -3.48479        -5.73729        0.780865
LJ          -2.74102        -4.86491         1.44875
LJ           1.14817         5.05733         3.39536
LJ           -3.3874         -3.9746         1.02414
LJ          -4.32671         5.37621        -5.06653
LJ          -1.58475        -1.14212         5.04582
LJ           4.20845        -1.53005        -4.30052
LJ          -4.38358         2.42215         3.47857
LJ          -0.70734         6.20338        -2.59252
LJ           1.10284         5.26422          5.6066
LJ         -0.604849        -3.10223        -2.45813
LJ          -3.28109        -3.27719         3.47398
LJ           2.28943         3.67236        0.419727
LJ           1.88453        0.599426         5.06215
LJ           3.28191        0.130647         5.96547
LJ          0.526683          1.6194        -4.87492
LJ          -3.60376        -4.22251       -0.524705
LJ          -4.22643       -0.911974        -5.00586
LJ            5.2066         6.11365         -6.2583
LJ          0.708725        -4.89285        -4.41337
LJ          -5.67638           5.931        0.782986
LJ         -0.722336      -0.0365705         5.73063
LJ           3.80081           1.963         3.70851
LJ            1.8635        -3.21762         1.76471
LJ            2.2505          1.1097         1.57438
LJ           4.34089        -5.07716       -0.728924
LJ          -2.30383        -6.45443         4.14352
LJ           5.64881         3.36054        -4.43978
LJ           1.19315        -0.84527        -2.43893
LJ          -6.38839         5.03752        -2.90681
LJ         -0.727004        -3.48233           4.783
LJ           1.03315         6.36522         1.30627
LJ          0.136095         5.48726        -1.35419
LJ          -3.78576         2.37871        -3.11693
LJ           6.37855         3.72789         -3.3244
LJ           3.00538        0.462046         0.14772
LJ         -0.515472        -4.97546       -0.562351
LJ           3.25501         3.32811       -0.729226
LJ          0.663828        -5.70038         -6.0638
LJ          -4.14784          3.9379         -5.2733
LJ         -0.571329        -5.84478         5.21532
LJ           0.83803        -4.94762         6.32225
LJ          -2.42574       -0.883033         5.67059
LJ          -6.20909         -6.4579         4.94108
LJ           2.88954        -3.24156        -2.67407
LJ           1.95839        -6.07216         4.14376
LJ          -3.53487        -3.75204        -2.92671
LJ          -5.07671        -3.66817         4.77718
LJ           2.38896        -5.11933         3.90444
LJ           4.01088         5.60404        -3.98741
LJ            4.5723         6.27098        -2.10992
LJ           6.21648         3.52851         4.06992
LJ             2.853        -3.37681        -6.43539
LJ          -2.64557         4.11843         5.30705
LJ          -5.86435        -1.19708        -1.46095
LJ           4.63398        -2.69699         -5.2575
LJ           2.08634        -1.50607         3.78334
LJ           6.02661        -3.35115         5.01109
LJ          -2.01192        0.303366        -5.37962
LJ           2.07149          -3.155        -5.25501
LJ         0.0249893         2.28866        -3.25087
LJ          -3.06814        -4.98003         6.23435
LJ          -1.37512        0.325242         2.96478
LJ           5.57018         6.30471        0.565123
LJ           2.72484       0.0100475         2.33342
LJ           5.55693       0.0994185       -0.708392
LJ           3.62684        -2.91711         2.94044
LJ          -0.51784         5.02631         3.56106
LJ          -6.41965       -0.663076        -3.44864
LJ           2.71094         5.62614         3.35553
LJ          -5.30244         -5.0349        -1.62425
LJ           1.19945       -0.394025         4.80175
LJ           1.70749         5.57406         3.96033
LJ          -1.44447        -2.12681         5.63366
LJ          -3.05815         2.67332         5.89413
LJ          -5.23166          -3.002        -4.06543
LJ           -3.6674         4.65065        -2.91604
LJ          -3.43101        -1.28815         5.28497
LJ          -3.80798         2.64681         2.13563
LJ          -3.22696         2.38288        -4.36137
LJ           1.28273         2.22522        -4.91039
LJ        0.00858879        -5.12413        -2.02757
LJ           1.84813        -3.22023        -1.25111
LJ           2.62643         -6.0293       -0.978914
