108
#Comment!
LJ           1.02482         3.99222         3.40878
LJ          0.899353         2.35477         4.12363
LJ           2.37206        -3.01614         2.59545
LJ          -5.93734        -3.34454        -1.03558
LJ           2.30533         5.52002          2.1958
LJ          0.360099         6.35565         4.86025
LJ          -6.29985         6.43384        -1.23094
LJ          -5.57051       -0.765524        -2.46769
LJ          -6.05796         5.32543         1.20196
LJ         0.0179746        -0.55165         5.22671
LJ           1.41542         3.99355       -0.403778
LJ          -4.23226        -3.07573         5.27117
LJ           6.13392        -1.69261        -3.58662
LJ          -2.56641        -1.57511        -4.72151
LJ          -4.33737         4.63784        0.764037
LJ          -1.68736        -2.97577          1.3442
LJ          -4.62473        -2.40267         6.25332
LJ            4.3246        -4.91059         5.05346
LJ           2.02528      -0.0985565        -2.70091
LJ          -2.97972          1.5513         5.85793
LJ          -2.35663        -6.23541        -2.10476
LJ          -2.32074       -0.219077         3.33981
LJ          -6.33722        -2.25892         3.16825
LJ           3.33783         4.98635        -5.92471
LJ           -4.3387        -1.48707         2.30056
LJ          -5.46243         4.45236       -0.127134
LJ           3.68118          5.9369        -4.04758
LJ          -1.53652         2.95542        -6.37606
LJ           6.43714       -0.500905        0.836494
LJ           2.50166         2.64104        -2.70925
LJ           4.67628         6.30855         2.99521
LJ          -6.26666          4.9079         3.14803
LJ           4.49354         2.98433       -0.822266
LJ           1.61282        -3.17435        -3.04998
LJ         -0.529597        0.208502        -3.24639
LJ          0.932429         6.33914         5.82083
LJ           2.85768          3.7906        -4.34998
LJ           4.09597        -3.46446         5.72797
LJ           1.99989        -2.34043         5.13656
LJ          -4.25858         -4.7592         -1.2134
LJ          0.424361         -5.0019         3.45887
LJ            5.1692       -0.697738       -0.857171
LJ          0.924942        -4.08558       -0.784481
LJ         -0.924256         4.42972     0.000220736
LJ          -3.71789         4.72874        -3.69641
LJ          -1.79876         2.70653        -3.75072
LJ         -0.225512        -2.72463        -4.86332
LJ           3.31339         3.05242          3.7228
LJ          0.598905         5.29731         5.96484
LJ          -2.00043        -5.57256         5.86137
LJ           5.07575         4.10072         3.34226
LJ           1.83449      -0.0761204         2.02847
LJ            4.9333         1.88517        -5.28434
LJ           5.57631        -1.19248         4.76865
LJ          -0.56741          4.8428         4.85503
LJ           1.73437         4.99536          5.2772
LJ            -4.578         5.41076       -0.215702
LJ           3.59523         4.85857        0.254004
LJ           2.72988         5.62626        -2.14706
LJ          -2.70074         3.55446        -4.34827
LJ          0.228306         6.08514       -0.961207
LJ           1.52931        -1.99975        -4.39924
LJ          -5.65959        -2.26879         6.42106
LJ          -6.35804        -4.86909         2.15125
LJ          -5.96318        -2.68944         1.38848
LJ          -5.93926         -3.6484         -2.2442
LJ           1.88206         5.38023        -5.74251
LJ           3.25999        -2.09564       -0.715997
LJ           4.91382         3.21122         6.09466
LJ          -2.20853         4.07137         3.76865
LJ          -4.37364        0.891791        -2.09925
LJ           2.03678        -5.02844        -3.41438
LJ         -0.552522        -4.99352        -2.54703
LJ           -3.9255        -5.64422        -2.12481
LJ           -2.7406         4.22705        -1.27698
LJ          -6.42008        0.108718         4.05421
LJ           5.90937         4.71886        0.520459
LJ           3.05465         1.79107        -1.03915
LJ           1.42243         1.36102         2.77906
LJ          -1.89966         5.02985        -5.38486
LJ          -3.13793        -1.98301         1.45384
LJ           4.63474        -1.94005         6.06927
LJ            1.1536          6.1183          3.2272
LJ          -3.37544         3.01251         0.39397
LJ          -4.63954         6.27175         3.56421
LJ            4.5572        0.573206          -2.776
LJ           2.54481         3.65387        -5.49227
LJ         -0.208542        -5.83656         2.27644
LJ          0.610899        -2.31055        0.660385
LJ           4.21099        -5.33833        -5.11492
LJ           5.05695         2.74244         -3.9518
LJ           4.59455        -5.13159        0.337599
LJ           5.08573        -3.35983          1.9917
LJ          -2.79228         1.46183        -1.94961
LJ           3.18504        -5.02346         4.87561
LJ         -0.185909         3.23439         5.64174
LJ           1.26717        -1.98503        -5.62413
LJ           4.48957        -6.03769         5.90442
LJ          -6.20259      -0.0196824         6.37601
LJ          -5.24341         1.24952         4.08796
LJ          0.661465         2.12679         5.16962
LJ          -1.32747        -2.49647        -3.99699
LJ          -1.66672         2.71038         4.67737
LJ           5.26829       -0.256003        0.409602
LJ          -3.31061         5.95457         5.55659
LJ          0.753416        -3.98583        -4.16014
LJ          -5.15468        -6.35109        -5.88811
LJ          -5.87487         4.45934          2.2054
