108
#Comment!
LJ          -1.18463        0.027279         3.64109
LJ           6.17114        -5.86531        0.809524
LJ          0.943054         2.99818        -1.78023
LJ         -0.474045         5.92054        -5.13749
LJ           1.95106        -2.73728         1.19035
LJ            5.8239        -6.44824        -3.55915
LJ         -0.102811         3.63716         -6.4337
LJ          0.459347       -0.615824         5.54867
LJ           3.31472         3.95247        0.722577
LJ           4.46106        -0.77788         2.41742
LJ         -0.833329        -4.49787        -5.11156
LJ          -6.20997         4.52402        -5.23443
LJ          -6.04483        -5.63441        -1.00676
LJ           2.77344         2.58979         3.79289
LJ          -6.01879         3.24327        -5.98987
LJ          0.979488        -5.92471         -1.4505
LJ           1.90154        -4.51264       -0.884984
LJ           5.91375       -0.148364         2.53344
LJ          -4.86213        -3.45357        -1.18415
LJ          -2.05607        -4.43478         2.76303
LJ          -4.56261      -0.0261274        -5.84979
LJ          -2.37379        -3.40274         6.37197
LJ         0.0174226        -2.64211         2.31968
LJ         -0.204265         4.69852       -0.902161
LJ          -4.13187        0.451965         4.33059
LJ           1.74345        -1.23401       -0.944541
LJ            1.6084        -3.47971        -2.22041
LJ          -2.41469        0.768976         5.67378
LJ           3.10035       -0.729356        -1.30685
LJ             4.872        -1.78305        -4.01265
LJ          -4.01991        -3.69306        0.796907
LJ          -5.72191        -2.43805        0.289229
LJ            5.7125         4.78774         2.09069
LJ         -0.063374       0.0294733         3.82331
LJ           4.67604         1.13598       -0.610336
LJ           -6.2177         5.90578        -1.37054
LJ          -4.59013         6.11074        -0.82744
LJ           2.10773        -5.29628         1.63036
LJ           4.23043        -1.34411        -5.41405
LJ         -0.908859       -0.755717          5.9883
LJ           2.71998        -5.57784        -6.08802
LJ         0.0246833         1.01518        -4.98046
LJ         -0.942525        -5.57206        -2.27561
LJ           4.05035         2.92562        -5.95479
LJ          -4.73266         3.21001        -1.56612
LJ          -1.29671           4.306          2.7046
LJ          -1.69294        -1.43788        -4.62566
LJ          -1.64834        -1.15915        -1.95422
LJ            1.0389        -2.43303         5.01661
LJ           -5.4863         4.61326         -3.4337
LJ          -5.69404         -4.7087       -0.544187
LJ          -1.27442        -3.98674         4.45339
LJ           -5.9211         1.54982        -6.08027
LJ            2.6649        -6.43985         5.76867
LJ          0.702495         5.30742           3.516
LJ          -6.23129        0.014839        -3.61757
LJ           5.54581         3.21606         4.07567
LJ          -1.14881        -1.25521         5.15768
LJ           4.20311        0.485729         4.57174
LJ            -5.334         5.36175         4.13689
LJ          -4.92794        -4.77761         2.32268
LJ          -6.20227         -5.8335        -2.85801
LJ          -5.65863         6.24624        -0.19745
LJ          -6.36793         1.84447         5.97479
LJ           3.81369        0.259908        -4.12335
LJ          -1.57092        -6.02306           -3.86
LJ         -0.714541         5.02223        -5.97163
LJ           3.99272         -3.4094        0.718722
LJ           1.67292        0.302192        -5.02064
LJ           -3.6142          3.6545         4.09413
LJ            4.2105         -3.9158         1.90812
LJ           4.30465        -4.58597         5.89369
LJ          -4.20928        -1.14486         4.81475
LJ           4.89346         1.21156         3.51576
LJ           4.01139        -3.80762        -2.61446
LJ          -5.06415         2.83304        -3.89022
LJ           1.72644         -4.3288         4.06031
LJ           5.60595        0.208331       -0.200326
LJ          -2.28716         1.30765         1.26845
LJ           2.87945        -4.68412      -0.0377036
LJ           -1.5728         3.84779         1.13368
LJ          0.803977       -0.734945        -3.95248
LJ           1.89808         1.17701          -3.672
LJ           5.54524        -5.35992        -3.19438
LJ         -0.493106        -3.51897         1.40051
LJ            1.7376         5.12088         4.21761
LJ          -3.36356         -4.4371         6.32615
LJ           5.62252        -1.97154         5.28558
LJ          -3.33371         5.08764         3.40519
LJ          0.859336        -0.71161        -5.73889
LJ         -0.168019         5.81395         6.32081
LJ           1.68978         3.43702         6.16807
LJ          0.271916        -5.84887        -5.61567
LJ          -2.68792       -0.134053        -4.19503
LJ          0.337437          4.7478         4.42485
LJ          -6.33154         4.32305         4.80373
LJ           5.34589        -6.16869        -4.54373
LJ          -3.64556        0.895081         2.46057
LJ           5.10304        -4.53998        -6.17126
LJ          -5.44563         2.94925         2.77095
LJ          -1.83159         5.46959        -3.81824
LJ           2.07448         3.92966        -2.41909
LJ           -4.8022        -5.39712        -0.78063
LJ          -4.98426        -1.79734        -5.56641
LJ          -2.37743       -0.887085         6.34839
LJ           3.85639         2.39146        0.227819
LJ           0.91639         4.64178        -4.16746
LJ           5.59733        -5.26263        -4.46151
