108
#Comment!
LJ           4.43466         3.30081         2.97139
LJ          -5.69812         3.09687     -0.00954844
LJ           4.58439        -1.64614         4.23621
LJ           4.13359         6.37019        -2.71961
LJ           5.11656         -3.0813        -2.70542
LJ           6.14946         2.64064       -0.795567
LJ           4.62098        -3.00533        -1.44187
LJ          -5.50191         2.76845         5.36562
LJ         -0.149921        -0.82552         0.26202
LJ           1.42546        -1.14655         3.72629
LJ          -3.65228         6.41809         1.83077
LJ           3.63193        -3.08271        -4.10292
LJ         -0.975626         -3.8313         2.58599
LJ          -2.54481        -1.84369         4.36138
LJ           2.14599         3.24828        0.136826
LJ          -2.27068         0.40653        -5.79042
LJ           5.06389         3.18552        -2.78341
LJ           -1.4746        0.673893        0.198507
LJ         -0.884611         5.06898         1.32514
LJ          -2.25615        -4.64295         6.10156
LJ          -4.26493         4.32136          1.3057
LJ          -6.35268         6.22874        -2.21555
LJ         -0.226734        -4.48628       -0.622601
LJ          -1.84004        -1.94915        -6.27419
LJ          -4.45844          4.0495        -3.32458
LJ          -3.22817        0.373864       -0.500743
LJ          -6.15655           2.453         -3.7058
LJ          0.344084         5.41002         4.22398
LJ         0.0562159         -6.3539        0.579339
LJ         -0.717466        -1.90082        0.324226
LJ           6.14668       -0.220192       -0.246343
LJ          -3.37693        -6.38736        -4.89368
LJ          -2.10614         1.58496         1.43086
LJ           1.12442        -2.29542        -4.23883
LJ          -3.44272         -3.8483         3.98235
LJ            2.8857        -1.10669         4.89207
LJ          -3.00387        -5.84171          4.2875
LJ          -2.40067        -4.24933        -5.17482
LJ           2.63143        -3.99483        -4.68882
LJ          -2.97369        0.387943        -1.74606
LJ           1.73823        -6.41454         2.94473
LJ           5.35546        -4.95175        0.216164
LJ           5.42944         3.87459      -0.0436778
LJ           2.34782         6.11374         4.88539
LJ           4.63129        -4.01949        -4.67579
LJ          -4.78485        -5.61168        -0.14436
LJ           2.05958        -1.88421        -0.39041
LJ           2.53349        -2.97977        -5.76463
LJ            4.0561        -2.59756         4.98929
LJ           1.57469        -1.47774         2.82552
LJ          -3.83898        -5.50266          4.9456
LJ         -0.898625        -0.40827          5.3892
LJ           5.38108        -6.40812        -4.02185
LJ          0.701425        -2.76872        -3.31735
LJ          0.883173         3.12513         6.36876
LJ         -0.366329        0.358054        -5.62621
LJ           6.22863        -3.11566        -6.16909
LJ           2.53402          -0.996        -6.28568
LJ             -1.23       0.0370795        -4.46263
LJ          -4.71626        0.432682        -4.95131
LJ          -5.96574       -0.936668       -0.455321
LJ            3.0284        -2.40609        0.356112
LJ          -5.35313        -2.58143         2.72886
LJ           4.52966         -3.0508         2.14355
LJ           6.34276         2.82829        0.857952
LJ          -1.26554         3.88108        0.804953
LJ           5.23407      -0.0305687        0.903843
LJ          -4.81629         3.41986         4.80502
LJ           4.26068        -4.63489        -0.75214
LJ          -5.07224        0.116807         4.49405
LJ          -5.57732       -0.267976         -2.2073
LJ           2.16319        0.352083        -1.15841
LJ         -0.324847         2.48246        -2.04359
LJ           6.15893         5.20257        -4.66643
LJ          -2.44237         3.60472         4.83324
LJ          -6.44932        -1.64941        0.128027
LJ           6.02589         6.43067         -0.3652
LJ           5.62346         0.25801          2.9713
LJ             6.171        -1.60626       -0.967445
LJ          -2.05344        -4.00621         1.87654
LJ           5.47336         2.56347        -4.27085
LJ           3.33156         3.65629         3.01325
LJ           -6.0405        -5.87934        -6.16203
LJ          -1.91342        -2.91418        -4.90479
LJ            5.2506         -3.7612        -1.32435
LJ          0.652044         5.02943         5.97745
LJ          -3.93413         1.68884        0.766694
LJ           -2.8757         1.22572        0.654438
LJ           5.99245       -0.750735        -6.39811
LJ           3.05386        -4.22466         1.54329
LJ           5.59641         1.49393         4.91136
LJ           3.19506         -2.8709       -0.633232
LJ           2.86967         3.51376       -0.881009
LJ          -4.75102         2.16216        -0.99325
LJ          -3.83434         2.56186         1.71849
LJ           4.05444         2.79516         0.76023
LJ          -5.43344        -4.10915         6.17926
LJ          -3.38568         3.19722         1.09127
LJ          -2.49057        -0.75133        -3.08575
LJ          -3.79394         3.08217           4.969
LJ           3.81622         2.99953        -6.22664
LJ           4.14658        -3.50501         4.50647
LJ          -1.57006         -3.3112       -0.524489
LJ          -5.12522        -5.09159         3.31729
LJ          0.464937        -6.17592        -6.00835
LJ           -2.6087          4.0626         1.93656
LJ           3.33021        -3.70817        -2.49933
LJ         0.0229205         3.81237           2.398
