108
#Comment!
LJ          -5.42774        0.335939        -6.07566
LJ           3.47376         2.29543         6.19873
LJ          -2.18475         -4.0493         1.04578
LJ          -4.70359        -3.58737         1.32502
LJ           4.67415         5.74888         1.17035
LJ            0.4604         3.51922        -3.21845
LJ           4.36206        0.693776       -0.959781
LJ          -3.56952        0.852216         0.12336
LJ           5.93319        -4.04029         1.98309
LJ          -6.21797        -6.45703         -2.6768
LJ          -3.60618        -1.22196        -3.21485
LJ           2.16699         4.20479        -4.19501
LJ          0.799771        -5.38703        -6.21419
LJ           5.15465         -4.4862         3.98811
LJ          -4.98162        -1.88312        -5.05356
LJ          -3.98286        -1.85405         -1.7313
LJ            1.9745          4.7782        -3.38538
LJ          -1.07513        -3.82855       -0.620956
LJ            5.8164        -3.35997         3.46128
LJ          -2.65616        -2.61322         4.91318
LJ           2.52618        -3.11094       -0.219258
LJ           5.68862         -3.1097        0.789736
LJ         -0.774311         4.92213         -4.0261
LJ           5.88092         -6.1783        -1.97811
LJ          -6.35128         6.34081         2.27452
LJ          -2.26389        -4.97024         5.70563
LJ           1.11771        0.613263        -1.68132
LJ           2.30317         5.48364         1.65837
LJ          -3.49782         5.60355        -1.38804
LJ          0.407415         0.37271        0.996085
LJ           1.32263          1.4748        -3.96386
LJ             -1.68          4.0623        -1.55698
LJ           2.26729        -4.01385          6.2978
LJ          -5.80495        -1.40737         1.62878
LJ           4.30916        -5.75583        0.498408
LJ         -0.255807        -2.81671        -5.82519
LJ           4.75758          -3.325         2.75798
LJ           1.16262        -2.39899         5.08153
LJ          -2.85836         6.09402         1.58984
LJ          -3.37075         1.59107        0.799122
LJ          -1.46229         1.44998         -4.9317
LJ          0.125181         3.89565         1.25863
LJ           5.36207         4.70964        -4.49804
LJ           1.70923         3.85317          1.9814
LJ           3.64534         2.97211         -5.9861
LJ          -1.66657        -6.14623        0.795624
LJ          -4.74807        -3.68339         5.63991
LJ           3.92921        -4.42621         2.74937
LJ           5.52717         4.66169        0.510291
LJ          -2.22442        -5.01953        0.578695
LJ          -3.70564        -2.55162        -0.85623
LJ          -1.13216        -5.70222        -1.29558
LJ          -4.88442        -5.03166       -0.984748
LJ         -0.706074         6.39988        -5.13565
LJ           2.32246         2.22032         4.50973
LJ           2.64448        -1.46378        -2.99654
LJ         -0.103712         5.37094        -6.37604
LJ           5.49529         1.70777         1.26491
LJ          -1.50442         2.90799        -6.06323
LJ           2.71527         5.45174        -6.04793
LJ          -2.17903        -3.93369        -1.12176
LJ           1.39088        -3.40726         2.96282
LJ          0.764473       -0.319432         4.14448
LJ          -4.54146         2.82924         -2.1417
LJ          -1.62797          4.9763         4.03829
LJ          -3.43653          3.1117         2.05336
LJ          -5.17799         1.72166         1.92594
LJ         -0.142541         3.18658        -2.02759
LJ           6.33409        -3.50615          5.8617
LJ           2.71415        -3.99735        -2.51151
LJ            -3.702        0.338882        -4.57347
LJ           3.93024         2.89097         5.37387
LJ          -3.08862         5.59875        0.733097
LJ              1.41        -2.69074       -0.815701
LJ         -0.371493       -0.244435         1.58346
LJ           2.87222       0.0888296         3.25501
LJ          0.219434        -2.99991         2.65845
LJ          -1.65681        -4.81335        -5.06802
LJ          -4.54114       -0.297765        -5.02262
LJ            3.9012          2.1124        -3.26556
LJ           3.46386        -2.71544        -1.62686
LJ          -2.36441        -1.16091       -0.438736
LJ          -4.68644        -3.49264        -4.78059
LJ         -0.867897        -2.78633         3.73838
LJ          0.423048        -2.72486        -2.32392
LJ          -3.11197        0.323373         3.30642
LJ           4.23063       -0.228012        -3.36029
LJ          -3.20226     -0.00695261         1.27497
LJ              1.18        -5.47575        -1.80857
LJ          -6.40497         6.24476        -6.38459
LJ          -2.85625        -6.27969         6.32532
LJ           -3.0085         5.43011       -0.307663
LJ           3.10979         5.73123        -1.57725
LJ           2.21032         5.67156         4.78376
LJ         -0.405374        -2.01962         2.73898
LJ           3.30118         3.09427        -3.72185
LJ           1.70926         2.38281        -5.63601
LJ         -0.748766        -1.37912         1.63457
LJ          0.990523         6.02513        -4.83817
LJ          -1.39981         1.37585        -2.03443
LJ           3.17782         3.30551       -0.102455
LJ           3.27431         1.43257         2.98103
LJ          -1.15404         4.03349        -4.64672
LJ           3.41025         5.80355         5.73386
LJ           3.32497        0.255763         5.24772
LJ           -5.2671         -3.2519        -1.65159
LJ           4.19177        -2.57708        -3.77344
LJ           4.38845         3.93627        0.939418
