108
#Comment!
LJ          -5.65704         1.37809          5.6493
LJ            3.4112        -1.28169         -2.8089
LJ         -0.836579       -0.926612        -2.59388
LJ         -0.981263         1.02182        -6.21749
LJ           -6.0894        -6.08767       0.0356947
LJ           3.55339         4.29028        0.686656
LJ          -4.77957        -1.14353        -4.30503
LJ         -0.373627        -3.04014         4.65299
LJ           5.54934         1.29168        -5.25028
LJ          -2.07396        -3.01365        -0.68145
LJ          -1.51998        -5.15719         -4.5489
LJ           2.88805        -1.65062         2.37246
LJ          -1.83432        -5.73331         2.24831
LJ          -3.87981        0.414041         5.47935
LJ           3.63186        -3.66106       -0.782917
LJ          -1.63034        0.107195        0.744017
LJ          -2.91694          2.1109         4.07307
LJ          -1.52309       0.0969707         6.03052
LJ           5.25801      -0.0710882         5.57113
LJ          -4.40415         4.72319        -5.81765
LJ          0.998151        -6.27263        -6.08261
LJ          -4.53846          5.9013         3.94934
LJ          -5.22473         1.11778         1.96171
LJ           6.02201        -3.87138        0.306033
LJ          -5.70388        -3.18508        0.679664
LJ           1.82135         2.30776       -0.535014
LJ        -0.0470986         3.64697        -2.79845
LJ        -0.0501021        -4.01056         3.64334
LJ          -4.40481        -5.13774          4.9356
LJ          0.408781       -0.949379        0.278398
LJ          -3.15574         1.19093         3.60402
LJ           3.79633         2.85059        -4.17549
LJ           4.06638        0.388966         2.68597
LJ           1.81501        -3.59646         3.20093
LJ          -3.77353          2.5239         6.03923
LJ          0.344368         3.66638        -0.91308
LJ            -2.065         1.18983         5.87975
LJ           3.46272        -2.75245         2.18124
LJ          -5.45574        -4.43966         5.76852
LJ           4.32698        -5.57331         -1.5144
LJ          0.885622         5.57619        -3.79074
LJ          -1.15301        -4.03506        -5.54822
LJ          -2.78996       -0.331067        -6.20233
LJ          -6.30465        -4.95954        -1.05426
LJ           1.29377        -5.05419         4.55202
LJ          -4.61685         1.84793       -0.249655
LJ          -5.76902        -1.89298        0.533351
LJ           2.47192        -4.16404        -1.28776
LJ           2.33293        -5.58539        -3.90384
LJ         -0.164127         4.44335      -0.0404457
LJ           6.13277        -2.60073        0.308923
LJ           4.96197        -4.61117         3.59236
LJ          0.271003        -2.92071         2.93533
LJ           5.52553         3.12766        0.120698
LJ          -2.81285        -0.51686        -2.47586
LJ           -5.3604         5.45518        -4.77381
LJ         -0.476163         3.43151        -4.00414
LJ          -2.64196        -2.32922         2.26637
LJ         0.0423442      -0.0972138        -2.44036
LJ           6.11807        0.268934        -2.25269
LJ          -2.73746         3.06547         1.66536
LJ           6.09304        -3.06784       -0.709222
LJ           3.85742          4.0239       -0.884422
LJ          -5.19382       -0.174133        -5.28004
LJ          -2.90017        -6.35375        -1.57192
LJ           1.14051         4.23179        -1.39941
LJ          -5.68165        -0.40083        -1.46688
LJ           2.71801         4.30328          2.6657
LJ           5.78561       -0.819299        -2.98128
LJ           4.66824        -1.43956        -5.80912
LJ          -3.78968        -1.59815         2.17513
LJ           1.28736        -6.34805        -2.43069
LJ          -1.02442        -6.40865        -5.70081
LJ          -3.80317          4.5663          2.3548
LJ           3.71606         2.07316        -3.29878
LJ          0.120664        -2.92819        -3.72667
LJ          -1.13219        -2.37074        -5.40609
LJ          -3.74944         1.27238         6.09398
LJ          -2.16654         2.12451         3.16611
LJ          -6.08253        -1.31561         2.66277
LJ           6.30648         5.83156        0.117698
LJ          -2.81571        -2.18389         3.44648
LJ          -1.38979        0.233749        -4.90326
LJ          -2.35728        -3.55232        -5.74429
LJ          -2.65092         1.57433         1.65223
LJ          -1.84469        -6.26608        0.624175
LJ          -5.14584        0.928492        -2.71115
LJ           6.33702         4.86297         -2.9734
LJ           2.66488         -4.0989         -4.8758
LJ           2.70962         1.91745         6.26502
LJ           5.37452         -4.3402         -5.2105
LJ          0.321541       0.0734495         3.31777
LJ          -4.19938         1.29172         3.94626
LJ          -2.82728          4.9238         2.15803
LJ          0.995335        0.708655        -3.17513
LJ           5.00689         5.54524        -4.01377
LJ           2.29943       -0.224321       -0.819448
LJ           4.05746         -6.1199        -3.93627
LJ           1.15721         3.13503        -2.45952
LJ          -3.92631         3.90175        -3.51965
LJ           3.17431         1.65065         2.97698
LJ            3.2796        0.566924         4.13452
LJ           2.84366         6.31164        -3.80234
LJ           6.41355         1.27195        -1.22319
LJ           3.27547         3.45365        -2.41063
LJ          -1.31709         5.16751          1.3341
LJ           4.39389        -2.20913         2.02549
LJ           1.63439         6.19611         1.97352
