108
#Comment!
LJ           2.48798        -1.14716        0.529408
LJ            3.1673         2.09675         1.66026
LJ          -5.90459        0.692494       0.0791708
LJ          -4.43124        -3.02477        -1.10224
LJ           2.71807         4.83494        -5.59173
LJ           2.16824         3.22473         -3.5834
LJ           3.51287         1.69293         6.44545
LJ           2.56055          2.9376        -6.43572
LJ          -6.08982        -3.54361       -0.981737
LJ          -1.94479         2.61505          6.0968
LJ          -1.17341        -5.00371         4.82654
LJ           5.83826         3.96511         -2.7428
LJ           4.50587        -3.59855        -4.04033
LJ          -1.62195        -0.82221         4.90207
LJ          -6.22656        -4.82535        -6.39943
LJ          0.582655       -0.512068          6.1129
LJ           -2.6795          3.5696        -1.56215
LJ           -6.3443        -1.51994         3.10511
LJ          -5.26584        -4.37723         3.07468
LJ          -3.97866        -1.79546         5.21605
LJ          -6.34958         2.27391        -6.32329
LJ          0.358609       -0.784812        0.432197
LJ           4.32232        -5.55011         3.31483
LJ             6.302        -1.44542         1.95058
LJ          -1.44923         2.14598          5.1536
LJ           4.74442         -3.3526        -3.05007
LJ          -1.90106         1.83333         1.72329
LJ          -6.33767       -0.896086        0.871135
LJ           4.63873         -3.7998         5.94103
LJ        -0.0513526         1.59163        0.913034
LJ           1.03073        -6.45883        -3.93868
LJ         -0.293244         1.19871        -5.21557
LJ           6.44707          4.5528        -4.87401
LJ        -0.0876048         3.31893         1.08259
LJ           2.26775         2.79956       -0.510946
LJ           3.62992         2.03064         4.83014
LJ            6.0183        -3.33033         -5.1848
LJ           -4.7891        -4.52134         5.25321
LJ           5.53463       -0.746673         4.74241
LJ          -4.89586        -4.20609         4.18023
LJ           6.15633         2.96363        -2.65935
LJ             1.746        -4.44147        0.433361
LJ          -2.94181         1.78425         -1.3946
LJ           3.21241        -3.92439        -2.61216
LJ          -1.62755        -1.19313       0.0856914
LJ         -0.899035        0.474268         5.65648
LJ           4.40018       -0.517623        -5.85101
LJ           5.68283        0.223445        -5.73946
LJ           1.83353        -1.65047       -0.718104
LJ          -5.70642        -6.02168         2.69743
LJ           3.81571         2.28747        -5.46754
LJ          0.445387         3.34315        -5.02975
LJ          -5.70963        -1.93438         6.11417
LJ          -4.04924        -5.97194         4.31432
LJ           1.61593         1.20123       -0.417273
LJ          -1.08264        0.890805        -3.88065
LJ           3.52602         4.39644        -4.81795
LJ            4.6585          2.9197         6.16628
LJ          -5.96958         3.69742        -2.47468
LJ          0.683283         2.15756       -0.319933
LJ           4.74322        -3.63615        -1.29394
LJ           2.67572         5.82719         3.16114
LJ          -5.35311        -5.57258        -1.50534
LJ           5.08457         2.93445        -1.98592
LJ           4.66982         2.40441        -4.59031
LJ          -1.29599       -0.327873         2.36918
LJ           1.42828         1.54599         3.80007
LJ          -5.90694        -1.16325        -3.51666
LJ          -1.48432         1.79919        -4.00983
LJ          -2.49901        0.709187         4.75265
LJ           5.50529        -4.53504        -4.41305
LJ          -2.94419         -1.8447        0.633755
LJ          -5.62158          4.4936         3.18699
LJ          -4.67496        -2.60715         2.64915
LJ          -2.71816         -4.1251        -6.12185
LJ          -4.95944       -0.136564          1.0134
LJ        -0.0542182        -5.27666        -0.66794
LJ           2.48184         1.09269        -6.12274
LJ          -6.19563        -4.11723        -5.68726
LJ           3.78621         4.97642        -2.00667
LJ           3.15008        -4.77302       -0.538969
LJ         -0.175447         1.02862         2.16449
LJ          -5.10748         1.50234         5.81291
LJ          -1.86036         5.17825        -2.26122
LJ          -1.30323        -2.23349       -0.650313
LJ          -3.53925        0.253977        -1.32516
LJ          -4.65615        -3.23889         1.75965
LJ          0.907768         1.66651         -3.2659
LJ         -0.402558         5.71935         4.08489
LJ          -5.30644        -1.80768        0.180987
LJ          -4.28882         -1.3997        0.537027
LJ            3.6748         6.03572        -2.89467
LJ          -2.81211         3.43081         1.43087
LJ          -3.16441         5.32432         4.97119
LJ          -4.92286         1.99395         3.38145
LJ           4.57506        -4.02318         2.14054
LJ          -2.81477         -0.7836         5.55428
LJ         -0.512229        -1.37502        -6.31723
LJ           -6.0172         3.60993        -4.23157
LJ          -2.56277        0.918003         1.72667
LJ           3.32303        -4.10935         1.58306
LJ          -5.65452         -3.0945          1.3811
LJ           1.78006        0.685088         4.69708
LJ           6.13471       -0.833736        -3.46231
LJ           -1.2705        -3.30834        0.266626
LJ           4.63742        -1.67413        -5.69943
LJ           2.36029          5.0586         4.93506
LJ           2.78323         2.65898         5.44173
