108
#Comment!
LJ          -4.56285         6.23635        -5.94765
LJ           5.12231        -0.43117         1.86977
LJ           1.70108        0.645782        -5.52908
LJ          -2.10566          6.2248        -3.91957
LJ           3.95469        -5.89377        -1.10816
LJ          -2.86453       -0.598553         2.51032
LJ           5.96249         3.26741        -2.23995
LJ          0.169441        -1.36158         5.55038
LJ           4.64134         4.80135        -4.42666
LJ           2.54025       0.0126975         6.19351
LJ           1.40676         4.24021        -1.96982
LJ           3.39773         4.13265         2.27397
LJ          -5.15662         6.10131         6.15191
LJ          -6.46252        -1.15892         3.05911
LJ           -5.0253        -1.00925        -1.69572
LJ          -4.33425         1.37175        -2.37201
LJ          0.411185      -0.0197131        -5.90861
LJ          -3.40094        -3.73059         4.78634
LJ           3.12324        -5.17188         2.55209
LJ          -6.08739         4.71092         5.75852
LJ           4.91089          4.0352         3.77426
LJ          -4.08264        -4.25518         6.32647
LJ          -2.74536          3.9757        0.703047
LJ           4.33108        0.937994         1.52236
LJ          -3.42168        -6.07994        0.856304
LJ           2.32525        -1.67012        -2.68837
LJ          -3.71776         -1.7323        -5.19208
LJ           1.78005        -3.61637        -1.71642
LJ          -2.78024        -4.98003         5.69269
LJ           5.50419        -3.38228         -3.4451
LJ          -3.86791          3.4241         -1.1978
LJ         -0.061377         3.43911        -5.43242
LJ           -5.5727        0.717404        -5.37788
LJ          -3.44181        -1.91524         3.46369
LJ          -4.22893         2.82369         1.38774
LJ          -2.30384        -4.13245        0.981341
LJ           4.88691        -4.47817       -0.725116
LJ           3.61779        -2.16083       -0.675196
LJ          -1.29187        -2.13404         4.03374
LJ          -6.30993        -2.86984        -3.18239
LJ          0.856775         2.38576        -2.43709
LJ           1.96132        -3.85716         2.87307
LJ           1.27768        -3.12365         4.49362
LJ          -6.39567         -6.3586       -0.922575
LJ           3.34616        0.306193         2.38631
LJ          -1.66037        -4.38131         2.21194
LJ           -2.9429         0.57056        -3.29023
LJ          -1.95303         -3.5716         -1.5825
LJ          -6.26504        -6.08887         4.58849
LJ          -3.66538         2.09509        -3.20421
LJ           -5.5056        -1.47626          2.9426
LJ           4.31539         4.06593       -0.837593
LJ         -0.357099         1.96116         2.81626
LJ           5.55911        -4.55079         4.51518
LJ         0.0775302        -3.65445        -3.41389
LJ           1.96613         5.14964         4.97346
LJ           1.36177        -5.29644       -0.330242
LJ          -5.91402         5.69648         4.00311
LJ          -1.32094         1.63968        -5.11633
LJ          -3.02375        -1.25363        -2.52926
LJ          -2.62756        0.535326         0.56636
LJ            4.4837       -0.665156          3.0912
LJ           6.29025         3.08064         2.78617
LJ           -2.4784         0.54674         5.75855
LJ          -3.19441       -0.915846        0.841141
LJ           5.60623          2.6139         2.07642
LJ           6.16828         0.53939        -4.75998
LJ         -0.105827        0.323181         4.65019
LJ           4.88268        0.330629       -0.218807
LJ            6.2064        -4.58372        0.894832
LJ           6.32975        -1.89672          5.8499
LJ          0.978486        -4.95169         5.43783
LJ           4.17053          -5.888        -5.21004
LJ          -2.63522          5.7027       -0.741649
LJ           1.47342         2.28293        -3.43956
LJ           3.00448        -5.81517        -4.10867
LJ          0.177035         2.33272        -1.52508
LJ           -3.6828          3.0881         2.36888
LJ          -6.33671         3.46969         4.06715
LJ            4.7093        -2.32758           1.936
LJ           4.41452         5.37485       -0.690952
LJ         -0.258788         3.39422        0.182781
LJ           1.86183       -0.970083        -5.09456
LJ          0.175164        -3.76326         5.93503
LJ          -2.01182        -1.61692         -6.2619
LJ          -4.52535        -4.29974         4.26188
LJ         -0.969812        0.503961         1.97355
LJ           5.05528         2.28202        -4.72261
LJ          -1.25973         5.08916         6.02496
LJ           2.23834        0.887297         5.02461
LJ           6.42997        -3.61084        -5.73908
LJ          0.081007        -4.51583         4.93685
LJ           -2.8958         4.72142         3.00253
LJ          -2.98906         5.38219        0.318315
LJ        -0.0185616         4.61482       -0.443997
LJ            1.8448        -6.39711        -3.28519
LJ           4.75381         4.21352        -5.88734
LJ          -4.95838         0.13149          -1.892
LJ          -1.79017         3.69896       -0.512066
LJ          -4.57205          5.7504         1.96962
LJ         0.0887972         4.84549         2.76251
LJ           6.04528         6.07254      -0.0882544
LJ          -4.67545        -4.84531        -2.59744
LJ           4.90731         5.63783        -1.58525
LJ            3.4409         1.53552         -4.5912
LJ          -5.92169         1.33936        0.536704
LJ           3.30138        -1.58129        0.624453
LJ           2.01004         4.47587         6.10939
