108
#Comment!
LJ          -6.39516        -6.08278          6.2796
LJ          -2.99741         1.20845        -5.73495
LJ         -0.623361        -1.63821         -2.8326
LJ         -0.906114        -5.83852        -1.84465
LJ           3.64101         4.54897        -1.05134
LJ         -0.513382         1.61629       -0.560678
LJ         0.0549817        -5.56481        -2.25755
LJ           2.33299        -3.78022         4.04952
LJ           4.00429         -5.2335        -2.34905
LJ          -5.02711        -2.14955         5.91248
LJ            4.0312        -1.88483        -4.71662
LJ          -4.72528        0.402719         4.46551
LJ           1.89434         2.02959        -1.20171
LJ           2.07659         5.29881         5.61382
LJ          -4.72434         1.67199        -0.38458
LJ           1.89472         3.68541          3.5867
LJ          -2.68233         3.50189        -4.66594
LJ           3.00807        0.736122        -2.23122
LJ          -5.89594        -4.22029        -3.35135
LJ           -4.5976         3.65605        -2.42904
LJ           1.88333       0.0778131        0.814566
LJ          -3.72603         1.40431         4.83128
LJ           4.90394         2.83507         3.45162
LJ          -4.45864         4.78094        -2.97305
LJ           3.85195        -5.30589        -1.40802
LJ             4.128        -3.10448        -1.87343
LJ           1.42582        -5.18939         6.08579
LJ           1.97419        -4.05171         -2.3691
LJ          -1.43182        0.287331        -4.62871
LJ         -0.314899         2.59314        -4.87778
LJ           4.32788         0.65579         5.86294
LJ          -1.89427         1.80722        -1.16284
LJ          0.760509         6.20655        -2.89779
LJ         -0.547115        -3.07551        -5.22179
LJ            -1.331        -5.02408        -4.80093
LJ           5.35341        -3.22846        -6.03051
LJ          0.492217         2.53136         6.11191
LJ          -1.23563        0.935755         1.25061
LJ          0.926274        -3.54932        -5.66111
LJ           5.81622         4.42798         4.57004
LJ           4.29832        -4.36126       -0.977552
LJ           3.90415        0.145301       -0.199065
LJ           2.27789        -2.03771          2.0198
LJ           2.54719         1.29784        0.766074
LJ          -4.96358         5.73009        0.079693
LJ          -3.95127         5.15144       0.0242018
LJ          -4.05237        -1.49552       -0.922482
LJ         0.0823284        -4.07218        -1.28573
LJ          -0.85537        -5.51175        -5.66627
LJ           2.07451        -4.91836         -3.6309
LJ           1.98614         2.37538        -5.47475
LJ          -5.09818         -3.6591         4.61494
LJ          -5.92208        -3.08682         2.68585
LJ          0.646698        -6.43544         3.07549
LJ         -0.804636         1.92346         1.85884
LJ        -0.0157814        -4.72349        -6.43865
LJ           1.51824        -2.26626         1.62283
LJ          -2.71373        -2.09448         4.38413
LJ           3.27417        -4.08248        -3.56533
LJ          -5.24377        -1.40452        -1.43966
LJ           3.96696         4.62355        -2.46539
LJ           5.48592        -5.35075        -3.40237
LJ          -3.16375        -5.24128         3.18592
LJ          -2.00143         2.12908        0.394979
LJ           3.59806        0.699952        -5.70903
LJ          -2.79537        0.972667         3.68482
LJ          0.724075         1.63312         2.14522
LJ           1.29393        0.972162         -5.7949
LJ           -4.1919         1.98115          1.3506
LJ          -6.19351         1.55542        -1.02462
LJ          -4.64845         5.19063         1.17708
LJ          -6.06306         5.81491         1.38906
LJ           5.44985         -4.1946        -3.94832
LJ           3.00006        -0.99746        -5.71183
LJ          -4.17436        -5.30819        -3.35494
LJ          -3.80832        -3.40665        -4.70985
LJ         -0.833244         3.84697         3.67598
LJ          -3.35384       -0.877752         3.52518
LJ           -0.5013         3.80074         5.36473
LJ          -2.54873         3.10281         4.06804
LJ          -2.77335         3.19525          1.8435
LJ       -0.00261197        0.130962         2.40285
LJ          0.986915        0.827466      -0.0699097
LJ          -2.20878        -3.85286         4.70301
LJ           1.25812         1.02922         2.63296
LJ          -4.29884        -5.65475         1.55916
LJ         -0.109487         3.87938        0.139433
LJ          -4.21995         1.64214        -6.30888
LJ         -0.636646        -2.90924        -3.61097
LJ           2.31193         1.49622        -4.12643
LJ          -3.45598        -3.51237        -3.54608
LJ          -6.17493         -2.3541         3.47387
LJ          -4.39136         5.40237         6.06381
LJ           4.59271        -5.60172         -3.8163
LJ          0.588226        -1.33354         2.03669
LJ           1.30388          5.7553         4.62257
LJ           4.55881         -3.0353        0.968608
LJ          -2.18549         3.72466         2.43836
LJ           1.52217         0.88577         3.77737
LJ          0.736322          5.9684         6.20219
LJ          -2.61338       0.0275307        -4.18323
LJ           3.61307        -4.42807        -5.09995
LJ           4.58596         1.17821        -4.02314
LJ           4.97483         5.09287         3.08518
LJ          -3.63097          4.1202        -3.58423
LJ          0.775639         2.64757       -0.943976
LJ           4.80914        -5.26643         -1.6787
LJ          -6.22679        -2.32569        -1.27043
