108
#Comment!
LJ           2.71884         3.73345         4.25442
LJ           4.31034          2.0153         2.38027
LJ           4.78711       -0.703055         3.11937
LJ          -5.38739        -3.14213        -1.18987
LJ           4.37835        -6.25964        -5.01483
LJ          -1.19924        -6.11533         6.39486
LJ           -5.2238        -5.00661       -0.344205
LJ           5.80971        -3.71627        -4.12805
LJ          -4.70358         5.42434        0.615233
LJ           1.76822         1.67716         3.84248
LJ           3.16116        -4.48877        -2.46571
LJ          -1.26409        -1.93769        -5.81507
LJ           1.97636        -1.85238        -3.51872
LJ         -0.641069        -1.82625        -2.59001
LJ           5.01477        -6.26783         1.26681
LJ          -3.03829        -2.08868       -0.680337
LJ          -3.82435         2.08067        0.722987
LJ           6.22475        -3.38152        -6.14235
LJ          -2.54863        0.760088        -3.41274
LJ          -2.04731         1.61181         5.34205
LJ          -2.91216         6.22819        -2.32306
LJ         -0.322412        0.824937        0.795686
LJ          -4.96482        -3.84325         2.37785
LJ          -6.44441         4.62864        -2.75632
LJ           5.87244        0.308995        0.991084
LJ           6.33906        0.820056       -0.933362
LJ           4.56004        -5.10142        -5.04645
LJ           4.07679         4.32856        -4.04875
LJ          -3.34327         3.07459         1.92151
LJ           4.62846         3.35459        -5.34003
LJ           3.17858         4.87312        0.633376
LJ         -0.437915         3.59029        0.226547
LJ          -5.68587         2.70797        -4.23423
LJ           2.53774        -5.23799        0.406081
LJ         -0.659754         2.09864        -0.72637
LJ           2.49349         5.41412         6.02439
LJ           4.12436          2.4745        -5.16886
LJ           1.26803         5.88416         2.99913
LJ          0.917813        -1.28543         3.81021
LJ          0.442753        -4.64985        -3.38079
LJ           1.48577         -6.2982         2.12948
LJ          -4.16129          1.2496       -0.551754
LJ          -4.43164        -2.66696        0.488408
LJ          -2.25298         5.97373         3.36549
LJ           -4.6904        -4.26563        -4.56231
LJ           3.45119         1.77386         3.49251
LJ          -5.42499        0.687602        -6.06566
LJ           2.84994         4.99609         3.98877
LJ          0.202854         3.94336         4.95719
LJ           1.00445        -3.86283        -4.40189
LJ          -4.65442         5.73964         4.19311
LJ           0.83948        -3.77063       -0.518327
LJ           5.50682         3.20871        -5.85065
LJ          -4.27433         2.24733         3.62696
LJ          -3.62426        0.379803         3.69693
LJ           1.84778         4.85985         3.49257
LJ          -6.33272         5.55592         1.87858
LJ           5.39604         5.91088       -0.654657
LJ           2.76667         2.56819        -2.91457
LJ          -4.52412         -2.1743         -4.7608
LJ          0.129846        -5.30073       -0.347256
LJ           2.40436        -2.13692        -5.62986
LJ           5.12311        -3.72434         4.75315
LJ           3.63218        -6.27721         5.63321
LJ          -4.36741        -3.45501         1.26802
LJ          -6.01619        -3.16377      -0.0546972
LJ          0.990961         5.01122         5.67678
LJ           6.43944        -3.61342        -1.46237
LJ           5.31709         4.40233        -5.38095
LJ          -2.48415         4.27689         3.37702
LJ            2.0284        0.750683         2.01336
LJ         -0.403891        -4.69535        0.688804
LJ          -1.61783        -3.15742         5.29993
LJ            5.9452          6.2239          -2.866
LJ         -0.577702         5.33577         5.92434
LJ           5.76082        -1.51571         2.57496
LJ           1.59694         6.45328       -0.283703
LJ          0.308311         5.51517        -1.95054
LJ           5.46033        0.497908         6.22767
LJ           3.09923        -2.62324         4.03835
LJ          -2.95405        -5.02683         3.14736
LJ           4.13143         1.23237        -4.24108
LJ           1.01998         3.57677         4.48989
LJ          -6.41726         1.14414         1.96903
LJ          -5.58786         6.17401         2.28965
LJ           4.32514         2.88329        -1.57397
LJ           2.99352         2.73639        -6.22341
LJ          -3.67994        -3.32693        0.218402
LJ         -0.591944        -3.41466        -2.04124
LJ       -0.00828313        -5.01984        -5.46095
LJ           1.00775        0.727771        -3.08163
LJ           3.46929         5.86636         1.00169
LJ           4.47374         -2.5574         5.51472
LJ           -6.0555         5.84185        -3.43492
LJ           3.48432         5.67388         4.53177
LJ            1.2139        -0.46816         4.41517
LJ           2.79165        0.270845        -3.44966
LJ           6.11316        -2.18498        -6.21032
LJ          -5.55965         2.27075         4.10901
LJ         -0.947278         3.30208         1.96126
LJ          0.193568       0.0478779        -4.28848
LJ          -1.10579        -5.09683        -5.53042
LJ          -1.24618         4.93121         3.44383
LJ           6.15889          3.2882         3.22479
LJ          -3.65228        -5.06983         4.03208
LJ           3.84337        -2.26308         3.28279
LJ          -4.67015         5.21638        -4.08871
LJ          -3.66472         5.05802         1.54313
