108
#Comment!
LJ          -1.83569        0.147648       -0.285977
LJ         -0.292234        0.659674        0.546263
LJ         -0.616463        -2.23029        0.610283
LJ         -0.428461        0.374059       -0.427837
LJ           1.93678        0.467346        0.577127
LJ          -1.85691        -1.20282        -1.39697
LJ           2.01808        -2.08258        0.909603
LJ          -1.20342       -0.685162       -0.635152
LJ          0.464105         2.11446      -0.0428518
LJ          -0.33947        -1.63466       -0.257477
LJ          -1.74932        0.628783        -2.22592
LJ          0.655008        0.547982        0.294361
LJ          -1.32532        -1.68261         1.95251
LJ         -0.759754        -0.20066         2.25635
LJ            1.9044        -1.53505        -1.62485
LJ          -1.79169         2.16417         2.25217
LJ          0.029723       -0.326269        0.110839
LJ          -1.80486         1.28843         1.74352
LJ          -1.09719         1.96317       -0.918816
LJ          0.538562        -2.33236         1.74754
LJ           1.41715         2.22449         -1.2457
LJ          -1.49973        -1.89476         1.01852
LJ        -0.0767839       -0.787006         1.97575
LJ          0.855535        -1.27581        -2.20083
LJ           -1.9641       -0.222689        0.768378
LJ          -1.27403       -0.763716         1.58114
LJ          0.835752        -1.84564        -0.70264
LJ          -1.13312        0.849326        0.105208
LJ          -1.87878        0.974769        0.672289
LJ           1.37986         1.36264        0.544112
LJ           1.32814         -1.4097         0.65697
LJ          -0.34442         1.52204       -0.246268
LJ          -2.35812        -1.71942        -0.66179
LJ          -1.25572        -1.99202       -0.323852
LJ          -1.23428         1.58873        -1.81168
LJ           2.12626        -2.32551         1.92704
LJ           1.25459        0.563677         1.24072
LJ          0.524381         1.69887       -0.948398
LJ          -1.40244        0.407209         1.35399
LJ         -0.771597       -0.206509        -1.52154
LJ           1.47357         1.61197       -0.394387
LJ           1.06439        0.558201          2.1871
LJ           1.93621        0.246093         -2.1723
LJ           1.02012       0.0221156         -1.5897
LJ          -2.08282         2.05565       -0.713655
LJ         -0.462653        -1.62588         1.34672
LJ           2.21012         -0.5295        -1.64865
LJ             1.707         1.73736         1.38915
LJ         -0.350611         1.37086        -1.29566
LJ          -2.09928         1.91593         1.06867
LJ         -0.845448        -2.36464        -2.25121
LJ           1.89234       -0.601796        0.272765
LJ        -0.0784196        -1.66601         2.33609
LJ        -0.0571365       -0.499532       -0.870732
LJ          0.444753         -1.0177         1.14394
LJ          0.154741       -0.341339        -1.88817
LJ          0.835774       -0.393068         2.15172
LJ          0.931328       -0.366671        0.553736
LJ           1.70354       -0.810896         2.30752
LJ           -1.7275       -0.527172        -2.19717
LJ           1.34359        -2.33883        -2.20773
LJ          -2.22434       -0.704733       -0.616164
LJ          0.432845        -1.71277         0.46157
LJ           2.18001        0.859284       -0.298435
LJ         -0.849302         1.52704        0.877135
LJ          -2.00565         1.07242        -1.37945
LJ           -1.6449        -2.17582        -1.56206
LJ           -0.0282        0.925788         1.42629
LJ           1.83391         1.36936         2.30632
LJ         -0.796348        0.930414         2.07612
LJ           2.22532        0.783793          1.4425
LJ          -1.45683         1.78476       0.0888528
LJ           2.24508         1.70411        0.266467
LJ            1.0584       -0.888936        -1.21869
LJ           1.64891         1.25301        -1.31181
LJ           2.34192        -1.08417         1.24174
LJ         -0.631697        -1.06697         0.55728
LJ        -0.0224085         1.94285         1.09312
LJ          -1.56747        -1.09798        0.176075
LJ          0.831177         1.46494         1.75591
LJ           1.58444        -1.21702       -0.457928
LJ           2.26829         1.98367        -1.60327
LJ          -1.15789        0.966619       -0.860842
LJ         0.0900902        0.626107        -2.38074
LJ          -2.08068       -0.215749         1.69187
LJ          0.965208         2.29581        0.815304
LJ          -1.71636        0.116955        -1.27647
LJ          0.110956        -1.23458        -1.53842
LJ         -0.222396        -2.31886        -1.13132
LJ          -0.81619        -1.49792        -1.13041
LJ          0.786205         1.28564        -1.82154
LJ          0.123584        0.500949        -1.31966
LJ           2.00775        0.406437        -1.15718
LJ          0.657154        -1.00325       -0.292739
LJ           1.51626       -0.381574         1.29536
LJ         -0.900799          2.2383         1.59117
LJ         -0.948175        -1.16151        -2.09905
LJ          -2.04324         -2.1678        0.218338
LJ          -1.01614      -0.0761378        0.372241
LJ         -0.138776           1.697         2.07367
LJ          -2.31401        -1.47647         2.21327
LJ            1.0204        0.820784       -0.577984
LJ           1.31606        -1.69322         1.62299
LJ          0.390268       0.0143254         1.27547
LJ           1.66479        -2.18607      -0.0300588
LJ          0.325813         2.30658        -2.00365
LJ         -0.515217        -0.31611         1.19075
LJ           1.31005       -0.221091       -0.476976
