108
#Comment!
LJ          0.221564       -0.998634          1.1498
LJ          0.988076        0.275281         2.16595
LJ           1.19762          1.0823         1.48044
LJ          0.340493         1.23994       -0.522555
LJ             -1.42       -0.751263         1.98108
LJ         -0.328556         2.31215        0.835694
LJ             1.872         2.21055        -1.21994
LJ          -1.91157         1.46576          1.7514
LJ           1.99985         1.82495         1.29277
LJ          0.187742        -1.74228       -0.490325
LJ          0.174331        -2.33507        -2.09486
LJ          -2.09946        -2.25972        -1.78751
LJ          0.651107       -0.191416       -0.941987
LJ           -2.0903       -0.141681      -0.0595879
LJ          -0.19987       -0.941773        0.323714
LJ          -0.74524         2.17957         1.77061
LJ          -1.11471        0.755625         1.21679
LJ           2.28562       -0.886187        0.538561
LJ          -2.16617        -1.97024        -0.78425
LJ          0.170071     -0.00683499        -1.98696
LJ          -1.40752       0.0510966        0.649118
LJ         -0.212674         1.89565       -0.102031
LJ           1.72032      -0.0990872         1.52964
LJ           1.62001         1.22938        0.584339
LJ         -0.831157       -0.177904        -1.88715
LJ          -1.27572         1.74495          1.0321
LJ          -2.08391         1.57373        0.384399
LJ          0.908478       -0.728706         1.89598
LJ          -1.97401        -1.66669        0.210952
LJ          0.760021        -1.12369        0.158964
LJ          -2.03451        -2.23811        0.997148
LJ         -0.397759        0.129247       0.0149939
LJ          0.500766        0.784911         0.55066
LJ         -0.801112        -1.79591       -0.389464
LJ           1.52227       -0.519198       -0.315957
LJ           1.98452         1.23877       -0.301392
LJ          0.285044        -2.34341         1.58092
LJ         -0.783962         1.23484         1.97233
LJ         -0.318407       -0.620901       -0.752835
LJ           1.16271         1.56573        -1.99538
LJ           1.67426       -0.817069        -2.25737
LJ         -0.775246        -2.14683        -1.81747
LJ           1.96417        0.949182         2.03988
LJ          0.760116         2.23275       -0.220228
LJ          -1.20529        0.805173        -1.95226
LJ          0.861604       -0.730464        -1.80559
LJ          0.595008      -0.0971339        0.102455
LJ           2.06792        0.260577       -0.700801
LJ          -1.81795        0.502987         1.98513
LJ         -0.250846        0.358571         1.01858
LJ           1.11026        0.612938       -0.434218
LJ           1.23877         1.47866       -0.941545
LJ           1.75555       -0.561029        -1.30307
LJ         -0.430202         1.61326        -1.95305
LJ          -1.16023         2.05338        -1.04798
LJ          -1.13729        -1.91199        0.684192
LJ          -0.10086         1.29981         1.12641
LJ          -1.77528       -0.486353        -1.41521
LJ            -1.564        0.888348       -0.970387
LJ           -2.2393       -0.321605        -2.30732
LJ         -0.766958       -0.605051         1.06809
LJ         -0.684548        -1.28173        -2.33992
LJ          0.320342         1.22174        -1.48575
LJ           1.48959         -2.3086        0.796813
LJ          0.679621       0.0667525         1.21833
LJ           1.95935         2.20116      -0.0805094
LJ         -0.172953       -0.550831           2.009
LJ          0.992283        -1.63174         1.44712
LJ          0.360203          1.5597         2.15499
LJ            -2.019         1.71657       -0.604047
LJ           1.76547        0.205092        -1.99309
LJ           1.29901        -0.70952        0.898713
LJ          -1.27106         2.06307        0.111858
LJ          -1.34869        -1.41652        -1.24511
LJ         -0.919336        0.100127         1.91361
LJ          0.260937        -1.46599         2.17066
LJ          -2.05189        0.445116        -1.66499
LJ          -1.17262       0.0366791       -0.613234
LJ           1.72585        0.186393          0.5594
LJ         -0.750177        -1.52527         1.50261
LJ        -0.0896386        -1.17026         -1.5479
LJ           1.06375        -1.76969        -2.21948
LJ         -0.354362        0.436061        -1.20324
LJ          -1.47044         1.81301        -2.01461
LJ           2.25065        -1.36143         1.53657
LJ           1.15169        0.691427        -1.51575
LJ          0.723282        -2.05298        -1.28299
LJ         0.0165427        0.584954         2.02443
LJ           -2.0704       -0.245364         1.33361
LJ        -0.0162638         2.05609        -1.04067
LJ          0.508893        -1.96877        0.651257
LJ           2.06077        -2.14173         2.10717
LJ          -1.67584        0.709873       0.0219235
LJ           2.18946         1.23117        -1.28324
LJ           1.24153         2.07576         1.86099
LJ          -1.41012        -1.95811         2.09506
LJ           2.15461         1.74643        -2.16416
LJ         -0.650003         1.23688       -0.779326
LJ           -1.9369        -1.25623        -2.04001
LJ          -1.24512       -0.833477        0.111408
LJ         -0.636655         1.04273        0.336999
LJ           -1.6891        -1.13988         0.96686
LJ           1.74497        -1.60151      -0.0345361
LJ           2.34829        0.772086         1.18636
LJ           1.10523        -1.25412       -0.821643
LJ          0.709534         1.85355        0.920727
LJ          -2.21178        -1.01452        -0.52669
LJ           1.83322        -1.54039        -1.39324
