108
#Comment!
LJ          0.846932        -1.93917        -1.66815
LJ          0.558872        -2.25589         1.37994
LJ          0.928088       -0.447594       0.0165622
LJ          0.333623        -0.93385        -2.18235
LJ           1.44617        -1.60842        0.924255
LJ         -0.579906        -1.22632        -1.92765
LJ          0.197535         1.20039       -0.814798
LJ          0.923774         1.42941         1.28616
LJ         -0.811062       -0.956814        0.993391
LJ          -1.00348         1.63144        0.752142
LJ         -0.491046         2.12497        -2.02343
LJ          -1.91766         2.12669        0.701746
LJ          -0.85547       0.0904299       -0.222596
LJ           2.21201         1.29951         0.64374
LJ           2.00432       -0.720661      -0.0458603
LJ           2.28972         1.38501       -0.386419
LJ          -1.40264      -0.0473629         1.10334
LJ          -2.31976       -0.929717         2.23959
LJ        0.00158122        -1.28622         1.51182
LJ         -0.125338        -1.09589       -0.844599
LJ          -0.30329        0.192765         1.16727
LJ           1.96733       -0.719665        -1.19649
LJ          0.239547        0.126321        -1.49136
LJ         -0.971352        0.676267        0.540262
LJ           1.41562       -0.917575        -2.05246
LJ          -1.58348       -0.578336        -1.72289
LJ          0.515501         1.92995        -1.54776
LJ           1.29784         2.33178          2.1933
LJ         -0.835963          1.1591        -1.93977
LJ          -1.17055        -2.08756        -1.53151
LJ            1.0445        0.976306        -1.48013
LJ          -1.61022       -0.733995        0.462339
LJ            1.9486         1.54266         1.56741
LJ          -2.11668         2.17974       -0.851177
LJ           1.35363         1.66455       -0.749759
LJ         -0.305373        -2.34841        0.666482
LJ           2.06052         2.18393       0.0918574
LJ        -0.0824304        -2.01307        -1.23837
LJ           -1.2263        -2.20938         1.27408
LJ          -1.96181         2.02668         1.69149
LJ          0.735084       -0.779163        -1.24987
LJ          0.588326          2.2034       -0.539249
LJ          -1.97798        -1.52981       -0.289119
LJ           1.98468         0.14584       -0.476422
LJ           1.25054      -0.0154581        -1.16362
LJ           1.01491         1.36715          2.2775
LJ         -0.918291         1.75046         1.79244
LJ          0.224141          1.0989        -2.03808
LJ        -0.0954383       -0.112404         2.15931
LJ          -1.38842       -0.490642         1.97791
LJ          -1.79966        -1.76392        -2.25236
LJ           1.60063        0.734897        0.155342
LJ         -0.166535         1.65757       0.0593523
LJ          0.116262      -0.0878842       -0.431201
LJ           1.87419         -1.7663        -2.05663
LJ           1.44065         2.16218        0.963898
LJ         -0.410293        0.787454         2.00391
LJ          0.781834       -0.756521         1.21154
LJ         -0.832422        0.237564        -1.94365
LJ          0.895384      -0.0795633        -2.25683
LJ          -2.36561         2.19653        -2.17253
LJ          0.832917        0.319548         1.66388
LJ          -1.35191         2.37207       -0.224249
LJ           -2.1689        0.388923        0.497947
LJ          -1.94746       -0.516159        -0.63968
LJ           1.98014        -1.81279         1.74574
LJ          -2.32315        -1.70232        0.629984
LJ          -1.22202         1.31901       -0.217484
LJ           2.30315      -0.0788762        -1.88012
LJ          0.747741        -1.51994        -0.53681
LJ         0.0248198         1.15424         1.11424
LJ           -1.4583         1.87738        -2.07535
LJ         -0.765872         0.85218        -1.00577
LJ          -1.77322        0.943261         1.16958
LJ           1.58645       -0.293536        0.777444
LJ         -0.949558        -1.44958         1.91257
LJ          0.942157        -1.46905         1.90054
LJ           1.80348        -1.62879       -0.261809
LJ          -1.64772         1.32813        -1.19464
LJ         -0.739461       -0.898308      -0.0455934
LJ            1.9054        0.597712         1.21113
LJ          0.966091         -2.0975        0.255145
LJ          0.985429         1.49463        0.325627
LJ          -1.68178        0.450694        -1.52132
LJ          0.232354        -1.54395        0.476536
LJ          -1.78462        0.612205         -0.5487
LJ          -1.18254        -1.29838       -0.827951
LJ           1.65118         1.68533        -1.69621
LJ          -2.13797        -1.65918        -1.33148
LJ           1.60953       -0.641887         1.74994
LJ          0.189091         1.73438         1.90754
LJ         -0.617574         1.93154       -0.755757
LJ          -1.24585        -1.65239        0.363284
LJ         0.0341409       -0.470757        0.453587
LJ          -1.32217         0.49582          2.0542
LJ          0.796135        0.323927        0.626525
LJ          0.881105         0.63803       -0.457637
LJ          -2.35334       -0.709281         1.18992
LJ          -0.78007       -0.413535        -1.18592
LJ          -2.21121        0.129553         1.83521
LJ          -2.02541         1.15536         2.33333
LJ           1.78787        -2.25497        -1.09497
LJ         -0.297831        -2.00419       -0.271649
LJ           2.03091        0.758899        -1.23572
LJ        -0.0761477        0.714116         0.16909
LJ           1.75765        0.783918        -2.22215
LJ         0.0668135        -1.98432         2.23055
LJ           -1.7954         -1.4682         1.55889
