108
#Comment!
LJ           1.54764       -0.250208        -1.87613
LJ          -2.00898        -1.02919          2.3257
LJ          0.324659       -0.151186        -1.96548
LJ          0.853048         1.16127       -0.645123
LJ           1.46491         1.75928         1.45547
LJ          -1.34951        -0.87362       -0.649194
LJ          -1.94101         2.04357        -1.51353
LJ          -1.28238         -1.0305        -1.67448
LJ         -0.376833       -0.866354        -1.17694
LJ          0.850858        -1.80921       -0.965756
LJ          -1.55634      -0.0759871        -2.27616
LJ          -0.43295        0.769584        0.905946
LJ          -1.80657        -1.84897        -1.92339
LJ          -2.05688       -0.413111         1.44669
LJ          -1.69333        0.833587         2.19217
LJ           1.71539        -1.75776       -0.467238
LJ          -1.09443        -1.76345        -1.02366
LJ           2.01024         1.39688        0.652537
LJ          -2.11378        0.919221        -1.62395
LJ           1.52345        -1.94933        0.653241
LJ           -2.2242         2.37179         2.06751
LJ         -0.138669         2.12227          1.3251
LJ          0.828353       -0.248487        0.763377
LJ         -0.903204       -0.821935         2.18766
LJ           2.34101        0.780603         1.43983
LJ          -1.35386        -1.91741      -0.0589818
LJ           1.31457       -0.350113       -0.789347
LJ           1.37647        0.791837         1.84019
LJ          -1.25643        0.519901        -1.20469
LJ         -0.879652         1.07743       -0.318728
LJ          0.749012        -1.74443       0.0536408
LJ          -2.08301         0.57881         0.29066
LJ           2.31089       -0.896983       -0.629717
LJ           1.93231         1.08463       -0.290929
LJ          0.733925         1.89628        0.718257
LJ          -2.16262         -1.4441        0.204811
LJ          0.981725        -2.05915        -2.29403
LJ           0.87508         2.01911        -1.32999
LJ         -0.069819         1.55672       -0.920724
LJ          0.140014        -1.20083        0.592585
LJ           0.65688        0.780602        -1.52935
LJ            1.9344        0.412713        -1.09693
LJ           1.04085        0.857264        0.781099
LJ         0.0311905       -0.525475         1.49423
LJ          -1.37298         1.94887       -0.632515
LJ         -0.164881        -1.50154         1.60544
LJ           2.24656         2.26396         1.05913
LJ           1.77639         1.70168        -1.01489
LJ          0.757441        -2.02536         1.34417
LJ          -1.65504         1.50496        0.266839
LJ          0.605407         2.10626       -0.383174
LJ           2.23834       -0.357496        0.278745
LJ          0.606434       -0.883831        -1.25867
LJ         0.0267799         1.70251        -2.02973
LJ         -0.796769         1.36991         1.68311
LJ          0.167943         1.08401       0.0609936
LJ         -0.319192        0.685904         -1.3748
LJ         0.0302872        0.131037        0.315143
LJ           1.89108       -0.668038         1.90687
LJ          -2.27518         2.30518        -0.15247
LJ          -1.82045        -1.71719         1.23282
LJ           1.94555        -1.14565        -1.62824
LJ        -0.0417133        -2.17479        -1.39512
LJ           1.76579      -0.0350812         1.05202
LJ         -0.762498        -1.36677        0.866648
LJ          0.424623        0.420707         1.39355
LJ           2.08642        -1.11103         1.03353
LJ         -0.771854        -1.85115        -1.97166
LJ           2.17243        0.384868         2.30974
LJ          0.623827         1.42752         1.70059
LJ           -1.4996        0.541054         1.11511
LJ          -2.11743        -0.33097         -1.4154
LJ          -1.89604         1.06171       -0.657409
LJ           1.02768       -0.121512         2.04603
LJ           1.62385        0.983945        -1.82496
LJ           1.77244        -1.86804         1.65657
LJ           1.48582         2.01748       0.0640601
LJ         0.0151811        -2.12842         2.32143
LJ          -2.07988        -1.79663       -0.971041
LJ           2.14737         1.47458         2.24723
LJ         -0.944207       -0.434438         1.25172
LJ         -0.972689        -2.00322         1.72458
LJ         -0.909958         2.01483        -1.49583
LJ          0.155987         0.74834         2.37668
LJ         -0.556731         1.70405        0.369393
LJ           1.48739       -0.928081        0.299434
LJ         -0.674544       -0.100293        -1.83705
LJ          0.027699        -1.42599       -0.467099
LJ          -1.39677         1.87258        -2.38055
LJ         -0.506844       -0.678745       0.0826983
LJ          -1.83254         1.55237         1.29043
LJ         -0.953564         1.08531        -1.93451
LJ          -1.80981       0.0130799       -0.478011
LJ        -0.0321827        -2.20127        0.459318
LJ          0.835419        -1.02108         1.54022
LJ          -1.24799         2.31645        0.940002
LJ          -0.72894        0.332203         1.86906
LJ           1.21865        -1.09201        -2.28716
LJ          -1.06159        0.112224        0.331389
LJ           1.29303          1.8547        -2.31215
LJ          0.550575       -0.536018       -0.147056
LJ           1.11219        0.398598       -0.071974
LJ           1.93845         -2.1676        -1.82583
LJ          0.176014        -1.23334        -2.13214
LJ          -1.59225       -0.697786        0.447398
LJ         -0.458247        -2.34368       -0.459363
LJ          -0.62802        0.144421       -0.572707
LJ          0.379472        0.207346       -0.750062
