108
#Comment!
LJ          -1.25855       -0.635958         1.64662
LJ        -0.0384864         2.29628        -1.89313
LJ          0.607311        -1.47068         1.26611
LJ          0.385754         1.50143         2.30419
LJ          -0.73727        0.160436         1.78792
LJ           1.32069        0.922386        0.613416
LJ          -1.32086        -1.72433       -0.711532
LJ          -2.25042         2.18981        -1.88903
LJ          0.902695         2.04575        -1.33348
LJ          0.984133        -1.44009         2.32048
LJ          -1.77793        0.246035         1.43845
LJ         -0.190223       -0.368312        -1.30413
LJ          -1.19891        -1.04939       0.0204198
LJ          -1.16721         1.03536          1.4611
LJ          -1.84277         1.94665        0.550079
LJ          -1.49719        -1.74759         1.95783
LJ          0.296938         1.08415        0.348865
LJ           1.51523        0.597836       -0.289359
LJ            1.3213        0.433348         1.47107
LJ          0.980896        -2.02526        0.474746
LJ          0.420328        -0.84141        0.515412
LJ          -1.43001         2.13701         1.45747
LJ           -2.3635         2.14563         1.83961
LJ         -0.236375         1.50951       -0.393005
LJ         -0.565797        -2.23761       -0.964713
LJ          -1.42377         2.20528        -1.32719
LJ          0.825301       -0.202968        -1.84614
LJ          -2.18701        -1.97676         1.00313
LJ         -0.421537       -0.571239        -2.30282
LJ          -2.19351       -0.317329         -1.5188
LJ           1.74249        -1.16848         1.54586
LJ          0.583921         2.10922         1.22289
LJ         -0.642868        0.721934       0.0470701
LJ           1.52643        -2.18576         1.32278
LJ          -1.26034        -1.80578        0.684615
LJ          -2.36139       -0.510311          2.1738
LJ          0.080998        0.460642        -1.76085
LJ          -1.88763         1.34008        -2.28242
LJ           2.29665        0.532475        0.635785
LJ          0.257535       -0.639512          1.7509
LJ         -0.133548        -1.30163       -0.949692
LJ           1.87981       -0.312142      -0.0718228
LJ         0.0186465      -0.0662835        0.842471
LJ         -0.290753        -1.98436         0.98744
LJ           1.93741        -1.23678         0.56423
LJ         -0.392278        -0.49178      -0.0453056
LJ         -0.485315        -1.32073         1.81288
LJ          -1.00606         2.24948       0.0204431
LJ          -1.43946        0.387056       -0.965929
LJ           1.57021       -0.896945        -1.90065
LJ          -1.48441        0.931919        0.563386
LJ          -2.29866        -1.78984       -0.909952
LJ          -1.12176        -0.75805       -0.960911
LJ         -0.476643          1.1066         2.33549
LJ          -1.01292      -0.0640946         0.82307
LJ           1.20771         2.28896         2.19235
LJ         -0.832013        -1.53219        -1.72748
LJ           1.76865        -1.11931        -0.96044
LJ          -2.07299       -0.894699        -0.50097
LJ          -1.36357        -0.04447       -0.106033
LJ          0.574044        0.724714       -0.875375
LJ          -2.32171         1.27391      -0.0643146
LJ           1.71963        -1.93087       -0.227547
LJ           1.42529         1.15858        -1.21959
LJ          0.260943        -2.11297         1.97227
LJ          0.741201         1.18711         1.39772
LJ          -1.18479         1.20174        -1.53442
LJ           1.24617       -0.368704         0.68519
LJ           -2.2777        0.425604       -0.430413
LJ          -2.06682        -1.68516       0.0881623
LJ           1.70977         1.59949        -2.10871
LJ          0.514438        0.162755      -0.0388666
LJ           1.06501        0.792351        -2.15367
LJ          -2.12688         1.29361         1.27998
LJ           1.93576        0.366739        -1.61387
LJ           2.09613       -0.249044         1.28092
LJ        -0.0132974         1.44543        -1.37532
LJ          -1.93544        -1.56476        -1.78624
LJ           1.99253        -1.78933         2.30385
LJ          -1.98296       -0.543236        0.440544
LJ           1.39613        -1.85817        -1.48598
LJ          -1.44374       -0.638256        -2.03213
LJ         -0.388276        -1.64408      -0.0454386
LJ           1.62456         1.97761        0.536922
LJ          -1.88918         2.18293       -0.415603
LJ         -0.410824          1.9687         1.64484
LJ           2.17152        0.659976         2.07761
LJ          0.506233        -2.07373         -0.6414
LJ          0.807446         -1.0409        -1.22135
LJ          -1.02791         1.96247         -2.3196
LJ           1.12456         1.61325       -0.259429
LJ           1.93196          1.9659       -0.846192
LJ          -1.26978         1.38279       -0.355916
LJ         -0.577626        -1.03787        0.805675
LJ           1.13014      -0.0766639       -0.862996
LJ          0.124961        -1.41478        -1.93102
LJ         -0.565838         1.62276        0.641246
LJ         -0.551718        0.734408       -0.930718
LJ           1.33703       -0.388603         1.98026
LJ          0.304183        0.438807         1.97872
LJ          -1.76397        0.302967        -2.21926
LJ          -2.33271         1.28865        -1.36135
LJ         -0.199627         0.85682         1.12171
LJ         -0.876644        0.163679        -1.81789
LJ          -2.08008        -1.07274         1.31868
LJ           1.70162         1.54871         1.49146
LJ         0.0152327         2.26969        0.244076
LJ          0.966412        -1.26119       -0.239509
