108
#Comment!
LJ           2.10183        0.337689      -0.0190116
LJ          -1.60297        -1.74572        -1.75228
LJ          -1.55173        0.849319        -1.48922
LJ          -2.37767         1.89517       -0.932412
LJ          -1.56668      -0.0522461        -1.94082
LJ          -2.21199        -1.63572         2.18694
LJ         -0.698955         2.33315        -1.40238
LJ         -0.663477         1.71883        -2.26283
LJ           1.13194       -0.177904        -1.22592
LJ           1.09464        0.677246        -1.76515
LJ          0.592073        -1.74539        -2.03215
LJ         0.0251245          0.9257         -2.1416
LJ            2.1304        -1.35073        -1.07055
LJ          -1.82087         1.06619       -0.305347
LJ          -1.07111         0.71153        -2.34853
LJ          -1.66685        0.334301         0.31842
LJ           1.15139        -1.07702          0.7005
LJ           -1.8098         0.77703         1.27688
LJ           1.90031       -0.406175       -0.723919
LJ           1.58208         -1.5449        -2.07319
LJ           1.31936       -0.406104        -2.17882
LJ           2.36485         1.26795        0.520238
LJ           1.72954         1.95553         1.09336
LJ         -0.341905        -2.03168         2.31917
LJ           2.07663        -1.03761         1.10945
LJ          -1.26582        -2.16252         2.01526
LJ          -0.23509         2.01487       -0.544411
LJ          0.766652         2.04419         1.01697
LJ           -2.2073       -0.880003        -1.88721
LJ          0.391641        0.851326         1.36532
LJ           2.21137       -0.529302        0.273768
LJ        -0.0623871        -1.65516         -1.1679
LJ         -0.535604        -1.73398         0.87868
LJ           2.37581        -1.69782        0.343309
LJ           1.18645          2.1415        -1.91442
LJ          0.257642       -0.680277        -1.42878
LJ          -1.16217         1.36081        0.790699
LJ         -0.306107           2.118        0.438711
LJ              2.32        -2.14044        -1.65639
LJ          -1.36676         1.89241       -0.620978
LJ          0.695253        -2.30399       -0.987793
LJ          -0.85887        0.848968       -0.206155
LJ          0.687821         2.07273       0.0705934
LJ            1.2394       0.0634981         1.38821
LJ           -1.4961        -1.52636         1.19299
LJ          0.420175        0.136037        0.657384
LJ           2.10865         1.10016         1.58695
LJ          0.298462         1.73783        -1.72553
LJ         -0.630005        0.859445         1.49591
LJ           2.10327       -0.653485         2.05106
LJ          -0.78644        0.169326        -1.34614
LJ           1.57695         1.60715      -0.0822319
LJ           1.09656        0.546727       -0.349582
LJ         -0.515437        0.329174        0.640875
LJ          -2.08989        0.116996         1.99211
LJ          0.195478        0.401426        -1.30916
LJ           1.04275        -1.25122        -1.11376
LJ          -1.92737        -1.06619       -0.245819
LJ          -2.08387        0.947799        -2.32402
LJ           2.09646        0.343824        0.985418
LJ           1.27899         1.29808         2.18881
LJ          0.269966         1.26975        0.472697
LJ           1.37955         1.05718        0.897538
LJ           1.47848         -2.1782        0.299261
LJ          -1.56006       -0.700979        -1.17162
LJ           1.19751        -1.17521         1.71402
LJ           2.05238        0.879311       -0.858115
LJ          0.540557         -1.8604         0.66907
LJ           1.80673        0.480989         2.32184
LJ          -1.99697        -2.01654       -0.702316
LJ         -0.308435        -1.77729       -0.148921
LJ         -0.154378         2.22638         1.42338
LJ          -1.31359         2.31072        0.280768
LJ          -2.00043          1.9556          1.1649
LJ          -1.62385       -0.876833           2.108
LJ         -0.117162      0.00912793         1.51812
LJ           1.03416         1.42122         -1.1434
LJ           2.30567        0.222033        -1.52075
LJ           1.90985         1.46451        -1.71074
LJ         -0.116748       -0.137768        -2.16886
LJ          -1.05944        -1.61864       -0.821421
LJ           1.68619        -2.13936       -0.677854
LJ         -0.407568        -0.86462        -0.68901
LJ          -1.38538         1.53123         1.88839
LJ          0.588117         -1.5317       -0.303936
LJ          -2.23719         2.08039       0.0844081
LJ         -0.465907         1.32153        -1.20739
LJ         -0.860269        -1.07924         -1.8879
LJ            -1.046      -0.0273065         1.77628
LJ         -0.893739       -0.615706         0.91557
LJ           1.64519        -1.25072       -0.197735
LJ          -1.92896       0.0907359       -0.662632
LJ           2.23769         -1.9626         1.28686
LJ           0.46937       -0.942309         2.25827
LJ           1.46603         -2.2113         1.93594
LJ          0.226776       -0.893758          1.1693
LJ          0.499048         1.94943         2.04435
LJ          0.332726         1.19386       -0.508532
LJ          0.733977       -0.445454       -0.355179
LJ          -1.07925       -0.337828      -0.0886298
LJ         -0.114434        0.149298       -0.316832
LJ         -0.430009        -1.08842         1.86956
LJ          -1.68066         1.91427        -1.73548
LJ          0.655759         0.24622         2.13295
LJ          0.527912        -1.86959         1.80442
LJ           2.27983         2.13549         2.23627
LJ          -1.87169         -0.4329         1.06923
LJ        -0.0762969       -0.667276        0.267283
