108
#Comment!
LJ           2.18784         1.44347      -0.0961271
LJ         -0.651884       -0.247576        -1.11533
LJ          0.429675        0.331944        -2.06534
LJ          -1.26606        -1.28628         1.20159
LJ         -0.498392       -0.553393        -2.05272
LJ           2.23898         1.32388         -1.3763
LJ           1.39967         1.84017         1.43423
LJ           1.22609       -0.968299        0.342285
LJ          0.632105        -2.25111         1.84582
LJ         -0.230788        0.136345         1.99687
LJ          0.865463        -2.17547        -1.70515
LJ           2.10646       -0.471554        -1.09125
LJ            2.0855        -1.97275       -0.283019
LJ          0.416025       -0.795067        -1.62042
LJ          0.765364         1.42561        0.559255
LJ          0.980422       -0.271927         1.10439
LJ         -0.778334        -1.45274       -0.733401
LJ           1.51618        -2.36963       -0.946696
LJ         -0.415018       -0.831807         1.73795
LJ         -0.498147        -1.63737        0.637922
LJ         0.0251415       -0.795574       -0.664813
LJ           1.98373         1.03245         1.21781
LJ          0.362564         2.32235        0.886291
LJ          -1.82386         1.38099        0.650426
LJ          -1.37542       -0.169828          2.0547
LJ         0.0480379        0.146835          1.0717
LJ          -1.19901         2.09866         1.10683
LJ         -0.596693          0.8718        -1.05179
LJ           2.12676       -0.529022       -0.030988
LJ            1.4758        0.776903        0.315672
LJ          -1.59562       0.0146633        -1.53742
LJ          0.384472         1.10186        -1.28597
LJ       -0.00226367        -1.64643       -0.164216
LJ          -1.51813          1.2282         1.68839
LJ           -2.2717        -1.50681        -2.22613
LJ         -0.219124         1.83224         1.51965
LJ          -2.28173       -0.501372        -2.04578
LJ          -1.79399        0.906278        -2.07431
LJ         -0.927409        0.756246         1.03147
LJ         -0.809732        0.396248        -1.95386
LJ         -0.626319         1.04218         1.95941
LJ          0.553367        -1.34977         1.08683
LJ          -1.58875        0.776037       -0.839756
LJ          -1.92019        -0.67017        0.714236
LJ           2.18128        0.428104         1.99133
LJ         -0.669058         2.20309        -1.30028
LJ           1.08879         1.45928       -0.379232
LJ          -1.52794        -2.19808       -0.689171
LJ           2.11106        0.384401       -0.575291
LJ           1.09119        -1.50348       -0.955266
LJ          0.209332        0.170713       -0.993248
LJ         -0.205452         1.28573        0.579794
LJ            0.9759        -1.96338      -0.0107179
LJ          -2.34384          1.9137         1.30111
LJ           2.03378       -0.256439         1.02862
LJ          -1.31648        -1.16392        -1.54353
LJ          -1.64848      -0.0778879       -0.243265
LJ           0.13628        -1.46333         2.34953
LJ           1.17046        0.363736         1.83357
LJ           1.74263         2.15927        0.444759
LJ        -0.0839136         2.23648        -2.21717
LJ           1.33278       -0.221972        -1.74127
LJ        -0.0407902        -1.66902        -1.41041
LJ           1.76205        -2.04384         2.06868
LJ          0.170568         1.00932       -0.303552
LJ          -2.23658        -1.74586        0.850947
LJ         -0.191718        0.112842      -0.0699392
LJ         -0.795236        -0.33787        0.961159
LJ           1.32346        0.846453        -2.11388
LJ          -2.31072         2.07066       -0.830955
LJ         0.0457784       -0.767632        0.389576
LJ          -2.09593       -0.770588         1.73897
LJ           1.10592       -0.475372       -0.717542
LJ          0.350124         1.36784         2.33423
LJ           1.56966        -1.26478        -1.79536
LJ          0.446077         2.05355        -1.00626
LJ          -1.12023        0.740756     -0.00204389
LJ           2.22112        0.378939        -1.65185
LJ          -1.82905         2.22778        0.199632
LJ          0.656546       -0.456967         2.10993
LJ          -1.37653        -1.18735         2.22931
LJ           -1.7985       -0.921806       -0.790569
LJ           1.71025       -0.549321         2.15114
LJ           2.02003         2.17174        -1.86138
LJ           -2.1921         1.72563         2.23694
LJ            2.1753        -1.67278        -1.22678
LJ           1.05457        -1.34628         2.10716
LJ           1.18909         0.63011       -0.939613
LJ          0.448728        0.964798          1.4652
LJ         -0.879547        -1.87121        -2.01995
LJ          -1.18867         1.63907       -0.554952
LJ          -1.81716        -2.14278        -1.66023
LJ           1.24829          1.9323        -2.36125
LJ            1.2757        -1.99691         1.09545
LJ          0.261849         2.03274      -0.0377674
LJ           1.27184         1.54716        -1.40403
LJ          -1.74144        -2.05345         1.88729
LJ          -1.83257        0.178234         1.23843
LJ          -1.50271        -1.45617       0.0839933
LJ         -0.677494         1.37492        -1.90647
LJ          0.747834       0.0507335       0.0782121
LJ          -2.24516        0.359908        0.365557
LJ          -1.57827         1.76845        -1.48045
LJ           1.84095        -1.25529         1.43717
LJ          -1.05692         1.98787         2.17033
LJ         -0.537945        -1.80064         1.72876
LJ         -0.897389       -0.706672      -0.0454699
LJ         -0.708936         2.23872        0.108405
