108
#Comment!
LJ           1.61522      0.00698844       -0.361505
LJ          -1.84722        -2.02183        -2.08509
LJ          -1.78748         0.49221         -1.1835
LJ           1.86315         2.07811       -0.726313
LJ          -1.26922       0.0518717        -2.06464
LJ           2.27677        -1.35525         2.26904
LJ          -1.09757         1.98638        -1.70563
LJ         -0.528602         1.54521         2.25995
LJ           1.92186        0.602655        -1.21025
LJ          0.736389        0.699325        -1.34873
LJ          0.468979        -1.64135        -1.55379
LJ         -0.239807        0.347934        -2.25804
LJ           2.27751        -1.81386       -0.925054
LJ          -1.25073         1.22284       -0.608648
LJ          -1.04524         0.60442         1.97909
LJ          -2.12953         1.20398        0.669274
LJ           1.46295       -0.698131        0.942434
LJ           -1.7253        0.408579         1.15603
LJ          -2.16376       -0.418023       -0.469163
LJ           1.53952        -1.34753        -1.84014
LJ           1.45238       -0.386217        -1.65853
LJ           1.92813         1.13635          1.4748
LJ           2.26686         2.06181         1.07664
LJ         0.0726289         2.22178        -1.76506
LJ           2.31618       -0.877279         1.39976
LJ          -1.16918         2.21587         2.03186
LJ         -0.277351          1.6309       -0.818095
LJ           1.06078         2.12407        0.920116
LJ          -2.35117        -1.01767        -1.50321
LJ         0.0502796         1.09774          1.6439
LJ          -2.11392       -0.290986        0.561435
LJ         -0.267191        -1.77923       -0.923132
LJ         -0.440092        -2.22656         1.16576
LJ          -2.08082        -1.72549        0.678138
LJ           1.05504         2.32231        -2.03627
LJ          0.513019       -0.569081        -1.27189
LJ         -0.702386         1.55033        0.161064
LJ         -0.120927         2.34269       -0.135417
LJ           1.98395        -2.24332         -1.7901
LJ          -1.03656         -2.3015       -0.410677
LJ           1.27165        -1.96381        -1.09961
LJ          -1.44381         0.35338        0.223688
LJ          0.900873         2.05196       -0.203439
LJ          0.949923        0.089967         1.48164
LJ           -1.5127       -0.965876         1.05385
LJ           1.10729        0.229067        0.513611
LJ           0.84456         1.01043         1.08916
LJ        -0.0212279          1.2657        -1.68405
LJ         -0.110757        0.668371        0.671005
LJ           1.74804       -0.405162         2.09801
LJ         -0.978841        0.166134       -0.606486
LJ          -2.23935         1.24971       -0.631643
LJ           1.31196         1.17283       -0.689381
LJ         0.0747258       -0.243829        0.565459
LJ           -1.8325       -0.290664         1.86754
LJ         -0.165238        0.198628        -1.30677
LJ           1.65061        -1.01329        -0.81699
LJ          -1.73453        -1.35534       -0.144393
LJ          -2.03456        0.615556         2.18467
LJ           2.02345        0.154568         1.25933
LJ           1.25478         1.61765         2.05265
LJ          0.697571         1.11805       0.0960516
LJ           1.62295         1.40418        0.477623
LJ           1.61819         -1.8518        0.916544
LJ          -1.46756       -0.679261        -1.23295
LJ           1.45156        -1.29363         1.70897
LJ           1.58059         1.45886        -1.76537
LJ          0.576138        -1.80758         0.80532
LJ           1.71308        0.637933        -2.23846
LJ          -2.00266         2.07179        -1.26243
LJ          0.110828        -1.37348        0.103423
LJ         0.0887269         1.71147        0.712658
LJ          -1.11237        -1.81712        0.535868
LJ          -1.32008         2.04904         1.02115
LJ          -1.51856        -1.10032        -2.18319
LJ         -0.255016        0.051066         1.54478
LJ          0.809557         1.89023        -1.19267
LJ          -2.34388      -0.0838757        -1.83842
LJ           2.25291         1.90538         2.15123
LJ        -0.0825839        -1.01715        -2.17195
LJ          -1.47951        -1.80592        -1.12013
LJ            2.0237        -2.33548        0.150266
LJ         -0.519235       -0.818318        -1.23536
LJ         -0.843713         1.14113         1.12192
LJ           1.31799        -1.71168       -0.100957
LJ          -1.83411         1.97169       -0.172193
LJ          -1.07715         1.03082        -1.70301
LJ         -0.772983        -1.86577        -1.84514
LJ         -0.965339        -0.68966         1.85077
LJ         -0.414906        -1.12946         1.05236
LJ           2.01726        -1.08408        0.180553
LJ           2.35676         0.49241       0.0603206
LJ           -1.6371        -1.68176         1.76992
LJ          0.796006       -0.693419         2.20124
LJ           1.38022        -2.25822          1.7789
LJ           0.56789       -0.941412         1.25946
LJ           0.30155         2.09551          2.0489
LJ         -0.216454        0.771642        -0.40092
LJ          0.695718        0.281292       -0.400935
LJ         -0.768108        -1.03985        -0.26489
LJ         -0.101722       -0.304618       -0.481848
LJ         -0.580712        -1.59196         1.92518
LJ          -2.06605         1.21416        -1.77096
LJ          0.782181        0.277262        -2.25881
LJ          0.516824        -1.65959         2.01733
LJ          -1.65773         1.43121         1.71968
LJ          -0.94488       -0.231878        0.784051
LJ          0.880684       -0.688973       0.0623197
