108
#Comment!
LJ          -2.23165       -0.355219        -0.46431
LJ         -0.964094        0.472711      -0.0243163
LJ         -0.671851        -2.11959        0.467729
LJ        -0.0506978        0.723826       -0.381039
LJ           1.75613        0.728641        0.797305
LJ          -1.53005        -1.02458        -1.54883
LJ           1.87849        -2.32865         0.39264
LJ          -1.15242       -0.537277       -0.436095
LJ          0.387536          2.3772       0.0757699
LJ         -0.348191        -1.21913       -0.378298
LJ          -1.64787        0.650875         2.36256
LJ        -0.0953556        0.610104        0.576286
LJ          -1.22815        -1.92332        -2.26449
LJ         -0.722953        0.210815         2.37783
LJ           2.03288        -1.57235        -1.81278
LJ          -2.05546         2.24604        -2.26113
LJ         -0.142618         -0.3681       0.0319652
LJ          -1.96557         1.51125         1.68426
LJ          -1.22919         2.26765       -0.487192
LJ          0.444015        -1.82654         1.92699
LJ           1.22852         2.26224        -1.43477
LJ          -1.55269        -1.80062         1.22016
LJ         -0.133613       -0.811833         1.79937
LJ           0.99841        -1.59032        -1.88404
LJ           2.28178       -0.138709        0.581355
LJ          -1.32135       -0.851846         1.60594
LJ          0.500658        -1.68108       -0.866924
LJ          -1.94284        0.798932       -0.685756
LJ          -1.85952        0.604015        0.396789
LJ          0.714007         1.47562        0.500209
LJ           1.23866        -1.03504         1.17156
LJ         -0.301874         1.66438        0.346618
LJ           1.87241        -2.05453       -0.823793
LJ          -1.30801        -1.52296       -0.649582
LJ          -1.51032         1.45734        -1.67648
LJ           2.28628        -2.28695         1.51895
LJ            0.8308        0.681863         1.11293
LJ          0.510024         1.59357       -0.531851
LJ          -1.32603        0.411971         1.37095
LJ         -0.628173       -0.413503        -1.34199
LJ           1.42647         1.96039       -0.373763
LJ          0.925217         0.51194         2.11889
LJ           1.88671        0.187675        -2.22836
LJ          0.859336        0.635355        -1.53667
LJ          -2.36035         1.83179       -0.575849
LJ         -0.610313        -1.68108         1.49985
LJ           2.30171        -0.67124        -1.58372
LJ           1.78557         1.57625         1.30672
LJ        -0.0563488         1.54607        -1.39239
LJ          -1.86771         2.21745        0.698391
LJ         -0.887625         2.13577        -1.57579
LJ           1.81889       -0.967022       -0.106504
LJ         -0.282581        -1.57776         -2.2624
LJ           0.28837      -0.0363175       -0.958891
LJ          0.440131       -0.323927         1.16087
LJ          0.212592      -0.0766367        -2.18929
LJ          0.796066       -0.809169         2.29188
LJ           1.28213      -0.0471215        0.405164
LJ           1.90226        -0.72869         2.22112
LJ          -1.86919       -0.329297         -2.3253
LJ           1.61091         2.26047        -2.33468
LJ          -2.24494        -1.28479       -0.815546
LJ          0.277674        -1.38842         1.08484
LJ           1.98852        0.640764       -0.161546
LJ           -1.1073         1.53153         1.00694
LJ          -2.32249        0.871256        -1.73993
LJ          -1.74132        -2.19446        -1.31868
LJ          0.108519         1.34591         1.31854
LJ           1.78201          1.2166         2.33912
LJ          -0.94937         1.22723          1.9572
LJ           2.30127        0.565031         1.66764
LJ          -1.24259         1.42187       0.0360796
LJ           2.25461         1.49567        0.308112
LJ           1.03429       -0.349625        -1.60157
LJ           1.49787         1.28602        -1.15656
LJ           2.16533        -1.15616        0.834068
LJ         -0.962603        -1.19136        0.675759
LJ        0.00460983         2.34773         1.09756
LJ           -1.8823         -1.1083         0.14309
LJ          0.905302         1.64661          1.8003
LJ           1.38364        -1.22917        -1.03456
LJ           2.22309         1.81876        -1.54615
LJ         -0.863495          1.1222        -1.01913
LJ          0.058064         1.05632         2.25165
LJ          -2.13688       -0.349014         1.51152
LJ          0.959953         -2.2449         1.08025
LJ           -1.5067        0.145463        -1.48293
LJ          0.263162       -0.921367         -1.5821
LJ         -0.230735         2.32329       -0.780386
LJ         -0.562337        -1.61156        -1.30144
LJ          0.903043         1.53829        -1.93982
LJ         -0.196129        0.534892        -1.52389
LJ           1.99259        0.164258        -1.19003
LJ          0.762066         -0.7913        0.105946
LJ           1.54439       -0.103583         1.50362
LJ          -1.34126         2.21473         1.76558
LJ         -0.938895       -0.807083        -2.24703
LJ          -1.99033        -2.12306       -0.114535
LJ          -1.41939       -0.322782        0.592009
LJ         -0.195449         2.08418         2.00005
LJ          -2.08735        -1.56214         2.15918
LJ           1.00187        0.782905       -0.338876
LJ           1.48935        -1.57565         1.96997
LJ         -0.142521        0.376166         1.59222
LJ           1.16796        -1.73707       -0.131321
LJ          0.328982        -2.36156        -1.83699
LJ         -0.582611       -0.336818         1.03938
LJ           1.30655       -0.295438        -0.59494
