108
#Comment!
LJ           1.77319        0.780778         2.15261
LJ          -1.55991        0.178036       -0.160629
LJ          -1.51137        -1.48967         2.23443
LJ         -0.799055        0.337232         1.52174
LJ           2.09788       -0.941087        -1.62557
LJ           1.10732         2.19836        0.124129
LJ           1.76635        -1.93589       -0.400757
LJ          -2.37706        -2.32777         1.63048
LJ          0.555729        -1.68523         1.62941
LJ          0.100293         1.63338        -2.02752
LJ        -0.0895996         2.27818        -1.03309
LJ          -1.76046        0.549604         0.95257
LJ           1.55572         -1.5167         1.08709
LJ            1.0826       0.0134357           1.748
LJ          0.856741        0.955894         1.74675
LJ          0.838678         0.40448        0.787123
LJ         -0.437142        -1.77189         1.25717
LJ            1.2964          1.5404        -2.25682
LJ         -0.512923         2.02465         1.41189
LJ           1.08735      -0.0665081        -1.67659
LJ         -0.581283        0.269718        -0.72904
LJ           1.78204         1.64813         1.47113
LJ          -1.83059         1.18422       0.0547829
LJ          -1.12356          2.0031        0.336456
LJ         -0.351097       -0.788376         1.91623
LJ          -1.11028         1.31409         1.14838
LJ          -1.90599        -2.21704        0.120538
LJ          -1.18774        -2.34783       -0.697372
LJ         -0.747526        -1.46311       -0.757086
LJ           1.54825       -0.990535        0.168612
LJ          0.079011       0.0722511         1.97688
LJ          -2.14633       0.0460313         1.82829
LJ         -0.817383        0.654287        0.477984
LJ         -0.915003         1.05676         2.20093
LJ           1.02837         1.47444         0.78686
LJ          0.085638        -1.60646        -2.17165
LJ         -0.146872        -1.20822        0.530527
LJ            -1.826         1.51848        -1.64886
LJ         -0.553939       -0.673959       -0.218178
LJ         -0.856467      -0.0522126        -2.10754
LJ          0.529743         1.89882         1.84365
LJ          0.769727        -1.66165        0.379963
LJ           2.20639        0.908985       -0.603622
LJ           1.79789       -0.499691         1.19624
LJ           1.92909       -0.141729        -2.18975
LJ          -2.08123        -1.38073        0.769824
LJ           1.63158         1.68605        -0.49437
LJ         0.0215499        -1.30058        -1.24242
LJ           1.87028         1.16577        0.323172
LJ          -1.34602       -0.730286         1.63421
LJ           1.93643        0.195351       0.0803843
LJ         0.0918653        0.602058       0.0653297
LJ           1.06513        0.826356       -0.103101
LJ          -1.40985         1.92117         2.09888
LJ          0.847024       -0.823867         1.07502
LJ          0.730598        -2.00481       -0.743344
LJ           1.30466      -0.0929127       -0.712056
LJ          0.954761        -1.22905        -1.81886
LJ        -0.0224262        0.879083         1.23637
LJ         -0.261761       -0.108825        0.737685
LJ           0.64656        -0.77855         2.06584
LJ          0.288719       -0.109719       -0.945015
LJ         -0.791628        -1.98093         -1.6127
LJ           1.39961        -2.13531         2.03254
LJ           1.90577        0.577026         1.12301
LJ          -1.17329       -0.834358        0.631737
LJ         -0.741165        -1.09318        -1.92283
LJ          -2.16861       -0.300989        0.662814
LJ          0.340493        0.875223       -0.968239
LJ           1.97896        -2.29819        0.581675
LJ           -1.4461        -2.02263         1.41438
LJ          0.827852        -2.25353        -1.83637
LJ          0.500098        0.677772         -2.1222
LJ          -2.25091      -0.0994375        -1.15843
LJ          0.827449         1.67254        -1.29884
LJ       -0.00740447        -2.14387       -0.123175
LJ       -0.00394433       -0.432806        -1.88774
LJ          -1.88847        0.980861         1.85132
LJ          -2.18941         1.70007        0.843786
LJ          0.382036        -1.12085       -0.334917
LJ          -1.74172        0.463504        -1.96235
LJ          -1.18008       -0.448003       -0.984877
LJ          -1.79225       -0.497634        -2.01868
LJ          -1.60475        -1.23581        -1.35195
LJ           2.35844         1.82907        -2.37911
LJ           2.28223        -1.69098        -2.27334
LJ         -0.844354         1.79974        -1.75873
LJ           2.19187         0.71964        -1.62154
LJ          -0.31413         1.45083        0.478574
LJ           1.60903        -1.09806          2.0823
LJ          -2.13975        -1.94908        -0.83003
LJ            1.2693        -1.13405       -0.761113
LJ          -1.55856         0.74851        -1.03188
LJ          -1.64341         -1.0854       -0.219713
LJ          0.284445         1.66055       -0.264156
LJ           1.32478        0.787648        -1.16509
LJ           1.94542         1.93511        -1.42854
LJ         -0.668213        0.807701        -1.50191
LJ          -2.24706       -0.992792         1.69193
LJ          -1.75167        -2.22675        -1.73737
LJ         -0.877333         1.27467       -0.554057
LJ          -1.97138         1.82908       -0.733387
LJ           1.70838        -1.86432        -1.53213
LJ          0.757787       -0.343522        0.149259
LJ         -0.643299        -2.03266         2.16956
LJ          0.277188        -2.36482        0.861563
LJ           2.22124        -0.91178       -0.569796
LJ         -0.877414        -1.79397        0.226096
