108
#Comment!
LJ         -0.640984        -1.94107        0.726507
LJ        -0.0877095       -0.406515        0.536534
LJ          0.330195         1.44029        0.727845
LJ         -0.161832         1.60274        -2.05779
LJ           1.04811        -1.60645         1.03781
LJ           2.27508        -2.10641       -0.315519
LJ          -1.19667         2.10979          1.3132
LJ           -1.0656        -1.37595        -1.65643
LJ          0.681854        0.444291        0.498575
LJ           -2.1052          0.6801         0.44838
LJ           2.22916       -0.059298        -2.35179
LJ          -2.30096        0.589013        -0.53206
LJ          0.240378        -1.15599         1.62218
LJ          -2.05919       -0.259187        0.815137
LJ         -0.982845        -2.24478       -0.177646
LJ          -2.00363        -2.11915         1.64951
LJ          0.480121         1.15912       -0.167693
LJ            2.3481         1.66082         1.49425
LJ           2.03528       -0.957898         2.03023
LJ          0.217121        -2.29401        0.997206
LJ           1.84241        -2.04388         1.97148
LJ          -1.54603       -0.583971         1.93768
LJ          -1.52447        -2.12952        -2.16424
LJ          -2.17785        -2.06276        -1.26547
LJ         0.0391107         2.20351       0.0107076
LJ          0.773425         2.07237       -0.816077
LJ           1.59054         1.94524        -1.49541
LJ         -0.567473       -0.708189         2.35318
LJ         -0.709068        0.397495        -2.11456
LJ           -2.2202       -0.092381        -1.25774
LJ           1.61951        -1.44535       0.0018197
LJ           0.43712          1.5994         1.85766
LJ          -1.29302          2.1153        -1.27597
LJ          -0.37288        -1.60327       -0.827633
LJ          -1.12115        0.854023        0.202358
LJ          -1.23779         -1.5403         1.64593
LJ          0.673594       -0.236494        -1.43657
LJ           1.47746        -2.02597       -0.862216
LJ           1.13403          2.0571         1.08453
LJ           1.12211        -1.27871          2.2851
LJ          -1.26617        -1.10504        0.451994
LJ         -0.401838        -2.15955         1.78951
LJ            1.2641        0.220751        -2.16614
LJ         -0.174559        0.330263        -1.07551
LJ          -1.78268         -2.0118        0.371455
LJ         -0.620113       -0.833128         1.26336
LJ          -1.38441        -1.38409       -0.532599
LJ          0.797446        0.427244         1.58574
LJ          -1.26676        0.326995       -0.760512
LJ         -0.155555      -0.0575888         1.64561
LJ          -1.33488         1.05352         1.14075
LJ           1.88368       -0.788786        0.761345
LJ          0.177212         -1.4254        -2.20218
LJ          0.349253         1.20636        -1.23016
LJ          0.727892        0.216785        -0.41283
LJ          0.603448        -1.66062       -0.484642
LJ         -0.116566       -0.752556        -1.36665
LJ          0.110691       -0.633545       -0.431755
LJ          -1.36557       -0.573983        -1.09594
LJ          -1.50968       -0.125629        -1.95178
LJ         -0.949884       0.0181041        0.830276
LJ          -1.50112         1.42275       -0.533391
LJ          -2.35516         1.74106       -0.745517
LJ           1.47081         1.31181       -0.668502
LJ         -0.581124         1.18861         1.82375
LJ          -2.12328        0.456379         1.48826
LJ          -2.17801        -1.15757       0.0918112
LJ           1.20014       -0.602218         1.49241
LJ           1.77351        0.175596         1.04377
LJ         -0.818532        -0.44152       -0.172265
LJ           2.12821        -1.86762        0.870709
LJ         -0.262846         0.47292      -0.0152728
LJ           1.13407          2.2265        0.101466
LJ           1.81053        0.750135         1.98919
LJ           1.94623         1.01113        -1.61232
LJ           -2.0519        -1.14132         1.23386
LJ           1.04651         1.18614        -1.97653
LJ          -1.23057          1.6304        -2.33728
LJ           1.10221       -0.651516       -0.613823
LJ           1.56262         1.15034         1.06802
LJ          -2.06896         1.78886        -1.86413
LJ         -0.879136         1.29451        -1.52371
LJ          -1.60948          1.7487        0.488685
LJ          0.516125       -0.383384         2.35181
LJ         -0.315983         2.14776        -1.09305
LJ          -0.58257         1.64728        0.564636
LJ          -1.77863         0.93999        -1.36651
LJ           0.82679        -1.23331        -1.39851
LJ          0.804467        -2.15749         1.84143
LJ          0.825028        -2.24459        -1.80713
LJ          -0.47398        -2.14404        -1.94171
LJ           1.52162        0.154018        -1.08119
LJ           1.91908       -0.169861      -0.0300389
LJ          -1.09074        0.288194         1.73816
LJ           2.07239         1.78353        0.172259
LJ          -1.85694       -0.309272       -0.256642
LJ          0.883058        -0.66925        0.515714
LJ         -0.494184         1.40791       -0.457841
LJ          -2.08032        -1.01325        -1.87987
LJ          -1.77228        0.772303        -2.33952
LJ           1.55429       -0.624193        -1.77283
LJ           1.56849        0.732117        0.112435
LJ          0.206363        0.570002         2.36513
LJ         -0.240334          0.6938        0.979219
LJ           1.76463        -1.63294        -1.81077
LJ           1.48845         1.80672         2.16293
LJ          0.115672        -1.29489         0.47817
LJ           2.20308       -0.942131       -0.771965
