108
#Comment!
LJ           1.85626        -1.46144         -1.4202
LJ           2.20524        0.622374        -1.92002
LJ         -0.473187        0.647657       -0.738654
LJ          0.957324        -2.02007       0.0836941
LJ           2.08657       -0.485297         -1.7148
LJ           1.30645       -0.730597        -2.29437
LJ          0.229215         1.63317          1.3566
LJ          0.153234         1.53891         2.30811
LJ           0.22336        -1.67313       -0.528845
LJ         -0.267963       -0.228996         1.40728
LJ            1.6465         2.17514        -1.10745
LJ          -1.21117         2.07866        0.530115
LJ           1.71288         1.75772      -0.0052715
LJ          -2.07286       -0.483508        -0.77501
LJ          0.755475         2.17349         -1.9086
LJ            -1.659        -1.00499         2.07926
LJ        -0.0806495        0.807843        0.797566
LJ          0.606236         2.08397       -0.953667
LJ          0.557357         0.79984       -0.148547
LJ           -1.7679        0.645982        -1.18067
LJ          -1.63209        0.875991        -2.31524
LJ          -1.20873        -1.57124      -0.0681942
LJ         -0.338623         0.73673         2.28451
LJ         -0.832521        -1.35045        -2.04473
LJ          -2.06874         2.33598         1.93576
LJ           1.56917        -1.27012        0.520871
LJ           1.23121         2.02435        0.910546
LJ         -0.371044       -0.904404       -0.321851
LJ           1.18955         1.40622         1.90989
LJ           1.39004        -1.47821         1.58751
LJ           1.77948        -1.00274       -0.503782
LJ          0.771821         -2.2541          1.7535
LJ           -1.1094         1.52069         1.72679
LJ           -1.1704        -2.07555         2.03657
LJ         -0.442607       0.0589579        0.361185
LJ         -0.864446         1.14351        -1.80547
LJ           2.15557        -1.32779         2.29634
LJ          -1.09821       -0.665638        0.281037
LJ          -2.34375         1.44278       -0.693046
LJ          0.131792       -0.889902        -1.93251
LJ          0.137907      -0.0722704       -0.420612
LJ         -0.496457         1.98796        -1.29073
LJ          -2.20796        0.146153         1.27901
LJ          -0.72028        -1.70073        -1.03662
LJ          -2.28677        -1.41057       0.0287702
LJ          -0.32647         1.50941       -0.359222
LJ             1.696         2.26224          1.7737
LJ           1.90129        -2.23036        -2.08463
LJ           2.31787         1.26639          2.0664
LJ          -2.28162        0.170223       0.0345717
LJ           1.07692      0.00900211       -0.623713
LJ          0.615499        0.700525        -2.11719
LJ          0.741397       -0.781217       0.0875292
LJ           1.33685        0.137124        -1.67302
LJ           2.28844         1.62463        -1.70895
LJ          0.492844        -1.67293        0.851265
LJ           1.97403        -2.25301         0.65268
LJ        -0.0906426       -0.877589        0.624506
LJ           1.55467       -0.298068        0.325366
LJ         -0.947015         2.25672       -0.432396
LJ           1.04579        -0.56605         1.18407
LJ          0.343251      -0.0392196        -1.43744
LJ          0.885264       -0.859813        -1.15417
LJ          0.711962        0.569142          1.6526
LJ           1.49204        0.770848     -0.00861364
LJ           -1.4751         0.24327        0.633168
LJ          -2.15053       -0.640945        0.651085
LJ          -1.10273        0.291165         1.80507
LJ          -1.33503         1.13275       -0.266664
LJ          -1.45044         1.86077        -2.18071
LJ          -2.34803         -1.4828         1.13011
LJ           -2.0482       -0.162783         2.19696
LJ           0.52687       0.0711448         0.49232
LJ          -1.42909         1.65235        -1.14646
LJ          -1.19973        -0.58083         1.28752
LJ           1.86008        -1.98882          -0.339
LJ          0.362339         2.00604        0.289899
LJ          0.850147          1.1031        0.747946
LJ           2.00009       -0.654187         1.47227
LJ          -1.86925        -1.87123        -2.00258
LJ          0.498707        -1.15139         1.78559
LJ           1.70951        0.690011         1.02721
LJ          -1.12284      -0.0271471       -0.601734
LJ           1.78893         0.32811         1.96609
LJ           0.40935       -0.135753         2.21599
LJ          -1.92818        -2.34113       -0.190271
LJ           -1.1551        -1.71148        0.881509
LJ           -1.7359        -1.34115        -1.14127
LJ         -0.424527        -2.11327        0.277808
LJ          0.229496         1.25118        -1.33418
LJ           0.93148        -1.62666        -2.11403
LJ           2.03508        0.308479        -0.89627
LJ           1.05226        -1.80544       -0.922321
LJ          -1.86481         1.07924         1.27749
LJ         -0.460051         2.34042         1.18503
LJ         0.0806523        -1.86773        -1.53291
LJ           1.13161         1.02246       -0.963417
LJ          -1.02134         1.11338        0.822593
LJ         -0.666923       -0.747041        -1.28617
LJ         -0.623753        -1.33354          1.6562
LJ           -2.1167        -2.36099         -1.1709
LJ           2.09853         1.59764         1.08776
LJ         -0.559166        0.193906        -1.66428
LJ           1.40949         1.24119        -1.98303
LJ        -0.0836797        -2.19091         2.29132
LJ          -1.52526       -0.458773        -1.77941
LJ          -2.02233         1.45365        0.321455
LJ         -0.608971       -0.472396          2.2964
