108
#Comment!
LJ           2.12767         1.30615        -0.52542
LJ         -0.637844       -0.252305        -1.07372
LJ          0.479943        0.730651         2.12418
LJ          -1.24586        -1.57419        0.971329
LJ         -0.151353       -0.145158        -2.03642
LJ          -1.70901         1.49152        -1.23114
LJ           1.55527         1.30964         1.11516
LJ           0.81191         0.02522         1.30575
LJ         0.0525043        -1.95536         1.70016
LJ         -0.106716      -0.0825646         1.77114
LJ          0.848078        -1.65492        -1.33266
LJ          -2.20337       -0.862931        -1.19946
LJ           1.43476        -1.46166        0.583205
LJ          0.713755       -0.446203        -1.50715
LJ          0.665629         1.92202        0.839663
LJ         -0.170685        -0.83955         1.17174
LJ          -1.72402        -0.96359       -0.120527
LJ          0.998557        -1.76843       -0.418505
LJ         -0.950172       -0.590874          1.8228
LJ          -1.27344        -1.85234       -0.130398
LJ         -0.134876       -0.909191        -0.54717
LJ           1.84345        0.666908        0.172267
LJ         -0.679655        -2.36992        0.956339
LJ          -1.82006        0.724923       -0.381417
LJ           -1.0446         1.02677         1.39981
LJ         0.0683227       0.0737244        0.703375
LJ           2.18504        -1.96555         1.63399
LJ          -1.06218        0.323578        -1.77813
LJ           2.06067        -1.21726       -0.230554
LJ           1.12587      -0.0666303       0.0412983
LJ          -1.46997         1.61238         2.08612
LJ          0.267178         1.35338        -1.87037
LJ         -0.181986        -1.90678        0.147973
LJ          -1.58091         2.28751         1.39486
LJ           1.70805        -1.06285         1.70674
LJ         -0.450223         1.91248         1.98476
LJ          -1.82191       -0.553318        -2.04805
LJ          -2.26246         1.09278         1.71753
LJ         -0.955617        0.849513        0.406965
LJ         -0.372207        0.727796        -1.20287
LJ          -0.54685        0.960966         2.36055
LJ         -0.108705        -1.01726          2.1749
LJ          -1.93695         1.97896       -0.365012
LJ          -1.92577       -0.404862        0.792806
LJ           1.72049        0.308748         1.10941
LJ         -0.638892        -1.93749        -1.53697
LJ           1.42245         1.53135       0.0469786
LJ          -1.23217        -1.32661        -1.01059
LJ          -2.32975        0.278317         -1.2332
LJ           1.27783       -0.702456       -0.731894
LJ          0.692908        0.572216        -1.41259
LJ         -0.231951           1.592         0.41966
LJ          0.542508        -1.85219        0.842476
LJ          -2.28359         1.67071        0.725968
LJ           0.63154         1.00028        0.503824
LJ           -1.2555        0.286606         2.07774
LJ         -0.975682      -0.0451778       0.0138139
LJ        -0.0376986        -1.23388        -1.56982
LJ            1.4858        0.953554         2.02605
LJ           1.61853         2.23512        0.888466
LJ          0.167543         2.34338        -1.87955
LJ           1.64564      -0.0491524        -1.70154
LJ         0.0586524        -1.97521        -0.80628
LJ           1.02472        -2.17136          1.7951
LJ        -0.0435426         1.60409       -0.928875
LJ          -2.27832        -1.33765        0.923448
LJ         -0.263173        0.607252       -0.262701
LJ         -0.960713       0.0205961         1.00174
LJ           1.60762         1.10447        -1.46142
LJ           1.83712         -2.3269       -0.284293
LJ          0.680423       -0.961862         0.20255
LJ          -2.01134        -0.33335         1.81487
LJ          0.382686      -0.0559037       -0.631684
LJ          0.657587         1.66949         1.83943
LJ           1.97014       -0.931974        -2.05854
LJ           1.13281         1.95773       -0.921369
LJ          -1.01738         1.17333       -0.567341
LJ          -2.19706        0.417565        -2.23126
LJ          -2.12519        -2.09693        0.375152
LJ          0.717003       -0.229766         2.30438
LJ          -1.83783        -1.34566         2.09222
LJ          -1.51091       -0.264262       -0.797054
LJ           1.78535       -0.116166         1.97128
LJ           1.73042        -1.88811        -2.11836
LJ           2.30627         1.52368        -2.04287
LJ           1.75147        -1.43916        -1.21545
LJ          0.879071        -1.29482        -2.32129
LJ           1.48987        0.383177       -0.755098
LJ        -0.0212243        0.907624          1.2759
LJ         -0.982634        -1.12918        -2.04056
LJ         -0.760135         2.12904       -0.458492
LJ          -1.99751        -1.63429        -1.71761
LJ           1.08441          1.8816        -2.01801
LJ          0.706992       -0.885204         1.53165
LJ          0.514946          2.1055       -0.134227
LJ           2.07884         2.16189        -1.28014
LJ           1.82838         1.92006         1.88891
LJ          -1.96067        0.730816        0.881093
LJ          -2.19664        -1.78268       -0.778113
LJ          -0.80392         1.68773        -1.59217
LJ          0.648785         1.02516       -0.533505
LJ           2.33454        -0.20752       -0.256062
LJ          -1.48252        -2.32125        -1.21543
LJ           1.82392       -0.559386         0.55326
LJ          -2.07596         2.36747        -2.34224
LJ         -0.916469        -1.90562          2.1005
LJ         -0.705412       -0.970371        0.253124
LJ          -1.35459         1.86703        0.459178
