108
#Comment!
LJ          -2.23601         -1.8309        -1.09354
LJ           2.19591         0.31417        -1.70692
LJ         -0.384578        0.765915       -0.817813
LJ          0.286307         2.37347        0.413472
LJ          -2.10063        -0.86832        -0.62233
LJ           1.26388       -0.307776        -1.47489
LJ          0.695623         1.09675          1.6224
LJ          0.537052         2.09593        -1.55985
LJ          0.347557        -2.05459       -0.544815
LJ          0.149649        -0.52935         1.50049
LJ           1.69379         1.59662        -1.33047
LJ          -1.80651        -1.53232          1.2454
LJ           2.14096         2.25263       -0.444096
LJ          -2.08032       -0.172445        0.259142
LJ           1.96059        -2.35966         -1.8246
LJ          -1.25053        -1.34502        -1.52392
LJ         -0.285243        0.651405         1.29974
LJ         0.0329543         1.55769       -0.109814
LJ           2.18923         1.64052        0.411912
LJ          -1.60182        0.702297       -0.309749
LJ          -1.56135         1.10784        -2.33843
LJ          -1.27348        -1.46669       -0.469062
LJ         -0.360739         0.82576          2.3337
LJ         -0.465598        -1.16419         -2.0802
LJ           2.26814        -1.97703         1.85954
LJ           2.01137        -1.10103         1.42412
LJ          0.780363         2.08954         1.17395
LJ         -0.168785        -1.07977       -0.185893
LJ           2.18767         1.47645        -2.15943
LJ           1.19091       -0.505448         1.98317
LJ           1.54744      -0.0998648        0.401019
LJ          0.809154        -2.32713         2.15109
LJ         0.0406444          1.8446         2.09921
LJ         -0.973498         -2.1925         2.03932
LJ        -0.0785371        0.616762        0.336701
LJ         -0.253314         1.43961        -1.59097
LJ          -1.99743        -1.82112        -2.05529
LJ         -0.439406       -0.300705        0.554175
LJ          -1.77262        0.836143        -1.41201
LJ          0.558515       -0.771661       -0.866034
LJ         -0.159851       -0.148788       -0.388842
LJ          -1.07452         1.95757        -1.91618
LJ          -2.36881        0.653907         2.07541
LJ         -0.434938        -1.62372        -1.08481
LJ           2.00823        -1.15967        0.455124
LJ         -0.383014         2.16494       -0.968713
LJ           1.25035        -1.78374         1.31323
LJ           1.51811        -1.42678          2.3451
LJ          -1.75305         1.92735         1.99026
LJ           2.18931        0.330773       -0.478948
LJ           1.59826        0.943594       0.0922607
LJ          0.963874         1.12919        -1.96978
LJ          0.606706        -0.37793        0.235945
LJ           1.49378       -0.531252       -0.559412
LJ          -2.07439         1.83784        -1.37149
LJ         -0.372651        -2.24021         1.20409
LJ            1.5576        -2.08448        0.375433
LJ           1.09386       -0.868968          0.8978
LJ           1.87023       0.0378091         1.31734
LJ         -0.675876        -2.35806      -0.0238248
LJ          0.852447        0.168288         1.11181
LJ          0.698807        0.468312       -0.401634
LJ          0.751438        -1.44715       0.0225851
LJ          0.476184         0.21049         2.12984
LJ           2.26951         1.30638         -0.5132
LJ          -1.13038        0.485513        0.563558
LJ          -1.96335       -0.524239         1.25749
LJ          -1.37009        0.689033         1.50497
LJ          -0.95349         1.44815       0.0610097
LJ         -0.846732         1.52337          1.7401
LJ          -1.56032        -1.07076         2.21693
LJ          -1.56404      -0.0857701        -2.25967
LJ          0.735668         1.12278        0.497039
LJ          -1.16397          1.5228        -0.94461
LJ          -1.00715       -0.289177         1.48861
LJ           1.74307         -1.5263       -0.528317
LJ          -0.32907         1.57196        0.815799
LJ           1.69458         1.12184         1.29948
LJ            2.1142       -0.279755         2.24868
LJ          -1.33265        -2.27825        -1.13134
LJ          0.467583        -1.34129         2.12586
LJ          -2.31819         0.67412        0.638138
LJ          -1.13351       -0.245317       -0.426918
LJ           1.46068        0.372461         2.21839
LJ          0.481105       -0.551944        -1.95205
LJ          -2.16028        -1.72897      -0.0590666
LJ          -1.37138       -0.817371        0.369635
LJ          -2.27503       -0.908912        -1.83077
LJ          0.335717        -1.53441         1.00815
LJ          0.606574         1.31646       -0.947159
LJ           1.51257        -1.36643        -1.46097
LJ          -1.87167       -0.140762        -1.23277
LJ            1.3039        -2.29134        -1.03756
LJ          -1.99708         1.42984         1.18287
LJ         -0.795103        -1.51575        0.621051
LJ          0.476258        -1.57272        -1.51598
LJ           1.12677         1.74656       -0.147963
LJ          -1.26751         2.14817        0.857039
LJ         -0.309141       -0.492987         -1.3705
LJ         -0.477978        -1.31011         1.55915
LJ           -1.7104         1.96142       -0.215736
LJ            1.7541         2.08615         1.40577
LJ          0.314475         0.34591        -1.54738
LJ           1.45138        0.639418        -1.12697
LJ         -0.171038        -2.12917        -2.04659
LJ         -0.872425        0.543305        -1.65711
LJ          -2.26889        -2.26704        0.846815
LJ         -0.522598       -0.194447         2.28096
