108
#Comment!
LJ           1.70631         2.08423       -0.508796
LJ          -1.31158          1.2534        -1.42823
LJ         -0.447237       -0.735532        -2.29161
LJ           -1.4765         0.44859         1.47514
LJ          0.854143        -0.29419         1.38587
LJ          0.343844        -1.64092       -0.543565
LJ          -1.96388        -1.70432        0.205061
LJ           2.27174         2.24513          2.0125
LJ         -0.643206         1.13936         1.46478
LJ           1.79591          1.2399         2.19682
LJ          -1.68664          1.6557         1.77519
LJ          -1.91717       0.0449833       -0.900658
LJ            1.8322        -1.04644        0.220243
LJ         -0.304494         2.03918        0.683885
LJ          -1.16632         2.26606         1.17226
LJ          0.435786         1.02552    -0.000362869
LJ          0.372736      -0.0991374         2.22025
LJ           1.75519        -1.62885         2.10404
LJ         -0.118988        -1.99399         1.31129
LJ           1.05942         1.40934       -0.675845
LJ          -1.26321        0.159216        0.474643
LJ          0.994633        -1.20152        0.641799
LJ          -1.48437        0.810701       -0.268286
LJ           1.20825         1.62081        0.396393
LJ         -0.127066       -0.523584        0.538401
LJ           2.30663         1.72091        0.971948
LJ           1.79484         -1.3379        -1.72451
LJ          0.233854        0.908109         2.03742
LJ         -0.888732       -0.562152         1.24317
LJ           1.13406       -0.414319       -0.310302
LJ         -0.712557         0.56764        -1.02742
LJ          -2.10865         1.50465         -1.9825
LJ         -0.158214        0.505656        0.895105
LJ          -1.68594        0.249357        -1.97524
LJ          0.455627         2.19463      -0.0441602
LJ          0.110739        -1.77563         0.38441
LJ         -0.302395       -0.571613        -1.30821
LJ         -0.810363        -1.48801        -1.11139
LJ          0.167225       -0.589523       -0.463216
LJ          -1.31535       -0.750324        -1.67562
LJ          -2.13157        -2.09711         1.09644
LJ           1.94978       -0.770973       -0.876627
LJ            1.7427         1.42116        -1.45795
LJ           1.27548        0.878595         1.04898
LJ          0.936636        -1.04085          2.0784
LJ           1.39773         1.85138         1.46218
LJ         -0.759323         2.03515         2.07306
LJ         -0.605956        0.285292        -1.94098
LJ          0.635721         2.03334        -1.44554
LJ         -0.845132         -1.4117         1.71335
LJ           1.41259         0.60212       -0.152916
LJ         -0.265657        0.313029       -0.210639
LJ         -0.244495        -2.36077         -1.7587
LJ          -2.21671         1.53185      0.00935613
LJ           -1.7182        -1.23776         1.19109
LJ           1.29412        -1.77581       -0.961311
LJ          -2.37904       -0.271797      -0.0675713
LJ           1.60825        -0.21149        0.643713
LJ           0.21815        -1.06635         1.38289
LJ          -0.79229        -1.41477         0.76092
LJ         -0.561977        0.168338         1.84384
LJ          0.359504        0.565347       -0.964021
LJ         -0.494173        -2.24661       -0.441714
LJ          0.438061         1.49418         1.27646
LJ          -1.57559       -0.794098        0.203578
LJ           2.24483        -1.78432       -0.583626
LJ          -1.53808        -1.97491       -0.683556
LJ           2.27114        0.623397         0.54406
LJ          -1.00533       -0.290312       -0.532435
LJ           1.22299        -1.96259       0.0289038
LJ          -1.53775          1.1465        0.741256
LJ          0.168324        -1.45489        -1.48326
LJ          0.704274        0.106706        0.419777
LJ           1.33672       -0.252001        -2.06686
LJ           -1.1256        0.992551         2.32526
LJ         -0.672478         1.11628        0.251995
LJ          0.878073       -0.709578        -1.26942
LJ           1.35368         2.05452        -2.27866
LJ          0.788931        -2.33232        0.848226
LJ           1.85038       -0.943138         1.26957
LJ          -2.19909       -0.354294        0.920358
LJ         -0.637058        -1.22544       -0.224448
LJ          -2.37713       -0.200537         1.94191
LJ          -2.17709         1.04068        -1.08885
LJ         -0.942092        -1.66507        -2.11209
LJ          -1.43058       -0.353849         1.98195
LJ          -1.11766         1.80714       -0.644585
LJ          0.268657         2.00472         2.17585
LJ          -1.51966         2.15285        0.235894
LJ        -0.0166574        -1.67072         2.20114
LJ           1.89334        -2.34751        -1.51025
LJ          0.969345        -1.83085        -1.92307
LJ           1.49164        0.089605        -1.08199
LJ           -1.7572       -0.981962       -0.792195
LJ          -1.21355         2.27302        -1.56374
LJ           1.26506        0.411953         1.94689
LJ          -2.36657        0.868377         1.51773
LJ           1.03373        0.758975        -1.94716
LJ          -1.84047        -1.20395         2.29698
LJ          -2.36025       -0.522668        -1.89995
LJ          -2.02602        -1.98518        -1.87104
LJ          -2.04875         2.01532        -1.05028
LJ           2.00358        0.506528        -1.92402
LJ        -0.0752449          1.3596        -1.84449
LJ          -1.57169        -2.12661         2.00207
LJ         -0.091559         1.62168       -0.879012
LJ           1.61518        -1.86567        0.952915
LJ          0.867158        -1.94046         1.79347
