108
#Comment!
LJ          0.622393         -1.5025         1.72064
LJ           1.74191      -0.0577201         1.57986
LJ           1.07327        0.624914         1.13416
LJ          0.932557         1.12303       -0.450659
LJ          -1.40274       -0.807348         2.06531
LJ          -0.70056        -1.82805        0.770247
LJ           1.23041         2.16807        -1.90866
LJ          -1.51665         1.64569        -1.68247
LJ          -1.54405         2.34685         1.55316
LJ          0.298746       -0.440734       -0.698552
LJ        -0.0296886        -1.73547        -2.29658
LJ          -1.27233         -2.3329        -2.19185
LJ          0.946194        -1.47657       -0.673888
LJ           1.75423        0.128514       -0.322916
LJ         -0.762945       -0.915998        0.141494
LJ         -0.512607        -2.30348         1.78767
LJ          -1.09342         1.39201         1.85659
LJ           2.34814       -0.435523        0.199751
LJ          -2.20261        -1.46203       -0.694074
LJ         -0.416749        0.600355           1.887
LJ          -1.02706        0.429878         1.08233
LJ          -0.11424          2.2886         0.10972
LJ           1.81328         1.03539         1.73322
LJ            1.5525         1.07548        0.399231
LJ          0.885942        -1.11691        -1.80487
LJ         -0.484532         1.81251        0.952165
LJ          -1.65961          2.2721        0.527085
LJ           1.14538        -1.02398         1.01053
LJ          -1.82387          -1.462        0.264892
LJ           1.16692       -0.678789       -0.123826
LJ          -1.44362       -0.876602         1.04567
LJ         -0.476407        0.131655        0.321115
LJ          0.653813        0.196332        0.220133
LJ        -0.0294311        -1.12109         -1.3684
LJ             1.527       -0.144434        0.615715
LJ           2.10285         2.22494         0.27678
LJ          0.375292        -2.37092        0.976104
LJ         -0.102598         1.51863         2.12953
LJ          0.517116      -0.0650926         -1.8538
LJ          0.807431         1.28192        -2.28832
LJ              1.85       -0.432889        -1.93305
LJ         -0.527238        -2.15578        -1.24336
LJ          -2.29979          1.7914         2.11456
LJ           1.07138         2.07868        0.330466
LJ         -0.660969         1.05877        -2.02422
LJ           1.30248       -0.778559         2.05788
LJ           1.13645      -0.0932595        -1.07946
LJ          -2.33977        0.099553        -1.33347
LJ          -1.97597        0.916298         1.81923
LJ          0.210111       -0.825962        0.206961
LJ           1.88719         1.65008       -0.542132
LJ           1.66856        0.739519        -1.13429
LJ           1.72776       -0.926358       -0.969945
LJ        -0.0230854         1.86829        -1.70028
LJ          -1.88967         -2.3777       -0.463929
LJ         -0.929909        -1.22636       -0.937185
LJ         -0.933551         1.20107       -0.136068
LJ          -0.49755       0.0705332        -1.91513
LJ          -2.14228         1.12307       -0.978531
LJ          -2.03167       -0.158737         1.38745
LJ         -0.606807       -0.310052         1.61646
LJ          -1.30195       -0.460675        -1.44218
LJ          0.553082        0.481514         2.02469
LJ           2.26926         1.48456          1.0069
LJ          0.521656       -0.234779         1.15866
LJ           1.76868        -2.10537       -0.610631
LJ          0.131653       -0.697943         2.15568
LJ          0.829192        -1.67158        0.316988
LJ          0.448115         2.31307         1.95467
LJ           2.20028         2.10819        -1.40487
LJ           2.25636        0.510088         -2.2317
LJ           2.21543       -0.986303         1.08983
LJ         -0.957523        -1.99018       -0.183348
LJ          -1.66259       -0.702315       -0.421982
LJ          -1.31841         0.19165         2.08123
LJ            1.5502         -1.7422         1.89845
LJ          -1.56054        0.622258        -1.83881
LJ         -0.843969        0.975109        -1.05703
LJ          -2.07384         1.09615       0.0272958
LJ         -0.677825        -1.39198         1.83321
LJ          0.475154         -1.9766        -1.36413
LJ            1.6351        -1.97835        0.969201
LJ          0.232057        0.842966        -1.61275
LJ          -1.07133         1.93698       -0.833998
LJ          -2.21145        -1.88744         1.13353
LJ           1.30358        0.470226        -2.04846
LJ          0.984723         2.14648       -0.826058
LJ         0.0343623         0.80743         1.02196
LJ           2.18589        0.528166        0.921228
LJ        -0.0321038         -1.5044       -0.480233
LJ         -0.239609       -0.996465        0.987962
LJ          -2.14104        -1.87086         2.26243
LJ          -1.65616        0.318951        -0.60963
LJ           1.80747         1.41455        -1.96457
LJ          0.779847         1.48813         1.49249
LJ         -0.965038        -1.31667        -1.94002
LJ           1.58662         2.08086         1.67848
LJ        -0.0409455         1.57516       -0.564772
LJ            2.3433       -0.907299         2.06716
LJ         -0.611665       -0.158964       -0.569773
LJ         0.0995223        0.564765       -0.468537
LJ          -1.44146        -0.10392        0.334525
LJ           1.78115         -1.3872       0.0648582
LJ          -1.42595         1.29918        0.742843
LJ           1.70289        -1.72245        -1.51878
LJ          0.377084         1.43265        0.302192
LJ          -2.14227        -1.03653        -1.69489
LJ          -1.68234        -1.89063        -1.36919
