108
#Comment!
LJ          0.647107        -1.39777       0.0013252
LJ           1.65867       -0.278061        -2.32123
LJ          -1.89185       -0.800391       0.0124662
LJ          0.360882      0.00351701      -0.0750966
LJ          -1.27979      -0.0559726        0.957224
LJ         -0.973717         1.22619         2.18825
LJ           1.23871          1.4159       -0.411106
LJ           2.07468        -2.32582        -2.28955
LJ            1.3712        -2.24616       -0.537964
LJ         -0.664968       -0.184769       -0.156484
LJ          -1.78462       -0.608197       -0.988584
LJ          0.733393       0.0806076         1.00583
LJ          -0.32837         1.27218        -1.07127
LJ         -0.105842        0.181328        -1.02237
LJ           -1.5739         2.26333         1.95506
LJ           2.27807         1.37298        -1.37526
LJ           1.92928        -1.08049         1.01752
LJ           1.20155       -0.484216        0.160865
LJ          -2.00446          0.5202         -1.1763
LJ           2.17079        0.603267        -2.00712
LJ          -1.73472         2.26742        -1.57347
LJ            0.2489         -2.3783         0.38215
LJ          -0.20683         1.54967        0.619598
LJ           1.08435        -2.17956         1.82641
LJ          -2.24836       -0.155533        0.859011
LJ           1.74526        -1.69026          0.1718
LJ         -0.870205         2.15383        -1.15437
LJ          -2.26256        -0.71915          2.1255
LJ          -0.19568        0.203048         1.78437
LJ          -2.25808        -1.48368        -1.83074
LJ           1.95045         1.42174        0.262995
LJ          0.823448        0.849759        0.339494
LJ           2.04133       -0.436742       -0.381302
LJ          0.243536       -0.731159        0.614108
LJ          -1.80529        0.206951       -0.138775
LJ           1.75409      -0.0733122         1.50083
LJ         -0.234266        0.196965        0.729454
LJ           1.63825         1.49345         -2.1451
LJ          0.736837        0.684922       -0.748387
LJ          -0.24292        -1.86532       -0.444656
LJ           1.54254        0.438089         -1.2576
LJ          -1.78686        -1.06452         1.05555
LJ           0.73382         1.52258         2.11037
LJ          0.583551        -1.86963       -0.990112
LJ          -1.84489      -0.0979307        -1.97252
LJ         -0.750589          2.2652        -2.19808
LJ          -1.22239        -1.68512        -1.25415
LJ          -1.78518         1.26043        -0.57737
LJ           1.38005        -1.58653        -1.85709
LJ           -1.0502        0.626508       -0.767438
LJ           -2.0011        0.852363        0.638911
LJ           -1.1303         1.86428        0.814525
LJ         -0.374228        -1.62421        -1.71628
LJ         -0.556958         2.15513          1.5764
LJ            1.9861        0.863024         1.71342
LJ           0.23737         1.90268       -0.408261
LJ          0.691203        0.182047        -1.63051
LJ          0.641062        -1.34316         2.18682
LJ          -0.84935         0.83035         1.27695
LJ           2.02347        -2.28821        -1.26473
LJ          -1.26876        -1.90429         1.15993
LJ         -0.753402         0.21819        -1.73976
LJ          0.057421         2.06551        -1.52021
LJ          -2.18699         1.99178        0.774434
LJ          -1.04324        0.661855        0.301188
LJ          0.117348         1.08747          1.5063
LJ          -1.95059        0.314244         1.86288
LJ           1.96894       -0.658676        -1.46065
LJ         -0.928977         1.54839        -0.14561
LJ          0.636633       -0.845747         -1.6521
LJ         -0.927024        -1.14788       -0.399642
LJ           2.07431        0.774381       -0.499671
LJ          0.884353         1.25681        -1.54398
LJ           1.12677       -0.375426       -0.889783
LJ           1.58402        -1.29283         1.96525
LJ           -1.2319       -0.547028         1.83699
LJ           2.37935        -1.35552       -0.801594
LJ           1.37982        -1.31454       -0.852964
LJ          0.890167       -0.821239         1.40809
LJ          -1.80519          1.3663         1.51406
LJ         -0.913827         -2.0736         0.26154
LJ         -0.838539        -1.53952         2.14157
LJ           -1.2244         1.26338        -1.52337
LJ           1.98021          1.7999         1.56341
LJ           1.76229        0.331987        0.558257
LJ         -0.058035        -1.79144         1.27508
LJ          0.909326        -1.72174        0.855598
LJ         -0.134818       -0.834856         1.53025
LJ           1.08979         1.12252         1.25776
LJ           1.83022        -2.05558         1.14405
LJ           0.42591         1.93761         1.27529
LJ         0.0659902        0.858337        -2.04135
LJ         -0.180848        0.827499       -0.154774
LJ          0.168716       -0.826332       -0.644274
LJ          -2.06366         1.53403        -2.25907
LJ           2.29706         1.94648       -0.509975
LJ           0.10914        -2.18457         2.29067
LJ          -1.39713       -0.901511        -1.95968
LJ         -0.674784       -0.632471        -1.28319
LJ           1.17737        0.640591         2.15859
LJ          -2.04815        -1.63229          1.8509
LJ         -0.264002        -0.48169         -2.2724
LJ          0.594961        -0.19716         2.13015
LJ          -1.63344        -2.24722       -0.405858
LJ          -2.05876        -1.72463        0.338532
LJ            1.0116         2.25615        -1.92373
LJ         -0.625307        -1.08215        0.591601
LJ           1.23416         2.11934         0.59257
