108
#Comment!
LJ        -0.0687061         1.54171          1.4073
LJ          -1.52238        -1.07847        -1.19164
LJ          0.918993         1.13085        0.877252
LJ          0.987685       0.0640567        -1.10812
LJ          0.868158         1.91907         1.40962
LJ           1.81809         1.49955       -0.363745
LJ           2.11991        0.647972       -0.989155
LJ           1.77562       -0.526008        -2.26247
LJ        -0.0519233        -1.05744         2.21326
LJ           1.59988        -2.27932         1.97217
LJ         -0.724267        0.600758       -0.681843
LJ           2.18796        -2.07554        0.235487
LJ          -1.04752         1.93834        -2.37838
LJ          -1.33795          1.8737         1.41124
LJ           2.29643        -2.29174        -1.82968
LJ          -2.22245        -2.26505         1.17682
LJ          0.233122        0.860336       -0.972925
LJ          -1.30349     -0.00669852          2.1021
LJ          -1.09463         2.33473       -0.445479
LJ            1.0652         1.56106        -2.32406
LJ           1.62617        0.361824        -1.91643
LJ          -2.37537        -1.38112        -2.16656
LJ          0.652335       -0.451917          1.8807
LJ          -2.18552        -2.23885       -0.710548
LJ           -1.9835        -1.29864         1.16827
LJ         -0.282211       -0.469991          1.4382
LJ            2.2223        0.340293         1.94055
LJ          -1.33649        -1.03206        -2.24131
LJ         -0.112399      -0.0290758        -2.30534
LJ            -2.092         1.12152          1.2126
LJ         -0.357521        -2.13399        -1.05298
LJ         -0.882582         1.23199       0.0588564
LJ          -1.64209         1.91933        0.371495
LJ           1.50668        -2.05929         -0.7633
LJ           2.07768         1.26084        -2.25553
LJ          -1.66491        0.566958        -1.09794
LJ          -1.68544        -1.76519     -0.00481227
LJ         0.0723112        -1.79647       0.0750009
LJ           1.85595        0.536534         1.01677
LJ          -1.17432        0.765947        0.898055
LJ         0.0284902         0.87399        0.577761
LJ          0.341351         0.28331       -0.200222
LJ           1.52327        -2.18292        0.999285
LJ        -0.0183463       -0.107761        -1.10843
LJ          0.222644         2.03352        -1.52395
LJ          0.559157         2.36144       -0.570033
LJ           1.91779       -0.361878        -1.24029
LJ           1.75394         1.34953         1.60411
LJ          -2.19153       -0.270166        0.312596
LJ        -0.0635201       -0.805248      -0.0765507
LJ          -1.65187        -1.95236         2.04366
LJ          -1.27101        0.211774       0.0755946
LJ        -0.0238438         1.26806        -2.15729
LJ          -1.29378       -0.757336        0.146608
LJ          -2.23517           1.943         1.98943
LJ          -1.30348        -1.99966        0.872608
LJ           1.21046        -2.37965        -1.75694
LJ          0.671948        0.159557        0.721724
LJ          -1.07036       -0.273008        -1.65377
LJ          0.671506       -0.655578        -1.96117
LJ           1.49783       -0.279909        0.350443
LJ         -0.549112        -1.34935        0.694873
LJ           1.29298         2.19354       0.0581394
LJ          -1.90336       -0.326904       -0.648692
LJ          0.658306        0.616028        -1.89337
LJ           1.16294        0.421116         1.69977
LJ           1.30392         1.29425         -1.3971
LJ          0.841623        -1.56132          2.0017
LJ         -0.137956         1.69026        -0.32232
LJ           -2.3022        0.775681      0.00547474
LJ            2.0614          1.6865        0.587276
LJ          -2.07426       -0.621277         2.00428
LJ          -1.53894        -1.90254        -1.74983
LJ         -0.378352      -0.0307472        0.564078
LJ          0.273342        -1.83159         1.01207
LJ          -1.65975         1.20935         2.20553
LJ         -0.742757        -1.43732       -0.380243
LJ           -2.0545        0.109188        -1.94256
LJ         -0.643236         1.48334        -1.29136
LJ           0.45205        -1.72687        -1.82308
LJ         -0.898452       -0.527765       -0.713671
LJ          -1.60655         1.85483        -1.48845
LJ          0.102741        0.471672         1.46362
LJ           2.22468        -1.05801        -0.31441
LJ         -0.964463        -1.32561         1.60842
LJ           2.24371         1.60396        -1.28006
LJ           2.16727        -1.44056        -1.20501
LJ           1.37027        -1.38348        -1.95108
LJ           -0.6549         2.03941        0.596633
LJ           1.02146        -1.61554      -0.0554524
LJ         -0.584076        -1.15429        -1.60137
LJ           1.50071        0.605544       -0.135283
LJ          -1.20145       -0.493487         1.02462
LJ           1.78791         -1.3105           1.836
LJ           0.44546         2.08456        0.523775
LJ           1.26982         -1.1358       -0.967597
LJ           1.89336       -0.431411         1.39842
LJ         -0.527052        -2.21164         1.51289
LJ           1.70442        -1.16659        0.746873
LJ          0.371506         2.29266         2.17313
LJ          -1.03614        0.781747        -1.84435
LJ          0.275391        -1.05902        -1.01353
LJ          -1.89086        0.143523         1.20468
LJ         -0.760639        0.822425         1.85293
LJ           0.41045         -0.8009        0.818613
LJ          -1.71227         1.47183       -0.577211
LJ         -0.645513        -1.82936        -2.30048
LJ          0.789149         1.39359       -0.373748
