108
#Comment!
LJ           1.49378         2.13294       -0.761811
LJ          -1.24046         1.17131        -1.85211
LJ         -0.672085       -0.513935        -1.99506
LJ          -1.31411        0.391201         1.27533
LJ          0.552668       -0.108202         1.29233
LJ         0.0747749        -1.41575       -0.684835
LJ          -1.94481        -2.33359        0.165169
LJ           2.33821         2.25777         2.06182
LJ         -0.541211         1.52514         1.37489
LJ           2.27676         1.15637         1.94136
LJ          -1.41518         1.30617         1.93468
LJ          -2.08108       -0.212128        -1.14331
LJ           1.74098        -1.00028        0.281891
LJ         -0.124584         2.34861        0.332928
LJ          -1.24374         1.95391        0.902342
LJ          0.769176         1.35954        0.326198
LJ           0.41058       -0.275908        -2.09519
LJ           1.70154        -1.77617         1.86989
LJ         -0.167892         -2.2705         1.33376
LJ          0.552199         1.14762       -0.690218
LJ         -0.884598        0.213707        0.252919
LJ           1.00683        -1.32883         0.88915
LJ          -1.85962         0.70445        -0.17014
LJ           1.67477         1.92818        0.349279
LJ        -0.0625543        -0.59407        0.711854
LJ          -2.13158         1.51844         1.07726
LJ           1.75898        -1.36777        -1.97015
LJ          0.574438        0.794052         2.06489
LJ          -1.02374       -0.665118        0.970593
LJ           1.27257        0.243501       -0.160689
LJ          -1.13056        0.511925       -0.928288
LJ          -2.15393         1.62353        -1.89775
LJ         -0.153022        0.619693         1.25861
LJ           -1.8782         0.36576         2.10533
LJ          0.619862         2.11837       -0.339789
LJ           0.14815        -1.44289        0.284964
LJ         -0.417541       -0.575184       -0.751753
LJ          -1.26424        -1.12479        -1.17501
LJ          0.818429       -0.647703       0.0595289
LJ          -1.37843        0.101419        -1.79957
LJ          -1.92577        -2.14376         1.22622
LJ           1.49438       -0.741332       -0.761032
LJ           1.39595         1.32847        -1.46188
LJ           1.34656        0.863282         1.26626
LJ          0.997291        -0.90653         2.08877
LJ           1.55229         1.79668         1.35245
LJ         -0.568209         1.87261         2.37609
LJ          -0.29122        0.225873        -1.50793
LJ          0.808417         2.21049        -1.50595
LJ          -1.12226        -1.38598         1.65799
LJ           1.47862         1.20063       -0.354511
LJ         -0.264542        0.561977       -0.495928
LJ         -0.222164         2.34729        -1.48334
LJ          -2.33137         1.53989       -0.354053
LJ           -1.9431       -0.669208         1.36764
LJ           1.41634         -1.6984        -1.12088
LJ           2.26831      -0.0881088       -0.235329
LJ           1.52104       -0.143253        0.718708
LJ         -0.134913       -0.959058         1.91671
LJ         -0.890433        -1.89582        0.705225
LJ         -0.690928       -0.175853         1.84621
LJ           0.64783        0.149487       -0.949253
LJ         -0.575675        -2.16773       -0.552025
LJ          0.544526         1.44062         1.30225
LJ          -1.73298        -1.38606        0.622269
LJ           2.01117         -1.8787       -0.248166
LJ          -1.57487        -1.95661       -0.663347
LJ           1.90236        0.810659        0.375059
LJ          -1.35478       -0.356968        -0.41054
LJ          0.973353        -1.75471       -0.028953
LJ          -1.25091         1.06671        0.552218
LJ         -0.186164        -1.33922        -1.62761
LJ          0.368343        0.284797        0.279307
LJ           1.47378       -0.248884        -1.64948
LJ         -0.473729        0.811232         2.24621
LJ         -0.179619         1.25254        0.219402
LJ           0.58434       -0.782483        -1.26437
LJ           1.26196         1.41858         2.27511
LJ          0.859964         2.32472        0.738004
LJ           1.85077       -0.866253          1.5268
LJ          -1.87467      -0.0421778        0.518747
LJ         -0.919764        -1.10831       0.0656531
LJ           2.10021       -0.255599         2.32962
LJ          -2.04344        0.797031        -1.38743
LJ          -1.17634        -1.39056        -2.14684
LJ          -1.63932       -0.568023         2.29946
LJ          -1.46087         1.48137       -0.877705
LJ          0.392659         2.06498         2.30686
LJ         -0.976538         1.86058      0.00166348
LJ          -0.29852        -1.96718         2.31705
LJ           1.59004         2.36341        -2.11791
LJ          0.820862         -1.6743        -1.92473
LJ            1.8357        0.520362        -1.08353
LJ          -2.06031        -1.04975       -0.275497
LJ          -1.26453         2.20508        -1.57941
LJ           1.39391       0.0041925         1.75555
LJ           2.26152        0.308048         1.36296
LJ          0.811797        0.559502         -1.7881
LJ           -2.1317        -1.34366          2.0749
LJ          -2.23833        -1.19871        -1.24395
LJ          -2.17909        -1.90392        -1.90595
LJ          -2.19474         2.21579        -1.13678
LJ             1.859        0.645927        -2.10322
LJ         0.0128813         1.18003        -1.73701
LJ           -1.4523         2.34355         2.12621
LJ         -0.490155         1.43453       -0.900604
LJ           1.95907        -2.01645        0.815308
LJ          0.774719         -2.0233         1.68369
