108
#Comment!
LJ          0.389754       -0.709313       0.0779434
LJ            1.2049       -0.997707         1.86285
LJ          -1.55411       -0.224254       -0.666111
LJ         -0.858796        0.457402         0.43234
LJ          -0.97616        0.630035       -0.547531
LJ         0.0623461       0.0942388        -1.97834
LJ           1.09416         2.34558       -0.228852
LJ          0.997631         1.91655        -2.02551
LJ           1.63611        -1.69747        0.253506
LJ          0.643409        0.304754     -0.00897484
LJ          -1.59589        -1.12584       -0.469736
LJ           1.21602        0.827543        0.663634
LJ         -0.163668         1.09476        -1.56132
LJ           1.33642       -0.988451        -1.19389
LJ           1.95751         2.12671         -2.0797
LJ           2.04764        0.157191       -0.911238
LJ          -2.00621       0.0542835         1.08199
LJ             1.802       -0.955032        0.851665
LJ           1.88812         1.11565        -0.84696
LJ           1.91368        -0.69167        -2.04796
LJ           1.65244         1.20474         -1.8037
LJ          0.649697        -1.48644       -0.335513
LJ          0.112537         1.14937        0.398826
LJ         -0.469099         2.32052         1.42019
LJ          -1.41685        0.819224         1.29428
LJ           2.35257        -1.71743       -0.332185
LJ          -1.42281        -2.08768       -0.962972
LJ          -1.84886        0.727941        -1.03024
LJ          0.561809          1.0523         2.36854
LJ         -0.625368        -1.97072         2.30228
LJ           2.06976         2.09697       -0.403054
LJ           1.23348         2.35756        0.778525
LJ           2.34835       -0.533198      -0.0321381
LJ           0.76779        -1.49449        0.747535
LJ          -1.77877        0.459493       0.0791026
LJ           1.79099        0.111767         2.10773
LJ         -0.992506      -0.0680793         1.31813
LJ           2.25971         1.03067         2.14886
LJ           1.34039       -0.593154       -0.277584
LJ          -0.22341        -2.26984       -0.235102
LJ           1.36012        0.965409          1.7783
LJ           -1.4794       -0.946684         1.27192
LJ          0.821046         1.30223        -1.21632
LJ          0.249195        -2.26414        -1.91816
LJ          -1.55549       -0.353323        -1.76063
LJ         -0.408473         -2.1572        -1.27659
LJ          -1.86397        -2.31977        -2.08455
LJ          -1.14942         1.89884        -1.55124
LJ           1.16431        -1.80914        -2.20442
LJ         -0.858473        0.398107         -1.8623
LJ           2.16805         1.01418         1.14289
LJ         -0.797089        -1.29819        0.429519
LJ         -0.260201        -1.03844        -2.07695
LJ         -0.409341        0.538856         2.04086
LJ           1.47514          1.8501         1.58172
LJ         -0.139792         1.46012        -0.47014
LJ          0.725966       -0.786088        -2.03488
LJ           -2.3319        -1.63641         1.38887
LJ         -0.495654         1.30048         1.39046
LJ           2.35329        -1.69643        -1.43287
LJ          -1.39764        -2.06569         1.21566
LJ          0.506957       -0.538972        -1.00516
LJ          0.396961          2.2103        -0.89411
LJ         -0.736419         1.61424        0.486228
LJ          0.812893       -0.508774         1.05076
LJ         0.0415141         0.44069         1.19117
LJ          -2.36334        0.234493        -1.85625
LJ           2.16088        -1.62882         2.33505
LJ          -1.06408         1.78013       -0.590552
LJ          0.438003        -1.48936        -1.37583
LJ         -0.606519        -1.41353       -0.568359
LJ          -1.94294         1.40804       -0.262249
LJ        0.00798546        0.350227       -0.790942
LJ           1.03835        0.372321       -0.938502
LJ          -2.25107        -0.62149         1.92347
LJ          -1.54245        0.235564          2.1134
LJ          -2.26357       -0.778774        -1.21866
LJ           1.58868        -1.85254        -0.86504
LJ           1.66064      -0.0130224         1.02683
LJ          -1.80123         1.51185        0.823569
LJ         -0.518973        -1.33176         1.35306
LJ         -0.306481       -0.448841        0.731868
LJ          -1.71225         1.31197        -2.09979
LJ           0.49277         2.23262          1.9422
LJ           1.78712        0.280681       0.0717626
LJ          0.258376          2.2171        0.659383
LJ           1.45835        -1.91827         1.60153
LJ         0.0307565       -0.363554         1.93292
LJ           2.03272         1.73114         0.51364
LJ          -2.34913         2.18378         1.70845
LJ          0.679546         1.40312         1.22252
LJ         -0.324325         1.83179         2.36602
LJ          0.931175         1.26567       -0.187441
LJ         -0.475887       -0.413108       -0.386195
LJ          -1.40728         1.91166         1.79114
LJ          -2.11802         1.79512        -1.28716
LJ          -1.04424       -0.765516         2.17733
LJ          -1.32112        -1.52493        -1.75842
LJ         -0.783811       -0.741235        -1.30036
LJ          0.779961        0.144343         1.93688
LJ          -1.57377        -1.60727         2.01587
LJ           0.25811        -1.55146         1.91297
LJ           1.12852        0.299268         -1.9324
LJ          -1.20783        -2.21204       0.0176775
LJ          -1.91577        -1.21896        0.429505
LJ           1.51381         1.98701        -1.20605
LJ          -1.28664       -0.434721         0.40562
LJ          -2.14149        -2.14588        0.567966
