108
#Comment!
LJ          -1.35538       -0.990895        -1.04752
LJ          -1.71114        0.190679         -1.3491
LJ          -1.00265       -0.846371      0.00878096
LJ         -0.095953         2.35712        -1.50403
LJ          -2.10216        -1.73936         1.05061
LJ          0.909609         1.80687        -1.69158
LJ         -0.970946         -0.8915         2.29152
LJ          0.517461        -1.33707        -1.17538
LJ          0.217609        -1.99718         1.67181
LJ           1.69634       -0.765689         2.16039
LJ          0.157522       -0.773269        -1.91033
LJ           1.33348       -0.821836        -1.60159
LJ          -2.24296        -2.24777         2.32098
LJ          -1.76273       -0.240944        -2.30215
LJ          -2.24608       -0.587025        -1.40086
LJ          -0.79831        -1.82588        -1.10135
LJ         -0.605787      -0.0501031        -1.76141
LJ         0.0379027         1.71767         1.37802
LJ          -1.04357        -0.05765       -0.644702
LJ          0.567694        -1.67427        -2.15592
LJ           1.31775        0.166545         1.62809
LJ          0.840739      -0.0430221        -2.15621
LJ         0.0282217         0.53932         -2.2294
LJ           2.16233        -1.56354        -1.75269
LJ           -2.0671         1.08943        -1.89199
LJ          -1.50145         1.08917         1.27672
LJ           1.87375         1.72434        -1.96021
LJ           2.04094       0.0766494        -2.03387
LJ          -1.22352        0.658385        -2.13213
LJ          0.865602         1.49058         2.04472
LJ          -1.07767         2.21054        -2.02763
LJ         -0.813813         2.08894          1.7953
LJ           1.46737         0.82495        -2.11123
LJ           1.80163         2.05039          1.7983
LJ           1.44001        -1.93266        -1.17909
LJ          0.369895        0.697824         1.52628
LJ           1.71846         1.44439        0.211096
LJ          -1.58924         2.10108        0.153588
LJ          -1.08242         2.01447       -0.876703
LJ          -2.19666        0.282247        0.723549
LJ          -1.01889           1.251      -0.0634367
LJ          0.198127       -0.552038       -0.135088
LJ          0.687639        -1.32462        0.657269
LJ          -1.56212        -1.71789        -1.74726
LJ          0.516493         2.29152       -0.754254
LJ           1.95137        -2.14108       -0.308109
LJ            1.6826        -1.39508        0.661325
LJ           1.93584         2.30957          0.6496
LJ           1.82653      -0.0409667       -0.937572
LJ          -1.95609       -0.330906       -0.469849
LJ           1.78777       -0.462235       0.0264556
LJ          -2.05457        -1.67004       0.0762876
LJ          -1.67741        0.665822         -0.4099
LJ         -0.479004         1.38137        -1.80933
LJ           2.23369       -0.235665         1.52535
LJ         -0.103103        -1.67709       -0.404497
LJ          0.769945        0.336638       -0.407019
LJ        -0.0447512        0.125761       -0.922085
LJ          0.479584       -0.286871         1.46924
LJ          -1.83139        -2.08946       -0.802458
LJ          0.921126       -0.500909       -0.800797
LJ           1.86874        0.918589        -1.24845
LJ           1.05801        -2.24553         1.17444
LJ           1.63919         1.84923        -1.00818
LJ          -1.38846         1.11174        -1.21755
LJ          0.590736        0.830405        -1.38428
LJ         -0.107606         1.22543       -0.733088
LJ         -0.343055        0.362832        0.027286
LJ           2.00539        0.633968       -0.221587
LJ            -2.302         1.58177       -0.504447
LJ           1.10386         2.28136       0.0512834
LJ          0.137796         1.15793        0.529567
LJ         -0.957607        -1.80382      -0.0163486
LJ          -1.05828        -2.05013        0.990164
LJ           1.82303        -1.62786         1.63737
LJ          -1.97845         2.11404         1.43636
LJ         -0.706104         1.73081        0.773896
LJ         -0.137553        -1.08031         1.60149
LJ          0.911455        -1.18869         1.62338
LJ         -0.432885        -1.80664        -2.21234
LJ           1.13825         -1.3904       -0.290371
LJ          -2.01859        -0.66535         0.52376
LJ           1.26719       -0.532871        0.857633
LJ          -2.00507         2.11003        -1.57712
LJ          -1.32472       0.0336248        0.315938
LJ          -2.09669        -1.15005         2.25191
LJ           2.13946         1.35695         1.14876
LJ          -1.43529        -1.87459         1.98847
LJ         -0.296936        -1.34802          0.5745
LJ         -0.388598       -0.852432       -0.886464
LJ         -0.423056      -0.0884004         1.83671
LJ          -1.11523        -1.06061         1.28699
LJ         -0.629275        0.982225          1.8588
LJ          0.530545        0.152144        0.569073
LJ           1.01043         1.52713        0.863715
LJ           2.08004         -1.1627       -0.750018
LJ             1.519        0.555365        0.650368
LJ          -1.98594         1.20458        0.393578
LJ           2.11112         0.72485         1.91974
LJ         -0.712066         0.58598        0.898735
LJ          -1.36737      -0.0858185         1.47109
LJ          0.804544         1.31333       -0.222675
LJ          -0.38065         2.13936       -0.195208
LJ         0.0435076         1.96914         2.31278
LJ         -0.391441       -0.372755        0.915151
LJ          -1.64795         1.57306         2.16373
LJ          0.183543        -2.37221        0.559023
LJ           1.39817         -2.1776        -2.16452
