108
#Comment!
LJ          -1.17631        0.881813        0.817388
LJ          -2.28217        -2.15639        -1.49657
LJ            1.3588       -0.959733         1.16089
LJ           2.29599        -1.07591         1.91792
LJ           1.79535        0.524889        0.607257
LJ          0.935373        -2.19415        0.821978
LJ         -0.041327        -2.05131         1.01853
LJ           1.63205         1.34998      -0.0863832
LJ          -1.74267         2.12545        0.997526
LJ         -0.901588        -2.17594        -2.07245
LJ         -0.540114         1.27381         1.77317
LJ       0.000456603        0.291034         1.97104
LJ           1.54047        -1.63293        -1.85148
LJ          -1.93574        0.373387         1.29334
LJ          -1.34848        -1.29743         2.26899
LJ           2.25358         1.91183         1.59638
LJ           0.53211      -0.0011109       -0.887557
LJ         -0.194411       -0.237078        0.868073
LJ          -1.00981       -0.797884       -0.730682
LJ          -1.77503         1.27603         1.60007
LJ         -0.232028        0.680704        0.386505
LJ          0.343703          2.1385         2.23266
LJ           1.47134         1.37499         1.01337
LJ           2.06154       0.0274107        -2.29546
LJ         -0.717734        -1.91491        0.312079
LJ          0.750074         1.65711        0.455438
LJ          0.137781         1.77795         1.29872
LJ           1.28479         2.30247       -0.163573
LJ          -1.37377        -1.78461       -0.411406
LJ          -1.29485         2.08301         1.90283
LJ         -0.574906        -1.17381         1.14839
LJ           1.38198        -1.48512        0.315661
LJ          -2.18527         1.31234         0.69409
LJ           1.93739         1.78599        -1.32864
LJ          -1.71036       -0.345698         2.35373
LJ          -0.84641         1.59569        -2.09443
LJ          0.920757        0.626315      -0.0966367
LJ           1.31297       -0.899416         2.26227
LJ          -1.08393        0.376199         1.77951
LJ          0.289283        -0.55723        -2.24546
LJ          0.745935         1.71754       -0.899192
LJ           0.20681        -1.56847         -2.1336
LJ          -1.95768        0.645224         2.30922
LJ       -0.00504726         1.08214       -0.734639
LJ           1.08845         1.44176        -1.80178
LJ          -2.04831         1.79338        -2.17757
LJ           -2.3686         2.03604       -0.241961
LJ          0.872584        -2.34527        -1.69816
LJ           1.69658         2.07358        -2.24641
LJ           2.36871       -0.701737        0.903998
LJ          -1.59455       -0.469714        -1.42459
LJ          -2.08537        0.226205        0.151284
LJ         -0.342398         1.62034       0.0762535
LJ          0.759323       -0.213455         1.42327
LJ          -0.22863        -1.28129       -0.433651
LJ          0.290182        -2.28832       0.0499113
LJ          -1.42082        -1.55989        -1.34383
LJ          -2.00206        -2.02676         2.12844
LJ         -0.517723        -2.35371        -0.54625
LJ           1.92303        -0.58179       -0.491977
LJ          -1.10352        0.141735        0.099227
LJ         -0.407897        -1.67784        -1.42257
LJ           1.93803        -1.75711         1.15959
LJ          -0.83925         1.82719        0.920566
LJ          0.960982         -1.7534         1.90976
LJ        -0.0458963        0.210548         -1.6658
LJ          -1.71376        -1.30643         1.26804
LJ           1.07378       -0.364184        0.387815
LJ          -1.05125         1.00094       -0.265951
LJ             -2.13          1.0718       -0.314857
LJ          -1.62974        0.211547       -0.737815
LJ          0.735732          1.1673         1.76119
LJ          -1.39684         2.08685       0.0885174
LJ          -2.18971        -1.62213        0.403523
LJ          -2.25656        -1.14905        -1.70799
LJ           1.25236         2.06952         1.60311
LJ         -0.116371       -0.715299        -1.29209
LJ           1.99912        0.930348        -1.93811
LJ         -0.750197        -0.55439        -1.95902
LJ         -0.331266        -1.85406         1.89376
LJ          0.615181         0.75087        0.857768
LJ          -1.61304         2.13691       -0.907825
LJ         -0.899176         1.35047        -1.13188
LJ         -0.909393       -0.905973         0.30392
LJ           1.88179      -0.0493956         1.47475
LJ           1.49859        -1.76068       -0.880928
LJ           1.22023       -0.297841        -1.66095
LJ         0.0812974         1.07791         -2.1409
LJ         -0.246595         2.07517        -1.41642
LJ          -1.90379       -0.706649       -0.209821
LJ          0.320325        -1.37397        0.487072
LJ           0.80839        -1.16631        -1.43826
LJ          0.324115        -1.07311         1.54401
LJ           2.00143        0.925473         1.78204
LJ          -1.05439        -1.98622         1.23198
LJ          -1.33813        -0.36351         1.00892
LJ          0.967744       -0.852248        -0.51839
LJ           2.00735         2.07656        0.658575
LJ           1.59702        0.694277       -0.839437
LJ         -0.572336       -0.453469         1.78027
LJ          0.435655        -1.94086         -0.8701
LJ          -0.46793       0.0567744       -0.701775
LJ          -1.87717         1.14156        -1.42682
LJ          0.987785        0.525931        -2.18771
LJ          -2.33044        -1.50986       -0.719154
LJ           -1.1147        0.613838        -1.93487
LJ           2.27112      -0.0513147        -1.29346
LJ          0.173695        -0.42783      -0.0591798
