108
#Comment!
LJ         -0.279308         2.08742       -0.530548
LJ          0.161611       -0.341133         1.11296
LJ        -0.0604439          1.1286        0.730419
LJ         -0.194436          1.2647        -1.32501
LJ           1.88808        -1.58558          1.3949
LJ          -2.07218        -2.37913       -0.462425
LJ           1.32201         2.15412         1.47378
LJ          -2.22456      -0.0744603        -1.18771
LJ          0.820925        0.294832        0.637445
LJ          -1.27382         0.49038      -0.0489533
LJ           1.89826        0.645668          -1.455
LJ           1.41332         1.45733       -0.815747
LJ          -1.11763         2.25682        -1.72973
LJ          -1.94677        -0.24709         1.46049
LJ          -1.52522       -0.895827        -1.34016
LJ            -2.085        -1.63844         2.04661
LJ           1.13797         1.12653       0.0858509
LJ           2.35864        0.686849         1.39621
LJ         -0.959666         1.10009        -1.97721
LJ          0.672021        -1.43453         1.59825
LJ           1.72755        -1.89237        -2.14992
LJ          -1.05061        -1.62529         1.96036
LJ          -0.80598        -1.50809        -1.84193
LJ          0.607695       -0.266749        -2.30507
LJ           0.39748         1.92905        0.437038
LJ          0.535894       -0.545014        -1.25767
LJ           1.04213        -2.04483        -1.37824
LJ         -0.303054       -0.645237        -2.17866
LJ         -0.904142       0.0189813         1.44615
LJ           1.73089        0.391595       -0.166235
LJ           1.09824        -1.52806      -0.0726625
LJ          0.496914         1.47455         1.61584
LJ           1.82782         1.86361        -1.65541
LJ         -0.959861        -1.95555       -0.877085
LJ          -0.73379         1.45958       0.0867695
LJ          -1.63042         -2.1882         1.24612
LJ           2.30906         0.12016        -2.26923
LJ            1.6319        -1.28122        -1.03045
LJ           1.31458         1.50202         2.29437
LJ          -1.40546        0.516952         2.11452
LJ          -1.38234        -1.40708       0.0172237
LJ          0.054943        -2.24732         1.57499
LJ           1.19742        0.567774        -2.17692
LJ          0.182649          1.0344       -0.459817
LJ          -1.89813         1.64772         -1.9273
LJ         -0.717236        -1.84666         1.03756
LJ          -2.09797        -1.29647       -0.671478
LJ           1.24454        0.743083         1.45334
LJ          -1.05608        0.773671        -1.00898
LJ         -0.530223        0.289768        -2.34924
LJ          -1.19388        0.872469         1.06193
LJ           1.26052        -1.10567        0.825498
LJ         -0.435682       -0.931453       -0.993392
LJ          0.771071         2.24349       -0.522808
LJ             1.594       -0.323957       -0.967065
LJ          0.475508        -1.87981        0.725952
LJ          -1.26984        -0.56944       -0.489791
LJ          0.723353        0.139255       -0.408235
LJ          -2.22711       -0.405857       -0.238162
LJ           2.34031        -1.09586        -1.75671
LJ         -0.457012       -0.908692          1.6316
LJ          -2.12974        0.616425       -0.539268
LJ          -2.18409         1.53762        -1.00504
LJ           1.32183        -2.35108        0.460581
LJ         -0.981486         2.11626         1.93028
LJ          -2.20266        0.697634        0.431376
LJ          -1.68013         1.46051         1.92559
LJ           1.16936       -0.260756         1.49017
LJ           1.79131         0.06845        0.830302
LJ          -1.00634      -0.0344581        -1.55328
LJ           2.34529       -0.861802        0.628546
LJ         -0.397137        0.231214        0.394892
LJ            1.7516        -2.27195        -0.70701
LJ           2.31824         2.20133         1.82571
LJ          0.702778         1.70712        -1.40512
LJ           2.02791       -0.716587         1.80283
LJ         -0.193108         1.89516        -2.05717
LJ         -0.621236         1.06625         1.81536
LJ          0.382835       -0.817489        0.186085
LJ           1.81449         1.44737        0.990733
LJ          -2.05418        -2.24609        -1.45225
LJ           -1.8462        0.704635        -1.67062
LJ          -1.76631         1.53736        0.010697
LJ        -0.0121843        0.239969        -1.41955
LJ          -1.18178         1.77992       -0.857113
LJ         -0.678364         1.85657         1.01222
LJ          -1.50491       -0.367175        0.507315
LJ         -0.338336        -1.69155       0.0303432
LJ          0.158473        -1.53284        -2.32558
LJ           0.38461        -1.40876       -0.759906
LJ        -0.0427638         -2.1023        -1.51853
LJ          0.858176        0.711172         -1.2552
LJ           1.52282       -0.565482       0.0991257
LJ          -1.40003        -1.07152         1.23484
LJ           2.25961        -2.33781        0.871484
LJ          -1.95805         1.61349          1.0351
LJ         -0.245194      -0.0703162       -0.567892
LJ          -1.27347          2.3624       0.0873636
LJ           -1.6773       -0.403398        -2.37252
LJ           2.12195         1.05604          2.2608
LJ           1.47314       -0.426919        -1.90031
LJ           1.98198         1.71555      -0.0294347
LJ          0.251112         1.02545        -2.12271
LJ          0.298773        0.499977         1.66152
LJ           1.13139        -1.14765         2.35903
LJ          0.812315         2.36124         2.29364
LJ         -0.565524        -0.78692        0.573694
LJ           2.14086        -1.75254       0.0761435
