108
#Comment!
LJ          -1.32598        0.820669        0.443271
LJ         -0.602257        -1.40398        -1.79966
LJ          0.239694        -2.05657         1.01096
LJ           1.76974         1.90047        0.380449
LJ          -2.25181         1.30339         1.00398
LJ           1.19879         1.47155         -1.4127
LJ          0.201352         1.61855        -1.13706
LJ           1.24832        -1.24551        -1.80593
LJ         -0.550985       -0.637671         1.74453
LJ           1.47687        -2.06465         2.25446
LJ         -0.809777         -1.4279       -0.693991
LJ            2.1076        -1.85939          -1.584
LJ         -0.412871         1.52789         1.77765
LJ          -1.52203        -0.81341         1.71089
LJ          -1.94849        -1.15517         -2.2751
LJ         -0.809334        -2.26631        0.369938
LJ          0.811615        0.789274       -0.757668
LJ          0.272864       -0.123805         1.48747
LJ          -1.01386        -0.60222        0.039152
LJ         -0.739601         2.19976        -2.20441
LJ           1.81862        0.895175        -2.13817
LJ           1.80331        -1.15657         2.22825
LJ           1.14101         0.44795         1.50268
LJ           2.05934         1.91153        -2.06413
LJ          -1.12409        0.939925       -0.603066
LJ          0.157009        -2.22917        -1.68601
LJ          -2.02226          1.1783        -1.79308
LJ          -1.32431        -2.03053         1.95942
LJ          0.410158        -1.28948         -1.3409
LJ          0.202609         2.28212         2.02559
LJ         -0.770598        -2.21621        -1.24957
LJ          -0.73042         1.49561        -1.44245
LJ           -1.8861         1.64196       -0.931622
LJ           1.96419        -0.79485        -1.24541
LJ           1.14306          1.7096        -2.36679
LJ           1.12654         1.09479         0.69202
LJ          -1.09974      -0.0838965        0.899014
LJ           -1.5965        -2.14119       -0.667267
LJ         -0.239033       -0.472919        0.724878
LJ         -0.419091        0.589732         1.33984
LJ          0.506479        0.286657       0.0305452
LJ           1.49971        0.491597      -0.0355241
LJ           1.29389        -1.85997        0.885842
LJ          -1.10489         1.20911         2.37856
LJ          0.124407        -2.15432       -0.612077
LJ          0.329717         2.00953        0.307407
LJ          -2.29255        -2.05102         2.23917
LJ          -1.27334         1.26462          1.4062
LJ           1.47013        -1.50075       -0.719247
LJ         -0.899707      0.00738739       -0.784923
LJ          -1.68033        -1.37545         0.12915
LJ          -2.11406        0.994085       -0.143411
LJ         -0.146763         1.00883       -0.397846
LJ         -0.927625        0.426818        -1.76088
LJ           2.12857        -1.54543         1.25804
LJ         -0.280588        -1.42014        0.262274
LJ           1.02628         1.70688        -0.40402
LJ           1.09111       -0.476323       -0.531744
LJ          0.278083       -0.420192        -2.33656
LJ          -1.70019        -1.28303        -1.32748
LJ           1.65473        -1.04799        0.244537
LJ          -1.85969       0.0645209     -0.00313497
LJ           1.76885         1.29155         1.67384
LJ           2.17189         2.25385       -0.589038
LJ           1.62498        0.478457        -1.22971
LJ          0.848526        0.556319        -2.23464
LJ          0.098667         0.47455        -1.52195
LJ          0.599923        -1.10705        0.829282
LJ         -0.248612       -0.516483        -1.40451
LJ           2.05501       -0.320511       -0.329299
LJ            2.1867         -1.9315         0.31248
LJ          -1.36928        0.126516         1.93204
LJ         -0.755681         1.88283       -0.423332
LJ         -0.583748         0.26868        0.118004
LJ          0.404039        -1.46256        -2.31088
LJ          -2.16559         0.77664         1.96767
LJ          -1.82742       -0.197515        -1.49718
LJ         -0.415237         -1.6906         2.01793
LJ         -0.224297        0.437188         2.29739
LJ           1.26508        -2.28654        -1.32027
LJ          0.616974        -1.29833       -0.196865
LJ          -1.87374        -2.16105         1.00679
LJ           1.04815       -0.222979        0.644973
LJ           1.88216         1.26999       -0.710701
LJ         -0.997244        -1.45008         1.04397
LJ            2.1094         2.22009         1.49896
LJ          -2.25137         -0.2374         2.15834
LJ          -1.71633          2.1751        -1.84507
LJ         -0.672243         1.53293        0.623179
LJ         -0.102724       -0.629186       -0.383218
LJ          0.929887       -0.347339        -1.43924
LJ           -2.3389        -1.50241       -0.659367
LJ          0.162644         1.35317        -2.20764
LJ          -2.06472       -0.708544        0.860027
LJ           1.87156        0.501978        0.881374
LJ            1.0655        -2.17372     -0.00871651
LJ           1.62072      -0.0966965        -2.19572
LJ          0.186012        0.976966        0.657876
LJ          -1.82782       -0.664687       -0.609634
LJ           1.02352       -0.682335         1.85866
LJ          -1.84109         1.85656         1.90051
LJ           1.07523         2.19966         1.51305
LJ          -1.81503         1.93294       0.0479371
LJ          0.703396         1.34235         1.56572
LJ           1.83317       -0.603039         1.33817
LJ          -1.05955       -0.661327        -2.15909
LJ         -0.630531         2.33636         1.36118
LJ          -1.94267         0.34905         1.12903
