108
#Comment!
LJ           2.26616        0.012036      -0.0609112
LJ          -1.07721        -1.26048        -1.89325
LJ          -2.21141        0.292873        -0.99365
LJ          -2.07991         2.19958       -0.612226
LJ          -1.18681        0.579772       -0.823794
LJ          -2.19658        -1.60485          2.2908
LJ          -1.58641         2.34293        -1.64182
LJ         -0.700035         1.83815         -1.5568
LJ          0.922025         1.39181       -0.860955
LJ          0.637743        0.590034        -1.32811
LJ           1.38881         1.99279        -1.77155
LJ          -0.52845         0.96958        -2.03235
LJ          -1.86827        -1.41308        -1.01946
LJ         -0.521147         1.55124        0.545308
LJ          -1.40957        0.663627        -1.85704
LJ          -1.19851       -0.238951         1.09596
LJ           1.53384        0.295181        0.666321
LJ         -0.932041        0.919203         1.77938
LJ          -1.81238       -0.496726        -1.51626
LJ           1.76984         -2.2108         2.01879
LJ           2.03885       -0.881482        -1.45744
LJ          -1.61496         1.08321        0.759547
LJ          -2.37493         2.29607          1.0254
LJ         -0.160893        -2.29545        -2.19669
LJ           2.03216       -0.743578        0.573133
LJ         -0.448036         -1.7375         1.72954
LJ         -0.158108         2.28686       -0.440442
LJ           1.30991         1.95892         1.21545
LJ          -1.00936       -0.199152        -1.94771
LJ           1.19049        0.920598         1.35162
LJ           -1.7657        -0.96099        0.466891
LJ          0.221828        -2.17335        -1.27349
LJ          0.250857        -1.54008        0.783345
LJ           1.63956        -1.40192        -2.20905
LJ           1.49007        0.957811        -1.58207
LJ          0.671654       -0.826248         -1.9908
LJ           0.37157         1.59282        0.997977
LJ          0.385985        -1.69574       -0.385461
LJ          -2.05106         2.22519         2.22927
LJ          -1.10997          1.9355       -0.530192
LJ           1.93971        -1.87254       -0.538153
LJ          -0.15055        0.871267       -0.904924
LJ          0.782846        -2.37036        0.503823
LJ          0.764895      -0.0579383         1.73141
LJ          -1.28388       -0.896528           1.998
LJ          0.555262        0.504343        0.589828
LJ           1.65395         1.55547          2.1166
LJ          0.389235         1.56068        -1.69004
LJ          -0.41185         1.79774         1.60672
LJ          -2.33907       -0.642577        -2.35977
LJ         -0.378931      -0.0559138       -0.649964
LJ           1.85187         2.07733        0.194067
LJ           1.72604        0.896138       -0.176286
LJ         -0.421755        0.387959        0.877966
LJ           2.27044        0.259715        -1.93319
LJ          0.520593       -0.412775         -1.1658
LJ           2.19272        -2.05763        -1.53729
LJ         -0.855571        -1.09765        0.935445
LJ          -2.26658          1.2876        -2.04067
LJ          -2.26028        0.426532         1.03618
LJ          0.948974        0.746454         2.30835
LJ            1.1287         1.43992        0.351272
LJ           2.08586         1.31476        0.966077
LJ           1.29568        -1.50142         0.13738
LJ          -1.50625       -0.468582       -0.522866
LJ           1.66692       -0.687722         1.55419
LJ          -1.96959         1.07804       -0.290832
LJ           1.27021        -1.63413         1.22691
LJ           1.78869        0.321169         1.83083
LJ          -1.52901        -1.84185       -0.145022
LJ         -0.618166        -1.60514      -0.0498367
LJ          0.604007         -2.2381         1.60388
LJ         -0.577862        -2.17662        0.807653
LJ          -1.39331         1.91598          1.3334
LJ          -1.88299        0.131015         1.97463
LJ         0.0742603        0.759811         1.84032
LJ           1.08343        -2.37819       -0.660155
LJ           1.57298        0.118262        -1.03368
LJ           1.91188         1.58578       -0.958289
LJ         0.0816836        0.106328        -2.04075
LJ         -0.808942        -1.98846        -1.06818
LJ           2.36152        -1.68549        0.330486
LJ           1.05778        -1.34591        -1.26151
LJ          -2.02627          1.1675         1.72444
LJ           1.35166       -0.513332       -0.124388
LJ          -1.63763         1.99757        0.399691
LJ          -1.65979         1.49106        -1.24148
LJ         -0.112762        -1.11589        -1.20381
LJ         -0.358261       -0.118168         1.84994
LJ       -0.00316495       -0.535868        0.961033
LJ           2.30203       -0.900745       -0.354354
LJ          -1.54962        0.207791        0.272502
LJ          -1.57355        -1.83767         1.23661
LJ          0.514126        -1.13225         1.67914
LJ           2.27301        -1.53193         1.37773
LJ          0.966263       -0.686312        0.842219
LJ          0.570893          1.6949          2.1391
LJ          0.233605         1.11699      -0.0599269
LJ          0.827056        0.363983       -0.341046
LJ         -0.679943       -0.645385       0.0848245
LJ         -0.688199        0.679931      -0.0322148
LJ         -0.245294       -0.899782         -2.2654
LJ          -1.15309         1.81709         2.31591
LJ           1.19085      -0.0259486        -1.93774
LJ           0.83384        -1.96387        -2.17149
LJ          -1.24856        -1.99242         2.24816
LJ          -2.03526       -0.680781         1.39538
LJ          0.315322       -0.675264       0.0125449
