108
#Comment!
LJ          -1.52491          2.0314         1.94483
LJ         -0.326328        -2.37868         1.98986
LJ          -2.19269       -0.369627         0.83503
LJ          0.664004       -0.349057         0.27013
LJ          -2.27657         2.26923       -0.555274
LJ          0.141346         1.61858       -0.600298
LJ           2.08253        0.331572         2.15779
LJ           1.44244        -1.80053       0.0690566
LJ           2.15933         1.08644        0.167286
LJ           1.24961        -1.89298        -1.03833
LJ          0.444254         1.18227         1.45164
LJ          -1.31259        -2.20676        -1.99914
LJ          -1.69681        0.724169         2.20619
LJ          -2.03195         1.42068       -0.983335
LJ           2.35507        0.640525         1.09175
LJ            0.4379        0.473783        0.783101
LJ           1.72796         1.97493      -0.0175809
LJ           1.71053         1.65758       -0.947541
LJ          -1.19473       -0.575766        0.345901
LJ         -0.790249         1.16493          2.0912
LJ          -0.44989        -1.63799       -0.388516
LJ          0.225707         1.45469         2.32611
LJ           2.16095         1.31041         1.78621
LJ            1.1769         1.71035         2.06779
LJ           1.45437        -1.29464         1.07999
LJ            2.2115       -0.412987       -0.590593
LJ          0.513775         2.17889          1.5002
LJ          -1.41462        0.331372        0.644904
LJ           1.99024       -0.705082        -1.92612
LJ           1.38369          2.0978        -1.75929
LJ         -0.588897         1.16114        -1.05503
LJ           1.01791         1.33422       -0.137361
LJ         -0.534288        0.864963         1.10511
LJ          0.563095        -2.02427        0.704054
LJ           1.28535       -0.291306         1.13859
LJ         -0.669125        -1.05507          1.3801
LJ         -0.536961         2.23275       0.0600163
LJ          0.558203         -0.4527        -1.80849
LJ          -2.06543        -2.19482        0.388707
LJ         -0.301448       -0.497104         2.17598
LJ           1.27338       -0.993663         2.26478
LJ          0.285063        -1.98457         -1.0065
LJ         -0.713643         1.79021        -1.81454
LJ          0.235143         1.87075        -1.53013
LJ           1.26561        0.128338          -1.559
LJ          -0.41534        0.643735        -1.91015
LJ           1.74283        -1.68147        -1.88358
LJ            1.1833        0.242856        -0.35485
LJ          0.593766        -2.30299        -2.34388
LJ          0.908295         1.18597        -1.32568
LJ           -2.3152         1.74632        0.917445
LJ           0.95927      -0.0505326         2.04736
LJ          -1.19413         2.05637        0.809877
LJ          -1.22655       0.0148207        -2.03775
LJ          -1.39737         -1.8184       -0.574504
LJ           2.31395         2.30654        -2.23533
LJ          -1.82729         1.64717        -1.91448
LJ         -0.140424        -1.21086        0.516901
LJ          0.397533        -0.67924         1.32269
LJ          -1.78656        -1.03087         1.36824
LJ           1.53605        -2.04744         2.00468
LJ         -0.844039        0.275461       -0.480765
LJ           1.89631        0.732223       -0.892697
LJ          0.565435        -1.32436       -0.209489
LJ          -1.88182       -0.483862         2.17382
LJ          -2.30425        0.274812        -1.70245
LJ          -1.05624      -0.0414853          1.7354
LJ          0.151877        0.511465       -0.209554
LJ          -1.36791         1.95297       -0.379751
LJ           2.05138        -1.40481       -0.665331
LJ           -1.2089        -1.65264        0.489466
LJ          -1.84681        0.560934       -0.508935
LJ           -1.4157        0.842973         -1.4905
LJ          0.771325        -1.48401        -1.79107
LJ           1.27406        0.741515         1.58734
LJ         -0.200789        -1.75207        -2.03615
LJ           1.77274         1.20656        -1.88533
LJ           1.61538       -0.686705       0.0948958
LJ           1.34673       -0.848867        -1.14305
LJ          0.115663        -1.51824         1.78027
LJ         -0.317753       -0.431014       -0.233603
LJ          0.251236         1.64704        0.417561
LJ        -0.0411873        0.449891         1.92016
LJ           1.38482        0.585528        0.631842
LJ          0.770998         2.34558       -0.220044
LJ          -2.25163         -1.4442         2.26075
LJ         -0.637916         2.36737        -1.02505
LJ          -2.02858        -1.75555        -1.48149
LJ          -1.19919       -0.784468       -0.606918
LJ          0.314723        0.346993        -1.16544
LJ            2.0601       -0.626643         1.67122
LJ         -0.675656         1.21167       -0.066051
LJ          -1.59794         1.25202        0.307374
LJ         -0.404162       -0.715767        -1.40695
LJ         -0.914815        -1.51087        -1.38782
LJ           1.22638         1.63702        0.995316
LJ           1.57298        -2.25642        0.970306
LJ         -0.401575        -2.01712         1.01658
LJ          -1.16192        -1.05193        -2.21567
LJ          -1.83212       -0.519689        -1.32547
LJ          -1.12695        -1.73384          1.9264
LJ          0.543325        0.648222        -2.09209
LJ           2.17852        0.161434        0.209705
LJ           -2.2397        -1.90393          1.4365
LJ          0.566206       -0.503729       -0.730242
LJ          -1.55463         1.12709          1.2872
LJ          -2.12337        -1.18705        0.114208
LJ          -0.32137       -0.118754        0.865529
