108
#Comment!
LJ          -2.32072         2.26947        -1.10876
LJ         -0.118633        -2.34332        -0.45708
LJ          -2.15823       -0.931455        0.705861
LJ          -1.24232        -1.99048         2.20488
LJ          0.575686       0.0114054        -1.91607
LJ            -1.199         2.21355       -0.721522
LJ           2.37644         1.95277         1.22028
LJ           1.65021         0.59629        0.252532
LJ         -0.278588        -1.74018        0.377992
LJ         -0.162942         1.47883           1.346
LJ         -0.536797         1.20949        -2.05557
LJ        -0.0740003         1.25787        0.185355
LJ           1.26278        -1.69736         0.44351
LJ         0.0829515       -0.934587        -1.55039
LJ         -0.500519         2.03998         2.10104
LJ         -0.555404       -0.921487        0.930469
LJ            -1.366         -0.8786         0.12065
LJ         -0.437234       -0.789705       -0.136523
LJ            1.9145         1.14729        -1.65193
LJ         -0.785315       -0.610261        -1.12835
LJ       -0.00357985        0.033805        -1.03127
LJ            1.3429       -0.438272        0.103679
LJ          0.773529          1.5266       -0.376281
LJ         -0.709011         2.09644        0.306643
LJ          -1.62732        0.467457         1.15154
LJ          -2.17671         1.11522         1.71122
LJ           2.31384       -0.914048       -0.242148
LJ          -1.39803         2.12274        -1.75362
LJ           1.58537       -0.535011         2.23482
LJ            -1.792        0.278131       -0.463193
LJ         -0.711032        -1.89135          1.3215
LJ          0.117199        0.728022         2.15065
LJ         -0.494817        -2.35732        -1.58239
LJ           0.79514        0.588622       -0.393937
LJ           1.47254         2.13466        0.813505
LJ          -1.85101         1.03907        -1.73067
LJ          -2.16692        0.149802        -1.54663
LJ          -2.05949         1.98493      -0.0326275
LJ          -1.08015          1.3153        -1.13285
LJ          0.709171        -1.89388        -1.75795
LJ           2.36037      -0.0192338        0.289625
LJ          -1.68749        -2.05321         1.30834
LJ          -1.82487        -1.65905       -0.582531
LJ          -1.36378        -0.59471        -1.91066
LJ           1.66938        -1.53437         1.50157
LJ         -0.920415       -0.915954         1.99814
LJ          0.104671       -0.515958         1.55338
LJ           1.90214       -0.263644       -0.869562
LJ          0.916106        0.232819         1.88485
LJ          0.841484        -0.43874       -0.770117
LJ           1.74418        0.878741       -0.674663
LJ          0.555653         2.36346        0.329357
LJ        -0.0486079         0.38794         1.20593
LJ          0.929076         1.04897        -2.16194
LJ          0.847614         1.25182        0.713932
LJ         -0.205598        -1.62924         2.30624
LJ          -1.18216         1.35093       -0.208208
LJ         -0.432448       -0.146809        -2.01687
LJ           1.70674        -1.70042         -2.1113
LJ          -1.40584       -0.523379         1.20487
LJ          -1.07537        -1.55174        -1.49341
LJ           1.37587        0.398179        -1.51988
LJ          0.686324        -1.15186         2.15604
LJ          0.179867        -2.28041         1.43927
LJ          0.815845        -2.26317       -0.718945
LJ           2.36926        -2.15596         2.03762
LJ         -0.811324        0.926005        0.725662
LJ           -1.3571        -1.95447        0.423215
LJ          -1.98938         1.21749       -0.768958
LJ           1.87228         1.56762       0.0884951
LJ         -0.789368      -0.0503996        0.508523
LJ           2.15855        0.084503         1.22425
LJ          0.271704        -1.44341       -0.600977
LJ          0.619662        -1.40601         1.21883
LJ          -2.09068       -0.303465         2.03248
LJ          0.228414         1.80457        -1.15446
LJ           1.82265        -2.15469       -0.417593
LJ          0.829415         1.55847         1.65243
LJ            2.3697        -2.00171        0.528599
LJ           0.41841          1.9743        -2.12958
LJ           1.47112          2.1031        -1.86732
LJ         -0.616159        0.560829       -0.418878
LJ           1.28179       -0.610414         1.21365
LJ          0.812894        0.130813        0.716461
LJ           1.75702          1.7419         1.91535
LJ          -2.00167        -1.55112        -1.92872
LJ          0.129792        0.023061       0.0416265
LJ           1.57998         1.78092       -0.969963
LJ          -1.49901         1.65261        0.821354
LJ           2.15574       -0.686502        -1.71962
LJ          -1.95921        -1.27945         1.87249
LJ           1.58779        0.868421         1.44493
LJ           1.03535        -2.23153          1.9139
LJ           1.28046        -1.25818       -0.458102
LJ         -0.772528       0.0410495         1.74827
LJ           1.09522       -0.954838        -1.62779
LJ          -2.28987         1.88723        -2.00503
LJ          -1.52781         1.83705          2.0032
LJ           2.05316        -1.49728        -1.11372
LJ          -1.79595        -0.75743        -1.05802
LJ          0.460648        0.839887        -1.32455
LJ           2.00245        0.403742          2.2823
LJ         -0.956852         1.06182         1.75428
LJ          -1.10871        0.350181        -1.35206
LJ          -0.79858        -1.59238       -0.528236
LJ          -1.48238        0.408181        -2.37263
LJ          -2.11919        0.938376        0.225724
LJ          0.434247       -0.865429        0.394798
