108
#Comment!
LJ          0.810937        0.150617        -1.82985
LJ           2.07607        -1.61342        -2.10113
LJ          -1.16109       -0.723826        -1.08666
LJ           1.60681         1.19853       -0.264908
LJ           2.28617         1.79653        0.170934
LJ          -1.38145       -0.549208         1.19146
LJ           1.09937        -1.88043        -2.11622
LJ          -1.23741         2.07755         -1.9594
LJ          0.651911        -1.00324       -0.440284
LJ           2.12099       -0.653345        -2.02135
LJ           1.87183        0.389631        -2.21971
LJ          0.292144        0.939112         1.02615
LJ         -0.996904        -1.84506        -1.18876
LJ           -1.2836       -0.132852         2.14982
LJ          -1.93397        0.750612        -2.33935
LJ          -1.95605        -2.09925       0.0509465
LJ         -0.296502        -1.13751       -0.699075
LJ           1.37632         1.00836         -1.4202
LJ          -1.72587       -0.272452        -1.71321
LJ          -1.88192        -2.08957         1.46243
LJ          -2.20409         2.30934         2.38055
LJ          0.016655        -2.37943       -0.403573
LJ          0.509262       -0.161887         1.26853
LJ         -0.780686       -0.761163         0.38311
LJ          -1.36757        0.558581         1.36297
LJ         -0.961737        -1.81101       -0.172117
LJ           1.22763         1.86718        -0.88211
LJ           2.08236         0.40323        0.997731
LJ          -2.26286      -0.0509756         1.83779
LJ          -2.35057        0.527998         -1.3494
LJ            1.9042        -2.21832       -0.378584
LJ         -0.702509         1.40654         1.07555
LJ           1.57548       -0.739017       -0.370818
LJ           1.96372        -1.48226        -1.04846
LJ            1.4163         2.31342        0.491623
LJ           -1.8212        -1.38537       -0.733211
LJ           1.15176       -0.968938        -1.56442
LJ           0.56999         2.01431        -2.28994
LJ         -0.693645         1.22647        -1.07739
LJ        -0.0244295         -1.3215         1.39562
LJ           1.18113          1.1907        -2.35424
LJ           2.04852        0.352106      -0.0650997
LJ         -0.189902         1.76934         1.90216
LJ           -0.1913        -1.52437        -1.71615
LJ          -1.66505         1.32102        -1.17168
LJ          0.074679       -0.597393         2.16943
LJ         -0.945467         2.24751         1.56065
LJ          -2.02073        -2.33816        -1.37728
LJ           1.70383         2.01488         2.00228
LJ           -2.0377         1.09665       -0.288131
LJ           2.16789         1.76325       -0.957241
LJ           2.07962         2.11909         1.10491
LJ         -0.893064       -0.939136        -2.12622
LJ         -0.296705         2.10088        -1.63591
LJ          0.924146         1.65299         1.52463
LJ          0.252554        0.419444        0.206114
LJ          -1.16078        0.350952        -1.18249
LJ         -0.652972       -0.194917       -0.388596
LJ            1.4926        -1.84562         1.31759
LJ           1.77071         2.27983        -1.67033
LJ          -1.24838        -1.66407        0.756658
LJ          -2.37255       -0.582011         -1.0211
LJ          0.348635         1.32022       -0.879658
LJ           1.52875         1.35436        0.792788
LJ         -0.560266         2.37891        0.523283
LJ         -0.504294       -0.102735         1.48156
LJ          -2.13899        -1.20174         1.06371
LJ        -0.0974522        -1.46105        0.266354
LJ           1.54777      -0.0767308         -1.2184
LJ         -0.289457         -2.0954         2.19106
LJ         -0.604324        0.424825        0.692549
LJ          -1.85512        0.157691       -0.490372
LJ           2.34738         1.48814        -1.88803
LJ           1.32035       -0.319644         1.82746
LJ           1.96576        -1.01664         1.82656
LJ          -1.84234       -0.905527         2.01675
LJ            1.1963        0.243169        0.524042
LJ          0.614458        -2.27157        -1.28997
LJ           -1.7142        -1.39466        -1.70266
LJ           1.19669        0.672077         1.39876
LJ           0.32772       -0.554672        0.396771
LJ          -1.69861         1.53211         1.57715
LJ          -1.07604          1.0622        -1.98478
LJ          0.325818         0.51198         1.95058
LJ          -1.24514         2.08396       -0.373166
LJ          0.935793        -1.95439       -0.388661
LJ          -1.37819        -1.87068         2.27844
LJ          0.183054       -0.540372          -1.532
LJ           2.08026         1.16988         1.60744
LJ          0.399288         2.24168        0.753148
LJ         -0.229592         1.43075       0.0155107
LJ         -0.612035        0.696382         2.00939
LJ            -1.617       0.0925246        0.472544
LJ          0.865351        -1.50437        0.694813
LJ          0.860648        -1.20121         1.85727
LJ          -1.62856         1.97824        0.698291
LJ         -0.465338        0.214022        -1.92671
LJ          0.577919        -2.22234         1.68963
LJ          -1.04011        0.815432       -0.111695
LJ          0.111131         1.19803        -2.05472
LJ           1.73572       -0.539452        0.864752
LJ          0.169172        0.329177       -0.930548
LJ           1.90795        -1.47138         0.29087
LJ         -0.974409        -1.29762         1.65568
LJ          -1.94802        0.966826        0.675444
LJ          0.686822         1.74024      -0.0141489
LJ          -1.79023         -0.9467        0.200405
LJ          0.902395     -0.00998039       -0.402362
