108
#Comment!
LJ          -1.52764       -0.866775         1.03402
LJ         -0.217905         2.34528        -1.70681
LJ          0.710179        -1.70225         1.51955
LJ          0.831409         1.04941          2.1008
LJ         -0.282093       -0.228167         1.40939
LJ           1.14587         1.97151        0.750808
LJ          -0.86156        -1.68496       -0.755533
LJ          -2.18295         1.76883        -1.41021
LJ           1.90038        0.880822        -1.72807
LJ          0.792028        -1.41342        -2.24421
LJ           2.36504        0.260209         1.48582
LJ           1.22686       -0.690922       -0.886155
LJ          -1.00818        -1.11413        0.207884
LJ          -1.04762        0.711802         2.19578
LJ          -1.74166         1.57019       0.0624941
LJ          -1.28165        -1.09977         2.06132
LJ          0.698796         1.01159        0.622959
LJ           1.88148         1.26263        0.362623
LJ           1.47673        0.249146         2.30155
LJ          0.980244         -1.6787        0.415214
LJ          0.649742       -0.840416       -0.124334
LJ          -1.52878         1.95775        0.956523
LJ          -1.92698         -2.0752         2.29141
LJ         -0.778952          1.2819        -1.15176
LJ         -0.237381         1.86085       -0.564139
LJ         -0.912537         1.60503        -2.02488
LJ           1.49713       0.0148981         -1.4718
LJ           2.30791         2.19446         1.62481
LJ          0.688977       -0.511853        -1.78056
LJ          -2.05707        -1.11404        -1.76901
LJ           1.80632        -1.78911         1.09227
LJ          0.380294         1.57406         1.40626
LJ         -0.200382        0.469592        0.234811
LJ           1.99624        -1.67323     -0.00649136
LJ          -0.74634        -1.65543         1.07909
LJ          -1.39461       0.0938213           1.491
LJ          0.588964        0.530702        -1.71907
LJ          -2.37564         1.07845        -0.56587
LJ           1.43836        0.393672          1.0904
LJ          0.550799       -0.714796         1.88012
LJ          0.139833        -1.90119       -0.775778
LJ           1.70017       -0.795997         0.14624
LJ          0.484659      -0.0400019        0.725157
LJ        0.00579769        -2.37874        0.917832
LJ          -1.70771        -2.01354       0.0492616
LJ         -0.251081       -0.436679       -0.214151
LJ         -0.165579        -1.48179         1.98668
LJ         -0.940174         2.11991        0.151516
LJ          -1.16486       -0.604683       -0.775234
LJ           1.56156        -0.92675         -1.8232
LJ         -0.947059         1.04278       -0.176301
LJ           2.22666        -1.87149        -1.34807
LJ         -0.361042       -0.390077        -1.35974
LJ         0.0216145         1.43306        -2.04299
LJ          -1.96942         1.06405         1.13064
LJ           1.16985         2.16287         1.73084
LJ          -1.25165        -2.15661        -1.58548
LJ           2.12972        -1.02145       -0.824495
LJ           -1.9149       -0.806991      -0.0782489
LJ         -0.865411       -0.220738        0.604956
LJ          0.516157        0.118763        -0.77443
LJ          -1.65985        0.471798        0.329247
LJ           2.37692         2.24537       -0.574483
LJ           1.36372        0.818982       -0.924738
LJ         0.0424097         2.30418         2.02483
LJ         0.0191897        0.701354         1.33201
LJ          -1.71543        0.907177        -1.65051
LJ           1.13507       -0.823272         1.00354
LJ           2.15724        0.266267        0.410823
LJ          -1.77375        -1.56812       -0.886635
LJ           1.93317         1.78651        -2.28501
LJ           1.11765        0.267403       0.0445615
LJ           1.06122         1.37337        -1.74016
LJ          -1.49044         1.61838         1.84641
LJ          -2.20265       -0.392922         2.32632
LJ           2.20298       -0.830065        0.964753
LJ          0.151241         1.01548       -0.967761
LJ          -1.05921        -1.12249        -1.64042
LJ           1.88147        -1.95369         2.28079
LJ          -1.89309        -1.88243         1.08945
LJ           1.07286         2.36036        -2.00183
LJ         -0.521187       -0.412795         2.36116
LJ         -0.360464        -1.81512        0.158953
LJ            2.2107         2.22981        0.522168
LJ          -1.34996         2.21414       -0.699116
LJ         -0.578486         1.74881          1.4895
LJ          -2.19513        0.999731         2.16492
LJ          0.589387         2.01412        -1.14608
LJ           1.12474        -1.71551        -1.11362
LJ         -0.941217         -2.1974         2.11779
LJ          0.877149         1.44994       -0.371998
LJ           1.58143         1.98597        -1.18019
LJ          -1.58786        0.452917       -0.694257
LJ         0.0635058        -1.02003        0.741401
LJ           1.95114       0.0155197       -0.517643
LJ        -0.0501424        -1.29169        -1.75741
LJ         -0.218434         1.44725        0.479895
LJ          -0.63978        0.270447       -0.710118
LJ           1.48661       -0.685398         1.94983
LJ          0.370192        0.167537         2.17347
LJ          -1.31456      -0.0845716        -1.60821
LJ          -2.27586      -0.0694138        -1.32318
LJ         -0.902187         0.85335         1.06534
LJ         -0.454434        0.534027        -1.78355
LJ          -2.30923        -1.30881         1.78627
LJ           1.73209         1.20106         1.52458
LJ          0.417942         2.29615       0.0317749
LJ           1.40942         2.31392       -0.212463
