108
#Comment!
LJ          -1.10076        -1.46449         1.81928
LJ         -0.323644         2.14503       -0.625795
LJ          0.910303        -1.68508         1.90534
LJ          0.357556        0.187291        -2.02418
LJ         -0.945465        -0.84991         1.00389
LJ           1.77376         1.84159         1.47136
LJ         -0.912068         -1.8075        -0.20598
LJ           -1.7573         1.85397        -1.66861
LJ          -1.76525         1.08187       -0.900683
LJ         0.0668179        -1.74427       -0.827884
LJ           -2.3218        0.106691         1.99377
LJ           1.23794       -0.416856        -0.14696
LJ          -1.66846        -1.32299        0.508705
LJ          -1.23096        0.442261         1.67305
LJ          -1.46959         1.01468        0.352484
LJ          -1.65002        -2.01517         -2.2039
LJ          0.524222         1.77438        0.268761
LJ           2.26978          1.0983         1.89775
LJ           2.21646        0.239456        -1.69155
LJ           1.31612        -2.08576         1.14203
LJ            1.0508       -0.944256        0.860393
LJ           -1.5402          1.3613         1.46746
LJ          -2.11099        -1.42538        -1.47152
LJ        -0.0592246         1.08932        -1.65193
LJ          0.379521        -1.89074        0.180194
LJ          0.130707        -2.37328        -1.58741
LJ           1.13222        0.731527        -1.34012
LJ           1.98006         -1.9913         2.11351
LJ           1.23487       -0.256346        -1.34907
LJ           1.90248        -0.81901       -0.761139
LJ          -2.27844        -2.14734         1.17916
LJ          0.565961         1.60569         1.21621
LJ         -0.910428        0.520737        -0.38226
LJ           1.32443        -1.38427      0.00715407
LJ         -0.761018         2.08705         2.00126
LJ          -1.40027       -0.933264         -2.1498
LJ         -0.070335        0.361725       -0.961886
LJ           2.22885         1.23331       -0.106199
LJ           1.31048        0.745556         1.48005
LJ            1.0184       -0.778709        -2.20326
LJ           1.03826        -1.20675        -0.98452
LJ         0.0718634       -0.704374        0.878594
LJ           0.33139        0.718884        0.746722
LJ        -0.0809798        -2.37083         1.31536
LJ          -2.36423          2.2792       0.0738631
LJ         -0.656978       -0.827865        0.102297
LJ         -0.550502        -1.36602        -1.90566
LJ         -0.340637         2.16107        0.319839
LJ         -0.694724       -0.508006        -0.85416
LJ           1.30783        0.335143        -2.24074
LJ         -0.346923         1.19588        0.134617
LJ          -2.33629         -1.5371       -0.177612
LJ          0.218872       -0.745573        -1.25207
LJ         -0.515377       -0.252274         -1.7974
LJ          -1.88918        0.985064        -2.03316
LJ           1.65509         2.29828        -1.77267
LJ         -0.876451         1.48813        -1.12365
LJ           1.10853       0.0617254        0.697399
LJ          -1.26783      0.00216857        0.468408
LJ          -1.84117       -0.569085         1.21752
LJ        -0.0521898      -0.0116096       0.0456769
LJ          -2.06332        0.550739         1.01735
LJ          -1.75359        -2.17453       -0.965794
LJ           1.40214         1.33721       -0.591665
LJ           2.03427         1.18113        -1.51975
LJ          0.327284        0.500176         1.67503
LJ          -1.94443        0.338334       -0.225009
LJ            1.9978        -1.23259        0.777293
LJ           1.95908       -0.292996         1.12937
LJ          -1.19052        -1.34262        -1.14191
LJ          -2.16364         1.96566         2.10446
LJ          0.902298         0.52167       -0.278839
LJ           1.02377         1.64689        -1.44825
LJ         -0.938688         1.36419        -2.14238
LJ           2.34512       -0.642496        -2.11882
LJ          -2.30476       -0.452421        0.322198
LJ          0.257019         1.25719       -0.664834
LJ         -0.907906         2.35047        -1.62526
LJ           1.71622        -1.41085        -1.80841
LJ          -1.27273        -2.26044         0.81043
LJ          0.872529         2.20268         -2.3424
LJ         -0.503886         0.51843         2.29514
LJ         -0.445892         -1.6752        0.674892
LJ          -2.26961          1.5211        0.876713
LJ          -1.38282          2.0468      -0.0357687
LJ          0.195222         1.46981         2.16004
LJ          -1.53172       0.0605773        -2.13933
LJ          0.844034         2.30489       -0.761607
LJ          0.485932        -1.51413        -1.84651
LJ         -0.037791        -1.90942         2.17322
LJ           1.44143         1.38268        0.656626
LJ           2.28703         1.92596       -0.852619
LJ          -1.58691       -0.870266        -0.36378
LJ          0.212151       -0.577711         2.00464
LJ           1.93947        0.408761         0.27147
LJ          0.289396       -0.929499       -0.135887
LJ         -0.549927         1.18579         1.11815
LJ         -0.982562        0.510531        -1.33781
LJ           1.78471       -0.988035         1.90968
LJ           1.00009       -0.295777         1.60842
LJ          -1.92771       -0.382287        -1.30758
LJ           1.85582        0.243336       -0.720277
LJ         -0.460645        0.110798         1.21551
LJ         -0.766126       -0.484493         1.97856
LJ           -2.0729        -1.37087         1.78808
LJ           1.41982         1.35578         2.33052
LJ            1.2995         2.34391        0.131234
LJ           1.76095        -1.98072       -0.644069
