108
#Comment!
LJ           2.12579       -0.999333       -0.819216
LJ         -0.076954         2.03334        0.183924
LJ           2.05135          1.6291        -1.59928
LJ         -0.579373        -1.43928         1.49498
LJ           1.96788        0.536823        -2.00486
LJ          -2.33717        0.537044        -1.18391
LJ            -2.289         1.29147         1.16805
LJ         -0.313657        0.195697        0.833612
LJ           1.68346       -0.408547         1.15203
LJ           1.03464         2.13188         1.38513
LJ         -0.937409         1.01591       -0.687701
LJ          0.602887          1.4436        0.822034
LJ           2.07313         1.73141        0.273017
LJ          0.212222        -1.02288       -0.395245
LJ        -0.0760976          1.4384         1.97516
LJ           1.55895       0.0915122        0.296186
LJ          -1.21928         2.17074       -0.256909
LJ           1.64585       -0.431724          -1.472
LJ        -0.0488177        0.783658        -1.10431
LJ          -1.33736        -1.02051         1.91525
LJ          -1.73197       -0.683053       -0.111108
LJ          -1.43796        0.546159        0.845972
LJ           2.24358        0.699161        0.288421
LJ          0.417597      -0.0571511         2.19541
LJ           -1.0795        -1.78641         -2.1904
LJ           1.92225         1.28318       -0.687245
LJ          -1.70328         1.39858         -1.2322
LJ         -0.839678     -0.00354597       0.0106179
LJ          -2.33354        -1.78052       -0.114069
LJ            2.1217        -2.01788        -1.38859
LJ          0.915982        -1.07124        0.438288
LJ         -0.893584        0.158587        -1.13233
LJ         -0.402662         1.89503        -0.89927
LJ           1.95784       -0.828584        0.181135
LJ           1.60643         1.43428         1.76666
LJ           1.48638       -0.565596         2.21866
LJ           -2.1965       -0.195068        0.774201
LJ           0.68299        -2.24237        -0.54636
LJ         -0.852674         1.06036        -2.05698
LJ         0.0592042          -2.242        -1.76311
LJ         -0.113129       -0.805158        0.808058
LJ          -1.04773       -0.942005        -1.37658
LJ         -0.209346        -1.71295        0.473629
LJ           -1.6044         0.31413         1.90432
LJ         -0.935006         2.15526        0.688121
LJ           2.21059        0.441631         1.66558
LJ           1.07727        0.676895         2.29812
LJ          -1.48191        -1.52124       -0.680793
LJ         -0.234316         1.06399       0.0119697
LJ          0.126982      0.00301246        -0.47349
LJ            -0.192       -0.302404        -1.72263
LJ           1.38031        -1.48499         1.73375
LJ          0.246122        0.674163         1.39701
LJ         -0.472639        -1.90866       -0.470007
LJ          0.638558         1.60432       -0.915252
LJ         -0.296956         -1.0945        -2.34739
LJ           0.61502       0.0868802        -1.33321
LJ          -1.85794       -0.372406        -1.17383
LJ          0.596019       -0.889676        -1.97076
LJ          0.588014         0.47622        0.320042
LJ            1.8773         2.29211         2.36123
LJ           1.22143        0.529971       -0.656935
LJ           1.72163        -1.43615         -2.0606
LJ          0.875873        -1.60405        -1.36857
LJ           2.03133         2.21633          1.3093
LJ          -1.81828         2.25998        -1.88315
LJ          -1.36145          1.2387         1.60027
LJ         0.0630139         2.21159         1.15646
LJ         -0.618655        0.554688         1.91693
LJ          -1.89123         2.02988         1.83565
LJ           1.24756        0.652735         1.18805
LJ          -2.11616        -1.24905        -1.76064
LJ           1.33802         -1.4352       -0.396423
LJ          -1.69489        0.390895       -0.390694
LJ          0.479698       -0.938335         1.80902
LJ           1.05023          2.2328        0.335141
LJ         -0.091892         -1.2672        -1.29993
LJ           1.65168        -1.77469        0.587085
LJ         -0.850923         2.07747         1.73763
LJ         -0.778105       -0.880752       -0.399456
LJ         -0.807123         2.02575        -2.05807
LJ           2.15926      -0.0875513       -0.438022
LJ           1.22655         1.03348         -1.5482
LJ         0.0309963         -2.0388         2.00702
LJ           1.28463         1.10776        0.123752
LJ          -2.03053         1.10309        -2.26995
LJ         -0.512721         1.37067         1.09257
LJ           1.66717        -2.36976       -0.575888
LJ          -1.36769        -1.95301         1.28612
LJ          -2.11534        -1.77128         2.00067
LJ          -1.90417         2.32725        0.592097
LJ          0.678169       -0.234129         1.09246
LJ          -2.33056       -0.317643        -2.10672
LJ           1.07255       -0.444174       -0.410738
LJ          -2.31281       -0.776379         1.72597
LJ          -2.14631         -1.2896        0.871324
LJ         -0.966769        -2.10126        -1.25277
LJ          -1.69901          1.3779         0.31123
LJ          -1.19802        -1.48432        0.346182
LJ          -1.19505       -0.584084        0.844301
LJ          0.154766        0.734576         -2.0647
LJ           0.96154        -2.01323        -2.29427
LJ            1.2068         2.18706        -1.48472
LJ          -1.21935       -0.303056        -2.09741
LJ          0.604783        -1.70584         1.12399
LJ          -2.10481           2.248       -0.734246
LJ          0.666868         1.81021        -2.27505
LJ         -0.361974       -0.402037         1.66496
