108
#Comment!
LJ        -0.0442314        -1.92457         1.87203
LJ          -1.13311        0.537809         1.20751
LJ         -0.146682         2.36355        -1.49738
LJ          0.731985        -1.19712         0.15683
LJ          -1.44536        0.748225        -0.56481
LJ          -1.61286       -0.668937        -2.02972
LJ           1.28858         2.10261        0.993882
LJ         -0.854607        -2.16803        0.393611
LJ           1.63979          2.1468       -0.102089
LJ           1.61612        -1.74375        0.786957
LJ          0.951676        0.864849        0.960053
LJ         -0.569976       -0.778967        -1.00345
LJ           1.26498        -1.22918          1.9544
LJ          0.286163       -0.690605         1.65565
LJ            1.2204       0.0535639        0.247112
LJ         -0.775789      -0.0390099       -0.339234
LJ           1.24469         0.53314       -0.881737
LJ          0.193833         0.20641       -0.655144
LJ           1.57456       -0.907465       -0.247054
LJ          -2.30858          2.0686        0.476548
LJ           -1.4775          1.5236         2.37914
LJ          -1.85096        -1.79712         0.82736
LJ          0.195202         1.40076        0.591248
LJ           2.06346       -0.720957        -2.06812
LJ          -2.10413        0.788365         1.53467
LJ          -1.22825        -1.52501        -2.30384
LJ           2.15333        -1.52688         1.65583
LJ          0.280089        -1.30159        -1.09442
LJ          -1.76029        -1.00475         1.78084
LJ         -0.391197         1.99979         2.24216
LJ           1.24178         1.53759         1.79511
LJ         -0.966381         1.70447        -1.21005
LJ          0.683682        0.957654          2.2769
LJ            1.9185         1.32375          1.0988
LJ          0.171121       -0.288126        -1.57074
LJ           1.91765       -0.237127        -1.03887
LJ          -1.60471       -0.137732        -1.02788
LJ          -2.13091       -0.953194        -1.19697
LJ          0.640635        -1.66495         1.22127
LJ          -2.19015         1.65564       -0.424563
LJ          -1.28437        -1.40398        -1.09572
LJ          -1.84917        -2.26215         2.08637
LJ          0.944022        -1.77382         -1.7216
LJ           1.69563         2.37238        -1.19126
LJ         -0.574057       -0.565484        -2.15794
LJ          -1.93971       -0.153425          1.1714
LJ            1.9745       -0.443163         1.56026
LJ           1.60821        -1.20898        -1.24927
LJ           1.14141        0.177161        -1.85586
LJ          0.817144         1.38256        -0.38604
LJ           1.08767        -1.79365        -0.58004
LJ         -0.521834       -0.262557          1.0112
LJ          -1.72742        -2.14677       -0.108564
LJ          -1.22049        -1.01251        0.812301
LJ          -1.94407        -2.30682        -1.17369
LJ         -0.861794        -1.26073        -0.13024
LJ         -0.230526        -1.36308        0.648389
LJ           2.29366        0.361845        -1.76146
LJ           2.18933      -0.0635277         -0.1197
LJ          0.865019       -0.479514       -0.877826
LJ          0.962737      -0.0132984         1.43369
LJ           2.15207          1.3667         2.12795
LJ           -1.7412       -0.790356       -0.230139
LJ          -1.05105         1.59666       -0.172231
LJ          0.617698         1.02315        -1.47775
LJ          0.613396          2.3229         0.15723
LJ         -0.113843          1.7729        -0.51471
LJ          0.920599        -2.23116         2.01397
LJ           -1.6299         1.00883        -1.54839
LJ         -0.460528         1.23255        -1.83204
LJ           2.31464       -0.931785        0.467392
LJ         -0.998154         -2.2684         1.58844
LJ         -0.698406        0.992035         2.00779
LJ         -0.689863        0.511365        -1.17357
LJ          -2.33504        -1.75855        -1.92955
LJ          0.772844         2.11989        -1.09086
LJ           0.25477          0.2816         0.37324
LJ          -1.12795         2.34689        -1.92781
LJ          -2.02278         1.01356        0.521296
LJ         0.0288605        0.221906         2.21968
LJ           1.65452         1.42119       -0.905518
LJ          -1.61382         0.10741        0.164861
LJ            1.6196         1.08383        -1.84544
LJ           2.03471         0.37428        0.774431
LJ          0.567901          1.9506        -2.07685
LJ           2.11153         2.26831         1.39334
LJ         -0.756396         1.49668        0.977526
LJ        -0.0550711        -2.35313        0.962287
LJ         -0.607802        0.745753        0.280141
LJ           -0.8271        -2.18703       -0.694334
LJ           1.66449         1.01404        0.079966
LJ       -0.00463296        -0.56904       0.0209857
LJ          -1.18984        0.367827        -2.05164
LJ           1.01164       -0.752337        -1.97028
LJ         -0.731439         -1.2824         1.62444
LJ           1.63263          0.5047         2.02816
LJ        0.00992337        0.600985         1.30593
LJ          -2.36905        0.600083       -0.781464
LJ          -2.11111      -0.0448027         2.25821
LJ        -0.0186688        -1.80579       -0.229117
LJ           2.19006        -1.67724       -0.250452
LJ          -1.66095         1.77223         1.21879
LJ          0.101269        -1.33752        -2.10798
LJ          -1.13161       -0.216318         1.84195
LJ          0.238626         1.56212         1.57699
LJ           1.37225       -0.757434        0.818412
LJ           1.60389         2.08739         -2.1975
LJ           2.34744         1.65575        -1.59867
