108
#Comment!
LJ          -2.17619      -0.0794224        -1.22661
LJ          -1.14563        -0.39552        -1.48551
LJ        0.00950543       -0.805213       -0.591247
LJ         -0.108601        0.132956        0.454185
LJ           2.02208        0.957063        0.601036
LJ           -0.8024        -1.29506        -1.78309
LJ           -2.0347         2.24488       -0.619963
LJ         -0.575756        0.136269       -0.831224
LJ           1.15542        -0.56121       -0.243348
LJ          -0.31087        -1.67393        -0.20889
LJ          -1.64049         0.12812        -2.15232
LJ          0.128532         1.25817        0.359187
LJ         -0.579592         2.23098        -1.46587
LJ          -1.10245        0.787582        0.994678
LJ          -2.03269          1.6934        -1.49627
LJ           1.91061        -2.37606         1.16652
LJ            0.9613         1.50312       -0.499471
LJ          -2.09802         1.76776        0.854727
LJ          -1.41725        0.669376        -1.31958
LJ           1.47242        -2.12337           2.136
LJ           1.99097        -1.70324        -1.03906
LJ         -0.385247       -0.790805        0.458166
LJ         -0.540383       -0.231716         1.26671
LJ         0.0479398        -2.09524        -2.31406
LJ          -2.15898         0.35639         1.12689
LJ          -1.28352        -1.12295         1.26285
LJ          0.828916       -0.874167        -1.19598
LJ          -2.33324         1.01365        -2.19478
LJ          -1.47641        0.217554       -0.450697
LJ          0.512509         2.19482          0.2026
LJ          0.660472       -0.540272        0.532242
LJ         -0.737167         1.31432       -0.795647
LJ           -2.1148        -1.50802       -0.323312
LJ          -1.73104        -2.20103         0.33986
LJ          -1.47658          2.3791         1.40752
LJ           1.53017        -1.26301         1.11131
LJ         -0.021292         1.68322         2.15685
LJ            2.0831          1.4733       -0.292604
LJ         -0.518183         1.72578        0.935933
LJ        -0.0454085       -0.667134        -1.64252
LJ           1.31505         1.69621        0.777072
LJ           1.19853         1.12831        -1.58316
LJ           1.43802        0.771584         2.24885
LJ         0.0425862       -0.248873         2.19127
LJ          -1.15649         -1.9247       -0.596116
LJ          0.503476        -2.05347         1.49262
LJ          -2.21508        -1.71669         1.69415
LJ           1.99932         2.32645        0.227013
LJ          0.750143         2.11095        -1.82421
LJ           -1.2058        -1.29073        0.296505
LJ         -0.614434        -2.04858        0.729505
LJ          -1.86104         0.79183        0.272317
LJ          0.825999        -1.41841         2.34876
LJ          0.423759        0.113939       -0.421142
LJ          0.394816         1.77332         1.24746
LJ          0.369809        0.508534         -1.5261
LJ          0.903804       -0.340326         -1.9411
LJ          0.484465       0.0386818         1.33061
LJ           2.20121        0.084949         2.12536
LJ           1.10487        0.805949         1.31637
LJ           2.29055         -1.8687        -2.08356
LJ          -1.52256        -2.20266        -1.69029
LJ         -0.238305        -1.25365         1.88025
LJ           2.12511        0.291279       -0.197908
LJ          -1.35594        -1.77951         2.19561
LJ           1.34808       -0.273657         1.78553
LJ           2.33631       -0.598508         1.13073
LJ          -0.12899        0.867178         1.22778
LJ           1.94547         1.45333         1.57389
LJ         -0.852554        0.835751          2.0962
LJ          -1.87142         1.19396         1.73369
LJ         -0.990561       -0.948422       -0.603863
LJ          -1.87885         1.19222       -0.646578
LJ           1.71028        0.147809        -1.73313
LJ           1.63726         2.03642        -1.01714
LJ           1.81184        -1.07082         2.06247
LJ          0.747724        -1.69067         0.57845
LJ         -0.518948        -2.25367          1.7213
LJ           1.94988       -0.734386       -0.832412
LJ           1.01486         1.76455         2.01426
LJ          -2.01329        -0.76781        -2.26465
LJ          -1.95512         2.11244          2.2495
LJ          0.182752         1.11293       -0.801565
LJ          0.365434        0.714616          2.1498
LJ          -1.44626      -0.0907301          0.5798
LJ           1.48455        -1.63459       -0.106403
LJ          -0.66113         0.37657        -1.87211
LJ         -0.041736        -1.64885        -1.23713
LJ          0.368276         2.26833       -0.825105
LJ         -0.552204         2.07002      -0.0998056
LJ           1.87139         1.95034        -2.01363
LJ          -1.05186          1.6556        -2.17013
LJ           2.14573        0.876415        -1.21512
LJ          0.634616        -1.56817       -0.486298
LJ          0.724388       -0.924109          1.4433
LJ          -2.23861        -1.45604        0.774738
LJ          -1.65498       -0.281234         1.67796
LJ          -1.89842        -1.03835        -1.27472
LJ         -0.690929        0.855288        0.101535
LJ         -0.231737         1.26484        -1.71396
LJ           1.46403       0.0182265        0.833451
LJ          0.935076        0.687561        0.154941
LJ           1.67386       -0.995741        -1.75539
LJ         -0.944811       -0.619062         2.20759
LJ          -2.24355       -0.634967        0.149839
LJ           1.09036         -1.7969        -1.38155
LJ          -1.34216         1.65014         0.24712
LJ           1.29716        0.261069       -0.833631
