108
#Comment!
LJ           1.24361         2.18691        0.247218
LJ           -1.7141        0.905468        -1.07889
LJ          -1.32123        -1.17711         -1.7812
LJ          -1.85347        0.929567         1.65068
LJ            1.4292       -0.987402        -1.96769
LJ         -0.223973         2.04711       -0.977769
LJ           1.97232        -1.84565      -0.0313662
LJ           2.11719        -2.04271         1.83132
LJ        -0.0548106         1.53371         2.03219
LJ          -1.89033         1.38041        -2.24217
LJ          -1.05559         2.09706         2.19853
LJ           2.32779      -0.0322522       -0.414457
LJ          -1.90498        -1.54464        0.877778
LJ          0.551559         1.81805        0.936674
LJ         -0.922508         1.22065         1.16517
LJ           1.35165         1.23558        0.654938
LJ        -0.0237111        -1.19997         1.68913
LJ           1.44869        -2.15398        -1.75853
LJ         -0.667562         2.20617         1.28228
LJ         -0.321477       -0.576062        -1.09844
LJ         -0.964023        0.867515        -0.11325
LJ           1.23215        -1.68122          2.0465
LJ           1.58444         1.07381       -0.351416
LJ           2.29006         1.87869       -0.184769
LJ         0.0407271       -0.093114         1.47878
LJ           2.35616        0.960723        0.798582
LJ          -2.30489        -1.94357        -0.86425
LJ         0.0176181        0.306805         -1.4734
LJ         -0.391735       -0.737171        0.900547
LJ          0.492961        0.568697        0.461999
LJ         -0.934256        0.826353         -1.9361
LJ          -2.20595         0.88872       -0.138117
LJ         -0.485032        0.305857        0.627335
LJ          -2.13459        0.398216        -1.89802
LJ          0.340398        -2.35118       -0.168777
LJ          0.232558        -2.32992         1.69195
LJ         -0.284139        -1.49022       -0.410518
LJ           -1.5644        -2.12548        -1.59335
LJ          0.450223       -0.428019        0.475035
LJ           -1.3347       -0.193835        -2.18567
LJ          -2.06226         1.92832          1.6841
LJ          0.979628        -1.60977        0.221803
LJ          0.942208        0.679972        -1.19145
LJ            1.5333        0.558869         1.41499
LJ           1.60851       -0.180507        -1.40395
LJ           2.20832         2.27749        0.938941
LJ         -0.054914         1.31256        -1.79126
LJ         -0.327153         -1.5125         -1.4015
LJ           1.46817         2.22827        -0.73853
LJ         -0.983625        -1.47975         1.44428
LJ           1.34667       0.0935117       -0.501625
LJ         -0.513583       -0.309877       -0.111665
LJ          0.676291         1.74853        -1.22812
LJ          -1.78383         1.77084        0.575106
LJ         -0.853339       -0.574625         1.81509
LJ           1.36309        -1.45443       -0.845185
LJ           1.53549       -0.723864        0.156365
LJ           1.21208       -0.315048         1.06412
LJ          0.713988       -0.395667         2.07376
LJ          -1.00389        -1.72594        0.488391
LJ         -0.802391        0.486852         1.89924
LJ           0.69971        -0.85464       -0.370788
LJ          -1.07429        -1.99007       -0.728892
LJ           1.00162         2.08571         2.24095
LJ          -1.85678       -0.878387         1.73277
LJ          -1.79801        -2.17586      0.00519949
LJ          -1.17517       -0.921994       -0.493184
LJ           1.69772        0.255635        0.450972
LJ          -1.53243        0.113896      0.00760635
LJ        -0.0301626        -1.57331        0.689256
LJ          -1.57129         1.89978       -0.649069
LJ          0.440645        -1.32872        -2.08599
LJ          0.526171        0.893876         1.45117
LJ          -2.04929        -1.14367      -0.0736702
LJ         0.0457972        0.542567         2.31524
LJ          -0.19277         1.38075        0.385658
LJ          -0.12346       -0.434076        -2.14781
LJ           1.68084         1.75014         1.58316
LJ           1.14524         -2.2217         1.21526
LJ          0.862639        -1.25126         1.16565
LJ           -2.3527       -0.463904        0.605477
LJ          -1.30935        -0.75015        0.542574
LJ           1.56789       0.0420921         -2.3586
LJ          -1.80816       -0.215438        -1.15908
LJ            2.3018        -1.56502        -1.91827
LJ          -2.30388       -0.581538        -2.11567
LJ         -0.941894        0.295755       -0.987632
LJ           1.50668         1.49891        -1.64273
LJ         -0.893861         2.09279       0.0450843
LJ         -0.482937        -1.83464          2.2657
LJ          -2.37067         2.26713        -2.11877
LJ          0.617695        -1.87004        -1.26924
LJ           2.03146        0.642025        -1.12766
LJ          -1.50377      0.00542626         1.32643
LJ         -0.145269         1.06944       -0.778868
LJ          0.977368        0.939537        -2.28579
LJ           2.34368       0.0727875         1.70483
LJ          0.692606       -0.627428        -1.34793
LJ           1.74373       -0.857699         1.70524
LJ           2.19225       -0.925536        -1.12706
LJ           -1.1461         1.68796        -1.48999
LJ           2.37117         1.63655        -1.15064
LJ           1.96053        0.924199         2.31227
LJ          0.395045        0.232717       -0.429478
LJ          -1.72015        -1.82623         2.16505
LJ          0.675141         1.37717       -0.151982
LJ           1.86944        -1.58496        0.988434
LJ          0.146685         2.34685        -2.00792
