108
#Comment!
LJ          -2.33623        -2.18865         -2.3015
LJ          -1.55675        -1.44786         2.36506
LJ          -2.11362        -1.49878        -1.49291
LJ          -1.56866         2.28445        -1.49491
LJ         -0.877086         2.36918        -2.18861
LJ        -0.0188499        -1.58887         2.19093
LJ         -0.742702        -1.64756        -1.49235
LJ         0.0380757        -2.28469        -1.64486
LJ          0.701848        -2.27227          2.3651
LJ           1.67108        -1.50614         2.31144
LJ          0.837336        -1.50571        -1.70372
LJ              1.65        -2.07409         -1.6885
LJ          -2.32813       -0.813874        -2.23197
LJ          -1.54322       0.0480204         2.26325
LJ          -2.16899        0.184938        -1.76292
LJ          -1.49874        -0.65297        -1.41834
LJ         -0.938997       -0.741923        -2.19698
LJ         -0.162428       0.0268725        -2.26425
LJ         -0.833617        0.163585        -1.54202
LJ        -0.0329411       -0.961469        -1.66956
LJ          0.696352       -0.748286        -2.28556
LJ           1.80883       0.0320774          2.3467
LJ          0.698284       0.0872321        -1.77123
LJ           1.56567       -0.671761         -1.7033
LJ           2.24529        0.938968         2.36919
LJ          -1.72113         1.89229         2.27499
LJ           2.33131         1.61859        -1.56208
LJ           -1.5311        0.906879        -1.55018
LJ         -0.956595        0.907448        -2.36953
LJ        -0.0866911         1.70379        -2.25898
LJ         -0.790809          1.5288        -1.60771
LJ         -0.052297        0.889542        -1.68004
LJ           0.86645        0.888814         2.35305
LJ           1.46809         1.88744         2.25142
LJ           1.03011         1.64648        -1.56953
LJ           1.52597        0.763419        -1.67795
LJ          -2.31531         -2.2148        -0.79615
LJ          -1.37923         -1.4507       -0.679243
LJ           2.32299        -1.40827      -0.0882018
LJ          -1.48135         -2.3515       -0.231607
LJ         -0.500094        -2.30737        -0.64794
LJ          0.239964         -1.5265       -0.849741
LJ         -0.615122        -1.46914        0.293713
LJ            0.4558          2.2387       -0.121239
LJ           1.28133         2.36456       -0.818396
LJ           1.74843        -1.41379       -0.946685
LJ          0.871337        -1.55759        0.112815
LJ            1.4701        -2.37348       0.0948607
LJ           2.33821        -0.70255        -0.97166
LJ          -1.45444        0.069809       -0.610902
LJ          -2.29099       -0.143487       -0.115233
LJ          -1.24101       -0.766514       0.0362616
LJ         -0.454359       -0.885776       -0.645575
LJ         0.0400369       -0.070432        -1.00859
LJ         -0.484705     -0.00870622       -0.128004
LJ          0.263143       -0.728329      -0.0180303
LJ          0.929224       -0.802614       -0.985648
LJ            1.5541       0.0541504       -0.942484
LJ          0.719827        0.300078       0.0847964
LJ           1.33958       -0.638569      -0.0673629
LJ          -2.26815         0.77677       -0.764506
LJ          -1.54369         1.59166       -0.805369
LJ           2.37627         1.73875        -0.10826
LJ          -1.44262        0.915873      -0.0336368
LJ         -0.871105        0.819606       -0.857384
LJ         0.0958656         1.71667        -0.97714
LJ         -0.812744         1.68831       0.0683839
LJ         0.0379473        0.745875       -0.431374
LJ          0.888381        0.791216       -0.920903
LJ             1.682         1.46585       -0.741764
LJ          0.823729         1.30939      -0.0571931
LJ           1.70312        0.754546       0.0108363
LJ           2.32831        -2.34708        0.681413
LJ          -1.66667        -1.70757        0.547636
LJ          -2.19334        -1.43448         1.38062
LJ          -1.55197        -2.28525          1.5293
LJ         -0.882479        -2.30033         0.73436
LJ          0.165085        -1.30676        0.787573
LJ         -0.793871        -1.62713         1.44281
LJ          0.114007        -2.29144         1.44963
LJ           1.01498         2.31291         1.01035
LJ            1.6864         -1.4613        0.832161
LJ          0.798646        -1.36788         1.63351
LJ           1.84449        -2.18629         1.58579
LJ          -2.20441       -0.743464        0.674558
LJ          -1.55854        0.127411        0.734836
LJ          -2.23419     0.000375042         1.53037
LJ          -1.48578       -0.752863         1.36187
LJ         -0.614332       -0.681126        0.940878
LJ        -0.0159947        0.236592        0.960345
LJ         -0.825712        0.113202         1.51399
LJ        -0.0149974       -0.635266         1.77426
LJ          0.993779        -0.73487          0.8841
LJ           1.83106       0.0102133        0.704221
LJ           0.94383     0.000444738         1.52683
LJ            1.7583       -0.756993         1.65526
LJ          -2.20899        0.884587        0.733117
LJ          -1.59957         1.73695        0.777853
LJ           2.29223         1.64583         1.70521
LJ          -1.70747        0.856907         1.71965
LJ         -0.810688          0.9658         1.04494
LJ         0.0503954         1.69421         0.82655
LJ         -0.772275         1.80586         1.59849
LJ        -0.0399641        0.882562         1.84169
LJ          0.753898          0.9157        0.930706
LJ           1.83306         1.53848        0.778621
LJ          0.585272         1.68306         1.73535
LJ           1.66582        0.825097         1.58495
