108
#Comment!
LJ           1.77232       -0.863803        0.230201
LJ          -1.08594         2.09985       -0.463624
LJ         -0.567432         2.15232        -1.52745
LJ          0.387445        -1.67728         2.02216
LJ           2.09151       -0.620099        -1.79915
LJ          -2.35171        0.199662        -1.18069
LJ          -1.55624        -1.92424         1.89993
LJ          -1.56505        0.692586        0.110597
LJ           1.22679       -0.929205           2.134
LJ           1.15567        -1.96681         -2.1938
LJ         -0.818926         1.26465      -0.0901908
LJ         -0.611578        0.435167        0.412742
LJ           1.80143         1.23442          1.0055
LJ          0.438121        -2.06456     -0.00548317
LJ         -0.970314        0.780661         1.66095
LJ           1.12296       -0.840011         1.17268
LJ          -2.14136         1.50329        0.543234
LJ           1.54899       0.0741814       -0.623101
LJ          0.115154        0.732273       -0.333557
LJ         -0.968922       -0.706342       -0.469982
LJ         -0.779779       -0.874204         -1.4073
LJ          -1.94648         2.01379         1.45776
LJ           1.88938         1.22257         1.97891
LJ          0.106352        0.494634         1.80607
LJ          -1.50395        -1.00103        -2.26863
LJ          0.894647          1.1269        -1.03891
LJ          -1.83048       -0.276506       -0.252675
LJ         -0.910174        0.314847        -0.55165
LJ            1.3327        -1.74238        0.540588
LJ          -1.95265        -1.81828        -1.89228
LJ          0.625892        -1.07547        -0.02154
LJ          0.501957         0.22062        -1.18432
LJ           1.12827          2.0852       -0.466626
LJ          -1.97348        -1.25588       0.0672747
LJ          -1.57198         1.98437        -2.16181
LJ            1.4647        0.598538         -1.7726
LJ            1.9803         0.26393          1.1321
LJ         0.0356206         1.73981       -0.755624
LJ          -1.01209        0.101075        -1.45811
LJ         -0.855214        -1.81979        -2.08232
LJ          0.303564      -0.0565796        0.750286
LJ          -1.21852        -1.73769        -1.16727
LJ          -0.80283        -1.66709       -0.215075
LJ           1.84169       -0.105606         2.10173
LJ         -0.194593       -0.501189        0.179649
LJ          -2.18359         1.20085        -2.10674
LJ          0.860967         1.11248         1.34931
LJ          -2.23886        -1.60241       -0.822831
LJ          -1.34405        0.107325          1.0454
LJ          0.479331        -1.05823        -1.93228
LJ          -0.39467        -1.00385         2.26736
LJ          0.352114       -0.513691          1.9234
LJ         -0.992179       -0.182628         2.13839
LJ          -1.85968          2.1008        -1.15418
LJ           1.97617         1.46574       -0.286146
LJ         -0.342516         2.06706        0.226298
LJ         -0.253535        0.916128        -1.43549
LJ          -1.90941         0.17104        -2.09863
LJ           1.05819       0.0899443         1.52345
LJ           1.15616       -0.622603          -1.219
LJ           1.50415         1.78529        -2.00117
LJ          0.619511        -0.15118       -0.264972
LJ            2.0731       -0.697251       -0.771095
LJ           1.42706         -1.5366       -0.419457
LJ           1.03727         1.92519        0.614879
LJ           2.04851        -2.27143          2.1501
LJ          -1.94717        0.838695         1.76259
LJ          0.949521         2.01522         1.71999
LJ          -1.15748         0.87859        -2.09066
LJ          -0.50368        -1.77701         1.60215
LJ           1.13007          0.9496        0.003168
LJ           2.28454        -1.30517         1.91995
LJ          0.867588        -1.62792        -1.19335
LJ          -1.76664        -0.59721        -1.34437
LJ          0.414749        -1.41258        0.922817
LJ           1.89019         2.20361         1.04865
LJ        -0.0867248        -2.02924       -0.810909
LJ           2.27744         -1.6567        0.832559
LJ         -0.841451         2.07321         1.77622
LJ         0.0878615       -0.983293       -0.861145
LJ          -1.12879         1.37541        -1.31584
LJ           2.13752        0.530928       0.0955625
LJ          0.713395        0.932026        -2.36369
LJ          0.044933         2.15201         2.26946
LJ          0.328234         1.25102        0.506259
LJ         -0.323002         1.20486         2.34388
LJ         -0.125226          1.4058         1.39706
LJ           1.96799         1.30782        -1.29101
LJ          -2.03785       -0.300822         1.71159
LJ          -1.64144        -1.28738         1.21118
LJ          -1.28704       -0.690404         0.45855
LJ           1.31392      -0.0609186        0.459409
LJ           0.87042       -0.147418        -2.03627
LJ        -0.0850757       0.0809608        -1.98222
LJ           1.22874        -1.81735         1.50875
LJ          -2.20869       -0.391958        0.590575
LJ          -1.94886         1.09453       -0.721292
LJ           -1.2713        -2.21617         0.94472
LJ          -1.81352        -2.15447      -0.0904135
LJ          -0.65011        -1.37635        0.684595
LJ          -1.06945         1.32243        0.825536
LJ           1.89067        -1.54754        -1.59765
LJ           1.91941          2.3535       -0.998607
LJ         0.0752072         -1.9202        -1.77653
LJ          0.121368        -2.35763         1.06284
LJ           1.90568        -2.36237        0.103863
LJ          0.489015         1.78248        -1.63044
LJ          -0.74301       -0.606722         1.33096
