108
#Comment!
LJ          0.131913       -0.773947        0.928805
LJ             1.489       -0.599107         2.00492
LJ          -1.39292       -0.328068       -0.546949
LJ         -0.736204        0.995411        0.831381
LJ         -0.950429        0.535147       -0.112379
LJ        -0.0558322        0.407525         2.20665
LJ          0.619859         1.98457      -0.0369766
LJ          0.703951         1.83349         1.69922
LJ           1.83647        -1.90324        0.621227
LJ          0.435196       0.0649277       -0.336246
LJ          -1.94914        -1.08936        -0.59751
LJ           1.54353        0.546392        0.471961
LJ         -0.453077         1.41765        -1.39857
LJ           1.55725       -0.579211        -1.13927
LJ          -1.79854        -2.15521         -2.1189
LJ           1.99854        0.499751       -0.546214
LJ          -2.28944           -0.19      -0.0988537
LJ          0.924132       -0.276786        0.660079
LJ            2.1486         1.54657        -0.78742
LJ           1.95813      -0.0817687        -2.10658
LJ           1.58241         1.23735        -1.89435
LJ            0.4324        -1.33034        0.178182
LJ          0.324936           0.725        0.455107
LJ         0.0446365        -2.19547         1.54439
LJ          -1.85381        0.425207         1.89703
LJ           2.19083        -1.82576       -0.267581
LJ          -1.16878         2.17456       -0.626512
LJ           -1.7387        0.395505        -1.36433
LJ           1.12575         2.09191         -2.1801
LJ         -0.927048         2.34888         2.11689
LJ           1.64339         2.12194       -0.195086
LJ           1.62149         1.91325         1.42649
LJ           1.36357        -1.34309       -0.189076
LJ          0.728937        -2.06943        0.770667
LJ          -1.95383         0.79292     -0.00398522
LJ           1.68156        0.242906         1.46686
LJ         -0.271451        0.083631         1.13829
LJ          -1.86907         1.60004         2.08323
LJ            1.4533       -0.355625       -0.205211
LJ         -0.250047         2.27328         -1.0343
LJ           1.12354         0.99445         1.73999
LJ          -1.16864       -0.376671         1.80772
LJ           1.03643         1.72063        -1.25274
LJ         0.0323149        -1.58981        -2.35312
LJ          -0.88928       -0.708377        -1.43986
LJ          -1.28562        -1.60378        -1.16836
LJ          -2.19533        -1.37132        -1.58923
LJ          -1.04452         2.29478        -1.59532
LJ           1.66463         -1.5146        -2.20513
LJ          -1.39225         1.30465       -0.968032
LJ           2.12305         1.05902         1.67331
LJ           -0.7917        -1.12202       -0.328838
LJ         -0.335841       -0.538273        -2.27345
LJ          0.543782         1.15998        -1.93924
LJ           2.11746         2.25685         2.22995
LJ         -0.214024         1.33871       -0.185712
LJ          0.924647        -1.80658         1.90462
LJ          -2.19711        -1.07239        0.405154
LJ          -1.03438        0.855033         1.77122
LJ           1.59894        -1.68884        -1.08467
LJ         -0.973225         2.20314         1.08917
LJ          0.664346       -0.797465       -0.708918
LJ          0.816896        -1.80041        -1.68521
LJ        0.00444627         1.81454        0.810498
LJ          0.546733       -0.915048         1.95116
LJ          0.629893       0.0376753         1.52293
LJ          -2.27243        0.855281        -2.12249
LJ          -2.13702        -1.29346         2.08739
LJ          -1.16792         1.61655        0.182907
LJ          0.939748       -0.782261        -1.91328
LJ         -0.217383         -1.3748         -1.1666
LJ          -2.05718         2.08981       0.0863082
LJ          0.336514        0.988648       -0.977699
LJ          0.207322       0.0851859        -1.60297
LJ            -1.815       -0.500048        -2.19136
LJ          -2.05634       -0.510915         1.42085
LJ          -2.22469       -0.389118        -1.20233
LJ          0.561986        -2.02589       -0.660456
LJ           1.85295       -0.608465         0.97889
LJ           -1.7197         1.19923         1.00675
LJ         -0.490053        -1.60835        0.620173
LJ          -0.43268       -0.270101        0.223526
LJ          -2.05877         1.71665        -1.71581
LJ       -0.00330526         1.11003         1.54726
LJ          -2.24481         0.21996        0.839935
LJ         -0.412111        -2.29087       -0.085421
LJ           1.04883        -1.19794         1.08334
LJ          -1.07319         0.16686          -2.208
LJ           2.07378         1.54329        0.609747
LJ           1.88843        -1.78029         1.60502
LJ            1.0674         1.37812        0.791672
LJ          0.154968         2.26139         -1.9986
LJ           1.20368         1.14517       -0.326563
LJ         -0.354874        -0.27654       -0.789642
LJ         -0.374944         1.52932        -2.37874
LJ          -2.03955        -2.28122        -1.08531
LJ          -1.31335         1.14633        -1.98242
LJ          -1.04861        -1.48046        -2.30354
LJ         -0.700462        0.492056        -1.25585
LJ          0.958316        0.302287        -2.27986
LJ          -1.59446        -1.57382         1.32884
LJ         -0.511257        -1.20643         1.64166
LJ           1.13497        0.440548        -1.12413
LJ          -1.33707        -1.93306        0.239187
LJ          -1.16671       -0.808113         0.81711
LJ           1.88717         2.22756        -1.54706
LJ          -1.21911        0.166067        0.764871
LJ           -2.1577          2.3273         1.33179
