108
#Comment!
LJ           2.15775        -1.67973        0.680319
LJ          -1.43535         1.47767         1.80038
LJ        0.00832319        -1.69681         -1.0775
LJ           1.87591        0.326664         1.37535
LJ            1.4546      -0.0945302       -0.798317
LJ           1.65401          1.7684        -1.51632
LJ         -0.371759          1.2522        -0.97206
LJ            -1.185       -0.472863       -0.495975
LJ          -1.02935       -0.509866         1.86273
LJ          0.364272       -0.149945         2.06946
LJ          0.528562        -1.22637        -1.95278
LJ          0.921358       -0.350167         -1.5986
LJ           1.87788       -0.727285        -1.44249
LJ          -2.15187         1.27286     -0.00742017
LJ            -2.124        -1.57815       -0.447202
LJ          -1.36664         1.68738        0.778091
LJ           1.63468      -0.0117629        0.199671
LJ         -0.601923         1.23261         1.22528
LJ          -2.36305         2.17409        0.201013
LJ          -1.92352        -2.24946        -1.81561
LJ           2.23487        -1.33003        -2.24833
LJ          -1.96987          2.2891         2.00626
LJ            1.8802        -1.02389       -0.486649
LJ          -1.69912       -0.123888        -1.41301
LJ          -1.48857        0.375726         1.43582
LJ           1.88305         1.87514           2.257
LJ         -0.980833         2.35941         1.49499
LJ         -0.490226        -1.55619         1.59787
LJ          -1.39829         -2.3423       -0.176268
LJ           1.15669        0.352226         2.24108
LJ         -0.570676        -1.89118        0.643435
LJ          0.735743         1.50547        -1.04418
LJ           1.17485        -1.74621        0.727823
LJ          -2.20352        -1.45555         1.55848
LJ           1.66901       -0.645701         1.38569
LJ          -2.22612       -0.299746       -0.352123
LJ           1.74948         1.76642       -0.401157
LJ           1.16227         1.95964        0.436136
LJ          -1.13732          0.6252        0.551747
LJ         -0.296435         2.19682       -0.608733
LJ          -1.12546         1.87935        -1.11862
LJ           2.18816         2.17686         1.19051
LJ          -1.51207        -1.18343        0.230928
LJ         -0.125678       -0.641725         1.27157
LJ         -0.272506       -0.501442       0.0682688
LJ          0.713399        0.135319         1.10252
LJ          0.235195         1.02225         2.07494
LJ          0.900595         1.60602        -2.23174
LJ          0.276867         1.71208          1.0186
LJ         -0.264581        0.217219        0.791733
LJ           1.23228        -1.97863        -2.25203
LJ            2.0601        0.258091        -1.54584
LJ          0.702139       -0.801485        -0.77993
LJ          0.202367        -1.37231        0.289203
LJ         -0.924343         2.01579        -2.29799
LJ           2.09483        0.853588         2.29489
LJ          -1.62785        0.558981       -0.428798
LJ           2.09472       -0.242104         2.32703
LJ          -1.41128        -1.67746         2.20539
LJ           -1.7651        0.417415        -2.31981
LJ           1.09003        -1.72519        -1.07987
LJ          0.365418         -2.1016         1.19267
LJ           1.33369       -0.885382         2.30875
LJ          -1.24544       -0.349902        0.749261
LJ         -0.931436       -0.985214        -1.62115
LJ         -0.727356       0.0181215        -2.02856
LJ          -2.12197         1.52364        -1.87027
LJ         -0.912009        0.990297        -2.17315
LJ       -0.00299871          2.0362         2.02387
LJ           1.72357        -1.99459       -0.269212
LJ           0.59282       0.0920358        0.105284
LJ           1.06879         2.18458         1.75709
LJ          0.346834         1.53976       -0.084378
LJ          -2.27276         1.17197         1.38735
LJ          -2.04483       -0.463394         1.57894
LJ            -1.707        -2.06524        0.721144
LJ           1.81741         1.13179        0.548283
LJ           2.03407        -1.94713        -1.28026
LJ           2.25852         1.10062          -1.051
LJ         -0.286572       -0.572039       -0.961427
LJ          0.357107        0.139231       -0.936404
LJ          -2.16499        0.236033        0.550155
LJ           0.44577         2.30571        -1.63994
LJ          -1.09256         1.36332       -0.177604
LJ          -2.19339         2.23404       -0.749275
LJ          0.845331        0.966379         0.53988
LJ           1.19944        0.633864        -1.51239
LJ           1.34664        0.857701       -0.510709
LJ         -0.240486        -1.91211        -2.14516
LJ           1.58854        -1.66539         1.67702
LJ         -0.712898        -1.35803       -0.333593
LJ          0.489994        -1.23672         1.74854
LJ          -1.31452         -1.2389         1.22649
LJ           2.31345       -0.695672        0.539752
LJ           1.20803         1.22306         1.53335
LJ           1.03594       -0.823657        0.378809
LJ          0.159352        0.493761        -1.83997
LJ         -0.211336        0.629133       -0.198348
LJ          -0.63957        0.297076        -1.07928
LJ         -0.565185        0.404081          1.8384
LJ          -1.98967        -1.17487        -1.41399
LJ          -1.05121        -1.82909         -1.0981
LJ          -1.52399        0.960349        -1.31135
LJ         -0.344192       -0.877926        -2.31033
LJ         -0.113457         1.56801         -1.8439
LJ          -1.74702       -0.702118        -2.25195
LJ         -0.478551         1.93868        0.362091
LJ           0.61523        -2.14031       -0.261996
