108
#Comment!
LJ          -1.18903        -2.14749        -1.52618
LJ          -1.13912        -1.25492        -1.90865
LJ          0.282888       -0.909081        0.224305
LJ          0.200674        -2.11968     -0.00928687
LJ          -2.32387        -2.34435         1.79153
LJ          0.403257         2.01565        -1.29394
LJ         -0.282579       -0.852169        -1.70252
LJ          0.981936       -0.862966        -0.85172
LJ         -0.816085         -1.7687         1.46949
LJ          0.864295        -1.29056         1.72204
LJ          0.763768        -1.83757        -1.24753
LJ           1.57449        -2.18684        -1.71573
LJ         -0.793562          1.9087          1.8604
LJ          -2.06825       -0.544399         1.29368
LJ          -2.19857        -1.74499        -1.62432
LJ        -0.0259555        -1.33568       -0.685064
LJ          0.967948       0.0717643        -1.25713
LJ         -0.173885         1.27444          1.2646
LJ          -1.06711       -0.462631        -1.16139
LJ          0.775232        -2.08833        -2.20116
LJ           1.94174        0.189797        -1.38537
LJ           1.83302        -0.92715         -1.5883
LJ           1.01501        0.205913         1.79831
LJ           2.24417         1.98638        -2.07707
LJ          -1.25052        0.511019        -1.18961
LJ         -0.888856       -0.162346        -2.26869
LJ          -2.08819         1.33142        -1.32971
LJ          -2.31273       -0.575017         2.29892
LJ         -0.251694        0.184048        -1.61315
LJ          0.787656         1.53547         1.63862
LJ         -0.705162         1.71131        -1.35646
LJ          -0.90677         1.02135         2.26814
LJ           1.59763         1.31698        -1.37934
LJ          -1.97468        0.942512        -2.34466
LJ             1.681        -1.73134       -0.838369
LJ          0.359085        0.341549        0.965101
LJ           2.05916         1.03883        0.503769
LJ          -1.60693        -2.21985       0.0684144
LJ          -1.34712        0.855473        -0.20214
LJ          -1.27552        0.254246        0.765033
LJ         -0.461101        0.982993        0.321364
LJ          0.738577      -0.0872238       -0.254446
LJ          0.401381        -1.72383        0.863459
LJ          -1.52824         1.85117        -2.05106
LJ            1.1965         2.21028       -0.718632
LJ           1.16336         1.66064        0.140155
LJ           1.86743        -1.39934         1.24917
LJ           2.33007        -2.18802        0.825767
LJ          -1.97139       -0.796361        -1.50505
LJ          -1.88683       -0.621017       -0.421569
LJ           2.36948       -0.166167        0.371765
LJ           2.07344         2.19633       0.0228645
LJ         -0.273369        0.957583       -0.730514
LJ        -0.0145304         1.20889        -1.82373
LJ           1.74769       -0.139759         1.15754
LJ         -0.691295        -2.22126        -0.60083
LJ          0.671903         1.18663       -0.907765
LJ           1.84095       -0.516413       -0.701745
LJ          0.839972        -1.07719         -1.9336
LJ          -1.51546         1.94093       -0.749349
LJ           1.59657        -0.77503        0.328448
LJ          -2.18108        0.383758       -0.508057
LJ           1.65749         1.83861         1.04122
LJ          0.985812          1.7025        -2.16016
LJ           1.58068         1.01542       -0.447193
LJ          0.841456        0.709738        -2.01801
LJ          0.631104        0.864331       0.0836195
LJ         -0.426685       -0.258512        0.476961
LJ         -0.644294        0.190442       -0.365554
LJ          -2.13701         1.36869       -0.359636
LJ           1.38535        -2.00794        0.661036
LJ          -2.22562        0.466733         1.11568
LJ        -0.0545685         1.73596        -0.21775
LJ           -1.4502         2.25579         1.17992
LJ           1.44721         -2.2777         1.85099
LJ          -2.14728         1.51412         1.39852
LJ          -1.20232         1.10173         1.34033
LJ          -1.23123       -0.884768         1.90919
LJ         -0.293265        -1.33847         2.19033
LJ         -0.162842        -1.90217        -1.63855
LJ           1.04563         -1.4794      -0.0508549
LJ          -2.11669        -1.28918        0.353264
LJ          0.833985       -0.513212         1.13515
LJ           2.34784         2.32319       -0.996174
LJ          -1.25063       -0.936932        0.718089
LJ           1.87155        -1.43442         2.23719
LJ           1.97929        0.385071         2.25231
LJ          -1.67309        -1.86124          2.2966
LJ         -0.576721        -1.53059        0.172485
LJ         0.0153645       -0.348157       -0.869135
LJ          0.203631       -0.565709         2.04632
LJ          -1.13635          -1.286       -0.610075
LJ          0.051368        0.702634         2.10132
LJ           1.47354        0.280968        0.232047
LJ           1.49046        0.826584         1.23011
LJ          -2.10632        -1.53955       -0.575022
LJ           1.42506       -0.499628         2.37012
LJ          -1.54586         1.53075        0.493309
LJ          -1.74128       0.0539565         -1.9174
LJ         -0.400425      -0.0644552         1.46086
LJ          -1.76257          -1.547         1.31186
LJ          0.388382         1.89497        0.743352
LJ         -0.516928         2.16751        0.896091
LJ         -0.142507          2.1207        -2.22911
LJ         -0.200628        -1.03092         1.22067
LJ          -1.51225        0.251376          1.8218
LJ          0.134609        -2.28896         1.69661
LJ           1.80939         1.38402          1.9801
