108
#Comment!
LJ         -0.298873       0.0763657         0.94146
LJ         -0.590914        0.620117         1.98842
LJ          0.600688        -2.32999        0.785353
LJ          -1.36747        -2.17686          2.2118
LJ           1.70614         1.12121        0.453901
LJ           2.37364         1.89563        0.862972
LJ           1.51271        -2.22353        0.958623
LJ           1.32621        0.531692         1.14795
LJ          -1.77778        -1.33136        -1.97701
LJ          0.775326        -1.82765        -1.98337
LJ         -0.458894         1.85022        -1.36997
LJ          -1.22359        0.226642        0.604113
LJ          0.525035        -2.04856          1.8301
LJ          -2.36751        0.515921        0.994841
LJ         -0.748976         1.66604        -2.33673
LJ           -1.7475          -2.379        0.253235
LJ           1.43341        0.635647        -1.44379
LJ          0.353396       -0.648977          1.6943
LJ          -1.28347        -1.34916       -0.848997
LJ           1.98383         1.02196        -2.27361
LJ         -0.510738         0.90401        0.372118
LJ         -0.121068        0.975858        -1.90288
LJ           1.07058      -0.0237008         1.94048
LJ           1.64086        -1.22209        -2.04305
LJ          -2.04207        -1.32387       0.0301564
LJ          0.900426         1.51526        0.926966
LJ          0.181657           1.454         2.01187
LJ          0.986667        -1.75791       0.0590539
LJ          -2.03803        -2.06183       -0.827859
LJ          -1.57972         1.35242        0.859125
LJ          -1.32406        -1.24621         1.75361
LJ           1.24246         2.04212        0.113598
LJ         -0.533784         1.34994         1.26408
LJ           1.51274         1.70254        -1.56269
LJ          -1.84506       -0.382972         2.18338
LJ          -1.05478         1.57451       -0.615823
LJ           1.83392      0.00157107         0.28851
LJ           1.54119        -2.03416         2.16429
LJ          -1.03005       -0.757496        -1.83071
LJ           0.44957       -0.496495        -1.20129
LJ         0.0603558      0.00490851       -0.237873
LJ          0.181633        -2.10594       -0.964967
LJ           1.99451       -0.589258         1.19575
LJ          0.425583        0.460487        -1.03402
LJ          0.594949         1.68071        -1.66647
LJ            2.1974        -1.22492         1.89454
LJ           1.88866        -1.57872       -0.830457
LJ            1.2201         1.29789       -0.640032
LJ           1.01327         1.91736         2.21838
LJ           -1.9147       -0.608244        0.661412
LJ           2.27295       -0.826554        -1.45528
LJ          -2.09956        0.244702      -0.0188103
LJ            -1.566         1.72438         1.75279
LJ          0.627437        0.392827         -1.9513
LJ         -0.957428       -0.654915        0.982154
LJ          -1.00681        -1.45639         0.34365
LJ           2.03947        0.700663        -0.58907
LJ          -2.31995         1.95229        -2.17105
LJ          0.205516         1.78432        0.166735
LJ          0.743543        -1.35274        0.971092
LJ          -1.32864       -0.437136      -0.0834517
LJ         -0.778858         2.05974        0.356792
LJ           2.34257        -1.65234        0.919365
LJ          -0.53028        -2.37312         1.68479
LJ           1.09016        0.943704         2.13939
LJ         -0.728362       -0.482857         2.03814
LJ          -1.74125        0.500169         1.82094
LJ          0.655424       -0.195969        0.863415
LJ          -1.20367        0.540446       -0.337496
LJ          -1.69629         1.14244        -2.24905
LJ          -1.28627        0.231101        -2.10282
LJ           2.03648       0.0813389         1.96744
LJ          -1.78913        0.953086        -1.10214
LJ          -1.46928        -2.07192         1.14953
LJ           0.52274       -0.889993        -2.12702
LJ           1.85024         1.47176         1.54594
LJ          -0.95571        -2.14385        -0.44523
LJ          -1.64475       -0.236471        -1.23106
LJ         -0.988588        -1.87606        -1.66443
LJ         -0.170277        -1.29044        -1.40589
LJ          0.459031        0.730346        0.363287
LJ          -1.50568         2.08473        -1.56584
LJ          -1.95328         1.37812        -0.19859
LJ            2.2677       -0.574596       -0.431835
LJ           -2.1993        -2.23547         1.78178
LJ           1.12813        -2.29689       -0.950233
LJ           1.42938        -0.33418       -0.985625
LJ         -0.425176        -1.56757        -2.37641
LJ          0.203231         1.35497       -0.793229
LJ           1.74841        -1.10062        0.251467
LJ         -0.144389        -1.92903        0.114615
LJ           1.91748        -2.13689        -1.59144
LJ         -0.150408        -0.80185        0.472867
LJ           1.21624         -1.0124         1.81994
LJ           -0.3496        -1.48252         1.21812
LJ          0.324692         0.65466          1.4573
LJ           1.02016        0.224256       -0.202116
LJ           2.18695         1.86634       -0.852738
LJ           1.56712       -0.190295        -1.99104
LJ        -0.0356317          2.3438        -2.09591
LJ          0.896252        -1.32841        -1.10069
LJ           -0.1306        -1.03101       -0.505725
LJ         -0.810221        0.752121        -1.22745
LJ         -0.276004      -0.0477094        -1.69108
LJ           2.03376        -2.16543        0.084006
LJ         -0.737356       -0.231413       -0.822036
LJ          -2.29527        0.246195        -1.81086
LJ          0.813037       -0.819218       -0.142237
