108
#Comment!
LJ          -2.20276         2.29802        -1.08274
LJ         -0.215888        -2.04899          1.2006
LJ          -2.23294        0.815578        -2.00956
LJ          -1.35293        -1.85547        -1.39927
LJ          0.548625       -0.302874        -2.19902
LJ          -1.38516        0.118614       -0.841897
LJ          -2.25575         2.02594        0.216308
LJ         -0.513534        0.296637        0.876016
LJ           1.55742       -0.608427         0.78721
LJ         -0.243619        -1.45532         2.17886
LJ         -0.853434         1.94471        -1.12891
LJ         -0.417322         1.01178         1.56793
LJ           1.30291          2.2448       -0.181734
LJ          0.092939       -0.715207       -0.699365
LJ          -1.05119         1.02897         2.35608
LJ          0.706072      -0.0895749        0.635892
LJ          -1.40282        -2.00491       -0.138066
LJ          0.992241       -0.451771       -0.224665
LJ          0.904048         1.62345        -1.68134
LJ          -2.36307       -0.429934        -2.00886
LJ          -1.36948        0.278163        0.219262
LJ          -2.24925       -0.658429        0.916648
LJ           0.96065        0.510783      -0.0936667
LJ         -0.162334        0.574118        -2.11597
LJ          -2.15678        -1.34501         1.89365
LJ           1.72298        0.999729        -1.39999
LJ         -0.849262        0.952364        -1.30609
LJ          -0.53447          2.1596       0.0250804
LJ           1.88761       -0.583496          1.8995
LJ          -1.04059        -1.15729       -0.627534
LJ          0.687698        -0.94317         1.23255
LJ         -0.457925       -0.015661        -1.20519
LJ         -0.174271        -1.70679       -0.637395
LJ           1.90795       -0.998005     -0.00794822
LJ           2.30173         1.21326        0.762617
LJ          -2.27209         0.30127        -1.25721
LJ           1.86183        -0.48568       -0.971322
LJ            0.9334        -1.38404       -0.517933
LJ          -1.05073          1.8305         1.66696
LJ          0.879879         -1.9306        -1.68008
LJ         -0.638256       -0.505875       0.0026668
LJ         -0.827431        -2.21053        -2.36364
LJ         -0.612284        -1.60509        0.300501
LJ          -1.40964        -1.23708        -2.34291
LJ          -1.88343        -2.32933         1.65581
LJ           1.58872        0.078302        -1.81742
LJ          0.808801         0.64152        -1.71746
LJ          -2.17566        0.839994       -0.161175
LJ          0.102941         1.02466        -1.02075
LJ        -0.0491124        0.275939        -0.20991
LJ            1.8655        0.160906       -0.251759
LJ           1.67565         -1.5209          1.4799
LJ         0.0963696       -0.158929         1.43464
LJ         -0.158693         -2.1726         -1.7207
LJ          0.278889         1.43511       0.0941808
LJ         -0.642555       -0.779139        -1.86485
LJ           1.39727         1.34454        0.351014
LJ          -1.57375       -0.735428        -1.43764
LJ           1.30581       -0.826316        -1.69368
LJ         -0.319042        -1.02358         1.17534
LJ           2.08453         1.80142        -1.97798
LJ           1.02158         1.32262       -0.697712
LJ          0.201823        -1.17513        -1.71518
LJ           1.95143         2.19381         1.76155
LJ          0.817238        -1.95048         1.27489
LJ          -2.12879         1.55155         2.01332
LJ           -1.4178        0.703208         1.49024
LJ          -1.35926        -1.42257         1.27923
LJ          -2.24614        0.247947        0.634072
LJ           1.55094          2.3129        0.778751
LJ          -1.81866        -0.19097         1.83627
LJ          -2.06005       -0.360104       -0.258714
LJ           2.11741        -1.99691       -0.317731
LJ           1.54519        0.437113        0.904261
LJ          0.861712        -1.32259         2.24823
LJ         -0.357001         1.72545        0.948407
LJ           1.74057        -1.44422        -1.11609
LJ          0.618447         1.91195        0.884162
LJ          -1.15401        -2.26773        0.782754
LJ         -0.789217         1.01783        -0.25662
LJ        -0.0793987         1.63462        -1.80141
LJ          -1.54441         1.70739       -0.438761
LJ           1.53539         0.85036         2.29421
LJ          0.551206         1.18146         1.92659
LJ          0.459886        0.821037        0.961164
LJ          -1.17038        0.183318        -1.89048
LJ          -1.50252         1.22207        0.523509
LJ           1.59288         2.31356        -1.13194
LJ          -0.02982         2.06846         1.94197
LJ          -2.26967        -1.50556        -1.73717
LJ           2.32207        -1.57284         0.69851
LJ           2.23315        0.608847         1.61369
LJ           1.79507        -2.02601        -2.13695
LJ          0.271775        -1.06561         0.26263
LJ          -1.24074       -0.351214         1.03255
LJ           1.19555        -1.56853        0.458533
LJ          -1.88343        -2.35592        -2.11437
LJ           2.09248         1.49716        -0.67261
LJ          -1.98507        -1.33876       -0.761348
LJ          -1.51192        -1.03432         0.26678
LJ          0.328451         2.17977       -0.881132
LJ          0.737253       -0.173163        -1.20563
LJ            1.0352         2.23465         2.14986
LJ         -0.735378       -0.474149         1.88711
LJ          0.353823        -2.11707        0.171438
LJ          -1.63924         1.49644         -1.4772
LJ           1.57964         1.30755         1.42886
LJ          0.976717        0.247014         1.70713
