108
#Comment!
LJ          -2.35666         0.80022         1.78315
LJ         -0.703063          2.1732        -1.96111
LJ           1.00248        -2.01769         1.63884
LJ          0.825295         1.66922         2.23815
LJ          -1.46972        -1.09749         0.44773
LJ           1.74812        0.257798         1.21687
LJ          -2.20339        -1.30042         -1.3107
LJ           1.76344        -1.93992        -1.41424
LJ           1.01594          1.0616        -1.36764
LJ           1.75176        -1.73648         2.35941
LJ          -1.35576        0.429576        -0.54664
LJ          0.318179       -0.230592       -0.946954
LJ         -0.993698       -0.623099       -0.447988
LJ          -1.25619         1.22158         1.66927
LJ          -1.66666        -2.08866        0.573123
LJ          -1.85289        -2.15569        -2.21157
LJ          0.136431         1.63301        0.299204
LJ             1.269       -0.146848       -0.734601
LJ          0.729933      -0.0470445          2.0743
LJ          0.615828         1.69693         1.23035
LJ          0.998708        -1.39445        0.661973
LJ          -1.11201        -1.57594         2.11185
LJ          -2.04065         -2.1344         1.55814
LJ         0.0298548        -2.25484        -1.23242
LJ         -0.677622         2.33899       0.0251383
LJ          -1.44619         1.32029        -1.95357
LJ          0.542833        0.260934        -1.78862
LJ           1.83076        -1.87433         1.11333
LJ         -0.553082        0.366192        -2.17942
LJ          -1.66142       -0.110993        -1.47453
LJ          0.736084       -0.955287         1.69847
LJ        -0.0260221         2.11593          1.9144
LJ          -0.22525        0.668353       0.0386356
LJ            2.1424         2.13101        0.442027
LJ          -1.85605        -1.08913         1.59039
LJ          -2.13908       -0.131131         1.44079
LJ          0.143727         1.61421        -1.70454
LJ          -2.00849         1.73565         2.07348
LJ          -2.33165       0.0132455        0.388751
LJ          0.357169        0.307815         1.00801
LJ         0.0176884       -0.541693        -2.04678
LJ           2.28074      -0.0372587       -0.580258
LJ           1.52064        0.401591        0.261558
LJ          0.368629        -2.16846        0.801714
LJ           1.39326         -1.7016       -0.201621
LJ          0.620197       0.0294334      0.00427843
LJ          0.128758        -1.13484        0.899858
LJ         -0.528304        -1.37286        0.141836
LJ         -0.649492      -0.0185916        -1.10687
LJ          -2.21422         -1.0387        -2.23699
LJ          -2.18356        0.837314        -0.23622
LJ          -2.37436        -2.08684       -0.410108
LJ         -0.917761       -0.949127        -1.54721
LJ          -1.10119         2.25997         1.71222
LJ          -1.25127       -0.102683        0.506588
LJ          0.859794         2.29674        -1.78558
LJ          -1.38343        -1.83133        -1.40791
LJ           1.07803         2.36722       -0.808288
LJ          -1.99945       -0.892004       -0.420099
LJ         -0.796024         1.43401       -0.321646
LJ         0.0962274        0.828147       -0.979118
LJ          -1.74421         1.71046      -0.0163668
LJ            1.0529         2.09136        0.275756
LJ            1.6852        0.148886        -1.76457
LJ        -0.0264944        -1.61782         1.76292
LJ           1.28343         1.17078        0.772552
LJ           2.11324           1.148          -2.017
LJ           1.06335       -0.393985        0.934492
LJ           1.76212        0.764242       -0.795039
LJ          -1.33068        -1.62282       -0.355394
LJ          -2.18904         2.28088        -1.35002
LJ          0.681894       -0.953325       -0.172882
LJ           1.49178        0.703288         2.15059
LJ          -1.80573         1.73176         1.00703
LJ           1.60414       -0.703784        -2.34716
LJ           1.59456       -0.600845       0.0449153
LJ          0.280454         1.72641       -0.678615
LJ         -0.894181       -0.880379         1.41866
LJ           1.83494         1.99675         2.35415
LJ           2.37896        -1.37139        0.409716
LJ          0.732527         -1.5248        -1.05273
LJ          -1.36332       -0.498751         2.26332
LJ         -0.343848        -1.36067       -0.866568
LJ           2.24187        0.955747        0.717931
LJ          -1.31108         1.93697         -1.1419
LJ          -0.51566         1.98398         0.91338
LJ          -2.37261      -0.0860903        -2.35289
LJ           0.33503        -2.07224       -0.286465
LJ          0.923012       -0.602687        -1.61111
LJ         -0.789451        -1.82588         1.05251
LJ          0.876772         1.01056       -0.181693
LJ           1.67219          1.7971        -1.38363
LJ           1.70026         1.70444       -0.390751
LJ         -0.297019       -0.399445        0.234466
LJ           1.71804       -0.993233       -0.975073
LJ         -0.112753        -0.37516         1.62012
LJ         -0.433084        0.974485        0.995313
LJ         -0.857864          1.0132        -1.21558
LJ          0.606233        -1.57717        -2.18111
LJ          0.361832        0.945199         1.81696
LJ          -1.55527         0.48206           2.286
LJ          -2.24868          1.3845        -1.07822
LJ         -0.852035        0.338403         1.58744
LJ         -0.504501         1.29058           2.345
LJ           1.77781       -0.854367         1.43781
LJ            1.7762         1.82732         1.32072
LJ          -1.33881        0.970956        0.484802
LJ         -0.338156        -1.61139        -1.94467
