108
#Comment!
LJ           1.86355       -0.653328       -0.858606
LJ          0.137976         1.71015       -0.146661
LJ          -1.99141         1.61814        -1.54191
LJ         -0.252185        -1.34014         1.22119
LJ          -2.05212        0.613803         -2.0674
LJ          -1.57761        0.505334         -1.1938
LJ           2.36137         1.94042         1.32909
LJ         -0.435301      -0.0936841        0.986305
LJ           1.54076       -0.713363        0.856667
LJ           0.88183         1.95772        -2.05243
LJ         -0.916608        0.574346       -0.443264
LJ          0.560997         1.27365        0.698319
LJ           2.08826         1.86199        0.264866
LJ          0.289083        -1.57237        0.054288
LJ         -0.706913          1.4334         1.46042
LJ           1.80013       -0.161693       0.0394568
LJ         -0.898221         1.64137       -0.139529
LJ           2.14719        0.449111        -1.22989
LJ          0.330924        0.555122       -0.426636
LJ          -1.28855       -0.131718        0.564623
LJ          -1.47364       -0.598305       -0.323858
LJ          -1.35119        0.854026        0.591045
LJ           2.37906         1.05262        0.777926
LJ         -0.209305        0.572865         1.90598
LJ          -1.20803        -2.01228        -2.03094
LJ           1.82125         1.54925        -1.85706
LJ          -1.93536         1.25609       -0.109939
LJ          -0.48469       -0.278575      -0.0589939
LJ           2.08695        -2.06067        -0.33953
LJ          -2.12014         -2.0715        -1.49973
LJ           1.09466        -0.88017      -0.0402502
LJ         -0.686811       -0.351564       -0.985374
LJ        -0.0762325         1.46163        -1.08337
LJ           2.20638        -1.07832      -0.0650543
LJ           1.61588         1.23408         1.80802
LJ           1.70864         0.54041        -2.12686
LJ          -2.29908      -0.0212711        0.776015
LJ          0.526914         2.26738        -1.14089
LJ           -1.0675       -0.281639        -1.98676
LJ         0.0279744        -2.28246        -1.97318
LJ          0.200832       -0.669127        0.551829
LJ         -0.892302        -1.18671        -1.46839
LJ          -0.47247        -2.20666      -0.0154044
LJ           -1.7088       -0.138681         2.08308
LJ          -1.14504        -2.08493         0.91612
LJ          -2.36049        0.490333         1.73019
LJ          0.756648        0.752775         2.09729
LJ          -1.69737         -1.3712       -0.960025
LJ         -0.248718        0.713221        0.359043
LJ           0.28484       -0.813499       -0.699082
LJ        -0.0962491       -0.170099        -2.15798
LJ           1.49029        -1.39522         2.03723
LJ          0.486635        0.383419         1.14498
LJ         -0.564662        -2.24002         -1.0887
LJ           1.14284         1.45305        -1.10224
LJ         -0.552685        -1.35316         2.32515
LJ          0.199636      -0.0126014        -1.26449
LJ          -2.00583        -0.44487        -1.13795
LJ          0.948321       -0.340856         2.34277
LJ          0.855129       0.0348472        0.250578
LJ           1.77134        -2.30045        -2.17334
LJ           1.16866        0.103966       -0.835335
LJ           1.92733        -1.40982        -1.75717
LJ          0.876266        -1.54052       -0.959037
LJ           1.39203        -2.20958         1.47353
LJ           -2.1158         1.73598          2.3091
LJ          -1.64957         1.25782         1.58097
LJ          0.398282         1.61202         1.61081
LJ          -1.13475        0.412178         1.52788
LJ          -1.19041         2.03884         2.07954
LJ           1.51602        0.619907        0.670235
LJ          -1.73276         -1.1303        -1.87905
LJ          0.955297        -2.24336       -0.244163
LJ          -2.04847        0.255533       -0.255554
LJ          0.778551        -1.32299         1.04289
LJ           1.41834          1.6402        0.983923
LJ          0.142722        -1.19643        -1.73328
LJ           1.64855        -1.90343        0.499158
LJ         -0.305094        -2.27139         1.80373
LJ          -0.67159        -1.40115       -0.524615
LJ         -0.702733         1.83752        -1.82906
LJ           1.95448        0.883732       -0.272663
LJ          0.864481        0.671916        -1.59606
LJ          0.408282        -1.57875         1.93498
LJ           1.05557         1.18217       -0.110059
LJ          -0.99781         1.01001        -2.30566
LJ         -0.278348         1.93158        0.722968
LJ           2.02553            1.81       -0.779426
LJ           -1.2872        -1.34735         1.61517
LJ          -2.34139        -1.70188         1.80408
LJ          -2.15389        -2.07798        0.716522
LJ           1.42688        0.170454         1.51246
LJ           1.99653       -0.365053        -1.81289
LJ           1.05486       -0.728824         -1.5266
LJ           2.26059       -0.663563         1.87206
LJ          -2.03263        -1.03875        0.877829
LJ          -1.05826         1.37084         -1.0582
LJ           -1.5871         1.82206        0.692065
LJ          -1.67655        -1.48825       0.0816992
LJ         -0.845694         -1.1232        0.468579
LJ         -0.566539        0.550611        -1.49938
LJ          0.973623        -1.74545        -1.91423
LJ           1.49207          -2.283        -1.16272
LJ          -0.84628       -0.492775         1.80068
LJ          0.724452        -2.26735        0.738575
LJ          -1.36095         2.35136       -0.494513
LJ         0.0637391         1.30755        -2.22727
LJ          0.187539       -0.619517         1.79673
