108
#Comment!
LJ           2.15386         1.93819        -1.34835
LJ         -0.105149         2.30578       -0.337756
LJ            2.3091       -0.931778        0.768998
LJ          -1.34871        -1.90029         2.18431
LJ           0.49872       -0.120649        -2.03484
LJ          -1.20143         2.07383        -0.69609
LJ            2.3432         1.92723        0.963492
LJ           1.62022        0.545424        0.376652
LJ        -0.0721677        -1.62563        0.327348
LJ         -0.330231         1.61154         1.21997
LJ         -0.426794         1.26416          -2.042
LJ         -0.118216         1.29178       -0.167689
LJ            1.6618        -1.58769        0.349819
LJ         -0.121686        -0.86997        -1.87511
LJ         -0.699597         2.13832         2.29579
LJ          -0.50843       -0.762075        0.722915
LJ          -1.65746        -0.95412         0.24343
LJ         -0.230722       -0.813352       -0.187634
LJ            1.8236         1.00432        -1.53744
LJ         -0.689015       -0.809757        -1.05144
LJ          0.141009       -0.274847        -1.09932
LJ           1.59718       -0.479403        0.222754
LJ          0.724902         1.78285       -0.120175
LJ         -0.857695         2.07148         0.37887
LJ          -1.45857        0.560677          1.1381
LJ          -2.18436        0.874125          1.8854
LJ            2.2866        -1.14856       -0.206592
LJ          -1.50278         2.03221        -1.73966
LJ           1.62159       -0.823125         2.06422
LJ          -1.49571        -0.19903       -0.451594
LJ         -0.528662        -1.68325         1.38469
LJ          0.221454        0.706487         2.13681
LJ         -0.557479         2.28054        -1.42937
LJ          0.620744        0.654359        -0.32514
LJ           1.23805        -2.35443        0.807476
LJ          -1.93224         1.03229        -1.66155
LJ           2.20301       0.0596425        -1.09329
LJ          -1.84639         1.88496        0.100777
LJ         -0.820246         1.16384        -1.12708
LJ          0.581716        -1.89636        -1.71134
LJ          -2.33387       0.0862475        0.145091
LJ          -1.58737        -2.37205         1.39451
LJ           -1.7965        -1.89587       -0.884509
LJ          -1.41497       -0.517023        -1.96983
LJ           1.74616         -1.5598         1.35552
LJ         -0.973476       -0.898226         1.93442
LJ           0.19034       -0.397568         1.48711
LJ            1.8033       -0.868292        -1.00736
LJ           1.07012       0.0722273         1.85261
LJ            0.9654       -0.198975       -0.646477
LJ            1.6409        0.677786       -0.536928
LJ          0.192317         2.17518        0.630285
LJ         0.0848752        0.533102         1.15841
LJ           1.14173        0.986779        -2.31172
LJ            0.7438         1.06674        0.558465
LJ         -0.144188        -1.72079           2.302
LJ          -1.41727        0.844738       -0.236243
LJ         -0.543249        0.274235        -1.82499
LJ            1.7087        -1.77402        -2.19229
LJ          -1.42562       -0.576315         1.13309
LJ          -1.05047        -1.48962        -1.75841
LJ           1.25528        0.256998        -1.45913
LJ          0.631905        -1.03179         2.11959
LJ          0.231244        -2.31719          1.6051
LJ          0.845939        -2.24929       -0.833884
LJ           2.32452        -2.26479         1.78542
LJ         -0.718121        0.945413        0.532574
LJ          -1.10029        -1.69856        0.563326
LJ          -2.25045         1.24105       -0.600194
LJ           1.75289         1.61505        0.181307
LJ         -0.975371       0.0304353        0.361645
LJ           2.15764       0.0974802         1.21844
LJ         0.0623727        -1.58829         -0.8375
LJ          0.515112         -1.3184         1.16981
LJ          -2.12048       -0.477394         1.98867
LJ          0.330631         1.67724        -1.11898
LJ           1.78163        -2.28126       -0.349493
LJ          0.646326         1.33484          1.5461
LJ          -2.23405        -1.92818        0.719309
LJ          0.364193         1.79431        -2.25447
LJ           1.29163          1.9992        -1.98847
LJ         -0.477251        0.317152       -0.573134
LJ           1.33506       -0.676893         1.13021
LJ          0.899045       0.0219851        0.720761
LJ           1.57498         1.85105         1.65859
LJ          -2.05686        -1.95253        -1.80344
LJ        0.00874774       0.0908347        0.337306
LJ           1.41702         1.59797        -0.82224
LJ          -1.46763         1.54757         1.00505
LJ           2.28694        -1.00093        -1.89629
LJ          -1.96335        -1.40447         1.54625
LJ           1.54408        0.875328         1.44871
LJ           1.11211         -2.0871          1.8976
LJ           1.05088         -1.3024        -0.48121
LJ         -0.617489        0.035727         1.76923
LJ           1.19511       -0.799178        -1.78374
LJ           2.35453         1.71844        -2.27319
LJ          -1.57467         1.62566         2.04422
LJ           1.88963         -1.8543        -1.19058
LJ          -1.90975       -0.670533         -1.1097
LJ          0.278716          0.7813        -1.51061
LJ           1.95716       0.0712785         -2.2443
LJ         -0.806475         1.02362         1.80782
LJ          -1.35783        0.287967        -1.30366
LJ          -1.04053        -1.42896       -0.461002
LJ          -1.43841        0.498382         2.37179
LJ          -2.21799        0.980871        0.507828
LJ           0.65309       -0.848023        0.283384
