108
#Comment!
LJ        -0.0465334         -1.0182         -2.1089
LJ          0.465995      -0.0706926          2.2235
LJ          0.990852       -0.647851        0.670286
LJ        -0.0359587       -0.656078        0.191334
LJ         -0.772894        -1.05481        0.693384
LJ         -0.503602         1.04928        -0.95768
LJ           1.66999         1.93344       -0.118192
LJ          0.662023         1.92749        -2.25416
LJ           1.18072        -1.55017         1.12087
LJ          0.823656        -1.01467         1.93362
LJ          -1.91089        -1.17458       -0.150275
LJ           2.34889        0.700935         1.67453
LJ         -0.993383        0.172105        -1.27403
LJ          0.667861        -1.51975        -1.06265
LJ          -1.99625         1.75816        0.452685
LJ          -1.55685        -1.67009       -0.949758
LJ          -1.45158       -0.233312        0.423604
LJ          0.447153        0.428811         1.44655
LJ           2.27056        0.970755       -0.259559
LJ           -1.9656       -0.995556        -1.71489
LJ          0.576978        0.917279         2.27246
LJ          0.277518        -1.53192         0.66725
LJ           0.56724        0.232356       -0.797954
LJ         -0.528343        -1.93197         2.37559
LJ          -1.33333         1.12266         1.43622
LJ           1.67511        -2.00637       -0.753294
LJ         -0.129372         1.19804        0.881921
LJ           -2.0054       -0.270977        -1.03086
LJ           1.31244         2.15226         1.00409
LJ         -0.720232         2.26779         1.26034
LJ           1.46165        -1.54856        -1.90893
LJ          -1.96398        0.738464         0.66326
LJ          0.924144         -2.0995        0.181069
LJ            1.4152         1.04597         1.54605
LJ          -1.61759        0.525651       -0.521112
LJ             1.337       -0.153946        -0.17382
LJ         -0.455175        0.303486         2.08815
LJ          -2.13376         1.72807        -1.18242
LJ           2.05653        -1.08513       -0.789502
LJ          -0.29438         -1.6983        -1.40507
LJ           1.66024         2.24548        -1.83099
LJ            2.2613        -2.02655         1.32338
LJ          0.540594         1.23144        -1.53307
LJ          -1.02414        -1.06316        -2.20184
LJ           2.31516        -1.83221        -1.51666
LJ          -1.00166         2.37131        -0.61665
LJ           2.26461        -1.63215         2.25839
LJ         -0.259444         1.90475        -1.81711
LJ           1.27272        -2.07189         2.06758
LJ         -0.330192         1.32494         2.13965
LJ           1.30729       0.0402705         1.60107
LJ          -1.82263        -2.05363         0.62096
LJ          -1.92838       -0.695862         2.09634
LJ          -1.36468         1.48589       -0.380303
LJ           -1.7947         1.97667         1.46787
LJ          0.948602         1.18931        0.623702
LJ           1.72685       -0.702779         2.30062
LJ           1.73483       -0.452355        -1.47175
LJ          0.015329         1.00636      -0.0570468
LJ           1.36389         1.49307        -1.09854
LJ          -1.46303        0.177258        -2.33397
LJ         -0.901947        -1.93286        0.251474
LJ          0.585595         2.25294        -1.09521
LJ           0.30976        -2.28421         1.75785
LJ          0.745059        -0.65215        -1.57949
LJ           1.90947         1.40099        0.737163
LJ            1.1129        0.387865        -1.89118
LJ           1.89764         1.96498         1.85214
LJ          -1.28795         2.00847        -1.55858
LJ          0.416453         -1.8703        -2.15161
LJ         -0.021392        0.363367        -1.73831
LJ          -1.86863         1.17555        -2.31603
LJ         0.0148191       -0.781014        -0.86263
LJ          0.943718        -1.10881       -0.180619
LJ         -0.267614         -1.4971         1.50564
LJ          -1.79361        -1.20586         1.22126
LJ          -1.38672         -1.8722        -1.96103
LJ        0.00411995         2.20622        0.581124
LJ           1.83053       -0.983013        0.335817
LJ         -0.992739        0.771074        0.206494
LJ         -0.456854        0.204354        0.852816
LJ          0.489119        0.224302        0.431818
LJ           1.90199        0.497917        -1.04978
LJ           0.55244         1.57209         1.48465
LJ           2.31707       -0.127767          1.0278
LJ         -0.155816         1.87189       -0.630823
LJ          0.207592       -0.668574         1.16844
LJ           2.33403        0.140068        -2.26309
LJ           2.28656      -0.0735468      -0.0841399
LJ         -0.995454         1.98319         2.14619
LJ           1.58403        0.454638        0.605616
LJ           1.20695        0.872515       -0.252401
LJ           1.84006         1.19339        -2.19289
LJ        -0.0599951        -1.79577       -0.281139
LJ         -0.901721         1.01364        -1.78132
LJ            -2.135        -2.29737       -0.496062
LJ          -1.94555        0.592985        -1.46045
LJ          -1.24424        -1.85026         1.73187
LJ          -1.02481       -0.816327        -1.21539
LJ         -0.584969       -0.636857         1.77897
LJ           1.91487        -2.03011        0.392576
LJ          -1.43906       -0.174285         1.40853
LJ          0.661754         1.70811       -0.116565
LJ         -0.954832         1.85292         0.39637
LJ         -0.765911        -1.10524       -0.321425
LJ          -2.11187         2.20927        -2.27601
LJ         -0.738218       -0.107227       -0.316995
LJ           2.03452         -1.0022         1.31856
