108
#Comment!
LJ          0.255302       -0.719722        -1.75869
LJ           2.10642        -1.29512        -2.18917
LJ          -1.57101        0.289128        -1.35855
LJ           1.75689      -0.0191652       -0.888648
LJ           2.09566         1.42178        0.436176
LJ          -1.10529        0.212523        0.796181
LJ             1.149        -1.78473        -1.77538
LJ         -0.928342        -2.23907        -1.51969
LJ          0.791722        -2.05905      -0.0910719
LJ           2.11146       -0.308696        -2.25904
LJ           1.30148         0.29972        -2.20041
LJ          0.354729         1.09998         1.11881
LJ         -0.609367        -1.36109        -1.13809
LJ         -0.980069      -0.0115329         2.20229
LJ          -2.19935         1.67315         -2.0569
LJ           2.37083        -2.20796       -0.507991
LJ          -1.19115       -0.286225       -0.553727
LJ           0.78727        0.228929        -1.27697
LJ          -1.85067        0.742858        -2.23171
LJ           2.02804        -1.89355         1.56022
LJ          -1.89089        -2.06989         2.34656
LJ         -0.322121        -2.03994         -0.2844
LJ          0.753618         0.33695         1.66347
LJ         -0.616157       -0.698155        0.886086
LJ           2.15991         1.17359         1.96297
LJ          -2.17365        -1.25431       -0.212868
LJ           1.46829         1.97464       -0.302649
LJ          -2.16877        0.715759         1.20687
LJ          -1.65061       -0.221347         1.50106
LJ           2.10483        0.483352         -1.6881
LJ           1.80912       -0.585953       0.0283908
LJ         -0.597119          1.8039         1.05611
LJ           1.13098        -0.80092       -0.790821
LJ           1.43552         -1.7408       -0.793232
LJ           1.82871        -1.91321        0.239994
LJ          -2.19481       -0.224133       -0.449966
LJ          0.326194        -1.32213       -0.935195
LJ          0.450772         2.09275        -2.10082
LJ          -0.54108         1.82692       -0.778391
LJ          0.332789       -0.794576         1.30793
LJ           1.58291         1.30245        -2.03484
LJ          -1.96035        0.517951        0.187576
LJ         -0.236972         1.39742         1.98705
LJ       -0.00394524        -2.27963        -1.17684
LJ           -1.4947         1.58636        -1.11395
LJ         -0.401639       -0.789858            1.96
LJ          -1.29652         2.36941         1.55224
LJ          -1.69703        -1.60185        -1.35612
LJ           1.05504        -2.07396         1.87648
LJ          -1.84472         1.60106       -0.205747
LJ           2.02689         1.59462         -1.0162
LJ           1.46829         2.17476         1.03844
LJ         -0.911644       -0.581351        -1.72063
LJ         -0.555823        -2.35525         2.26876
LJ           1.24211         1.37147         1.70608
LJ          0.229489        0.899266      -0.0893919
LJ         -0.769578         0.76914          -1.791
LJ         -0.467075      -0.0464739       0.0418318
LJ           -2.1132         -1.5315        0.841529
LJ           1.99704        -2.24234        -1.43037
LJ            -1.182        -1.52192        -0.11588
LJ           2.16633       -0.926753        -1.01295
LJ          0.393346         1.83578       -0.464347
LJ          0.946424         1.55716         0.45863
LJ         -0.992788         1.96258        0.217392
LJ          -0.30805        0.418621         1.56933
LJ            2.3255       -0.293626        0.839813
LJ         -0.402975        -1.78837        0.762622
LJ           1.30022        -0.77574        -1.83806
LJ         -0.144959        -1.65008        -1.98337
LJ         -0.579615        0.977477        0.517534
LJ          -2.25345        0.753601       -0.703388
LJ           1.89169         2.30727         2.32371
LJ          0.756198        -1.18822         2.26498
LJ           1.53591       -0.678696          1.8588
LJ          -2.27674       -0.978095         1.71749
LJ           1.81799        0.571079       0.0462806
LJ          0.987456         2.18897        -1.20526
LJ          -1.88101       -0.613417        -1.72099
LJ           1.33194        0.729535        0.883853
LJ         -0.153302         -1.0124        -0.10962
LJ          -1.30962         1.60226         2.38047
LJ         -0.410604         1.68033        -1.75771
LJ          0.572778          1.0357        -2.29114
LJ          -1.42357        -2.36992        -0.60719
LJ          0.657943        -1.95649        0.832308
LJ          -1.02582        -1.38902         -2.2895
LJ        -0.0905916       -0.335377       -0.904301
LJ           1.81171        0.303058         1.69696
LJ          0.342604         2.02668         1.48262
LJ         0.0661524         2.14001        0.448358
LJ          -1.17771          1.0129         1.58729
LJ          -1.59482         1.37351         0.77358
LJ          0.832495        -1.09844        0.237646
LJ           1.57277        -1.23677        0.931832
LJ          -2.23485         1.95657          1.5617
LJ         -0.010973        0.216341        -2.21721
LJ         0.0696992        -1.77625         1.71777
LJ         -0.950046        0.962589       -0.478142
LJ          0.566789         1.27876         -1.3045
LJ          0.274114       0.0627276        0.727313
LJ         -0.162947          0.7247       -0.998996
LJ            1.1489       -0.358327        0.884239
LJ          -1.33109        -1.22551         1.33404
LJ          -2.05831         2.26665        0.592763
LJ           1.19917         1.03386       -0.590036
LJ          -1.48579       -0.722764        0.436669
LJ          0.734931      -0.0199442       -0.260325
