108
#Comment!
LJ          0.391164        -1.56116         1.98413
LJ          -2.12657       0.0240557         2.29609
LJ          0.514914       -0.344875       -0.149874
LJ         0.0858056         1.11551         0.54102
LJ        -0.0491748        0.468583       -0.445315
LJ          0.182439        0.319116         -1.9829
LJ           1.93561         2.16173        0.439685
LJ            1.1733         1.85125        -2.30503
LJ           2.30799        -1.64437         0.48158
LJ          0.485153        -1.27118        0.379631
LJ          -2.23723        -1.00713       -0.343717
LJ           1.85258        0.186876        0.385966
LJ         -0.630775          1.0236        -1.51829
LJ           1.33547        -1.15008        -1.44177
LJ          -1.88364         2.17754        -1.18493
LJ          -2.17226        0.178186       -0.681924
LJ          -1.77627       0.0570399         0.20112
LJ          0.938853       -0.108966        0.711243
LJ          -1.86686         1.06532      -0.0943835
LJ           2.21122       -0.626133        -1.84958
LJ          0.849234        0.826763         2.13783
LJ          0.231742       -0.876749         1.23177
LJ          0.886857        0.742257       -0.035321
LJ          0.333424         2.37253        -2.21696
LJ         -0.773626       0.0797537         1.38497
LJ           1.56387        -1.66677       -0.518867
LJ         -0.121339         2.00785        0.864929
LJ          -1.14431        0.603862       -0.760591
LJ          -2.32439        -2.26705         2.17658
LJ         -0.471533         2.23865         1.85813
LJ          -2.37369        -2.13561       -0.378128
LJ          -2.02908         1.85548        0.952766
LJ           1.36838        -1.86658        0.506054
LJ           1.64914         1.86055         1.49885
LJ         -0.983789         1.68408       -0.741298
LJ           1.68449        0.071779         1.90598
LJ          0.104081        0.571102         1.46915
LJ          -1.60771         1.33196        -1.97304
LJ           1.48638       -0.793505          0.1006
LJ         -0.107149         2.23309        -1.13486
LJ          -2.23577         1.26097         1.79276
LJ          -1.44315        -1.48292        0.493547
LJ           1.28407         1.22462        -1.54791
LJ         -0.329493        -1.64589        -2.13624
LJ          -1.20095        -1.31141        -1.50178
LJ          -1.31055          -1.529       -0.525893
LJ          -1.77861        -1.32532        -2.37319
LJ         -0.590189         1.94294        -1.95864
LJ           1.76287        -2.14637        -1.82081
LJ          0.619822         -2.1093          1.1476
LJ          -2.28895        0.118216           1.325
LJ         -0.518485        -1.28539      -0.0242419
LJ          -1.60295       -0.565836         1.70642
LJ            0.2697         1.48343        -1.79406
LJ          -1.37023          1.8279         1.95598
LJ       -0.00706814         1.50797       -0.414895
LJ           1.26237        -2.00643         2.10832
LJ           1.78065       -0.417246       -0.777134
LJ         -0.760845         1.12684         1.28048
LJ           1.92692         1.89923       -0.977235
LJ          -1.42263        0.690478         1.95985
LJ          0.708105        -1.21656       -0.627294
LJ           1.02419         2.27242         -1.3383
LJ          0.894911         1.61972        0.650418
LJ           1.38362       -0.934422         2.36146
LJ           1.24545        0.886059         1.18543
LJ           2.05025        0.670089        -1.84646
LJ           -2.3037        -1.65621        -1.21079
LJ         -0.830374         1.63493         0.27072
LJ           0.47023        -1.65311        -1.47738
LJ          0.333249        -0.84881        -2.12172
LJ          -1.13179         2.27972         1.07884
LJ          0.492514        0.717848        -1.18824
LJ          0.834175        -0.28954        -1.06658
LJ          -1.39035       -0.503627        -1.95009
LJ           2.18166        -1.03036          1.8354
LJ          -1.42434        -0.57532        -0.83736
LJ          0.689234        -2.21948       -0.229493
LJ           1.72657       -0.548534         1.17161
LJ          -1.65667        0.946934         1.01551
LJ          -0.90165       -0.704556         0.81182
LJ        -0.0944556        0.071091        0.659912
LJ          -2.19138         1.20648        -1.05329
LJ          0.439983         1.67819         1.79254
LJ          -2.11814       -0.695221        0.772822
LJ         -0.371811        -2.34356       -0.139721
LJ           1.15494        -1.30832         1.41894
LJ         -0.717742        0.119337        -2.37783
LJ            1.7932         1.19023      -0.0274753
LJ          -1.43159        -2.20094        -2.04677
LJ           2.13269         1.09584        0.863109
LJ          0.995805         1.53084       -0.622953
LJ           1.49976        0.610424       -0.787857
LJ         -0.310966        -1.27328        -1.01274
LJ         -0.342259         1.04902         2.24951
LJ          -1.48978         2.28694       0.0353464
LJ          -1.78489        0.449578        -1.54708
LJ         -0.884507        -1.60672          1.7314
LJ         -0.433722       -0.130949        -1.17479
LJ          0.682138       -0.212062         1.80605
LJ           -1.8329        -1.69768         1.49679
LJ         -0.538093       -0.781028         2.17679
LJ           1.22814       0.0443531        -1.95776
LJ         -0.317466        -1.73336        0.828251
LJ         -0.733112       -0.288238       -0.130121
LJ           2.19918         1.68051        -2.02263
LJ         -0.862827        0.633581        0.297792
LJ           1.91102        -1.94165         1.34327
