108
#Comment!
LJ           0.52622       -0.668516       -0.798386
LJ           1.89712        -0.82517         1.91497
LJ          -1.58316      -0.0822392       -0.868924
LJ           1.11212       0.0356088       -0.345275
LJ          -1.17796         1.17496        0.428043
LJ          -1.18171         1.53766         1.73654
LJ           1.08661         2.24972       -0.491706
LJ          -1.09527         1.39514        -2.03942
LJ          0.979693        -1.06733        0.507596
LJ           2.24405        0.177214        -2.28538
LJ          0.318583        0.336892         2.34808
LJ          0.405935        0.177201         1.17824
LJ         -0.837102        -2.12983       -0.595342
LJ         -0.841801        -0.31585        -1.89593
LJ          -1.64119        -2.29354         2.06776
LJ           2.06839          1.6999       -0.596647
LJ          -1.80637         -0.7424       -0.139427
LJ          0.734983       -0.038746         -1.5588
LJ           -2.0302         1.31017         2.37926
LJ          -1.91501        -1.15201         2.12864
LJ          -1.26182        -2.31982        -1.70629
LJ         -0.354908        -2.33711        0.191756
LJ          0.447262         1.31743         1.20079
LJ           1.88219        -0.97894        0.971024
LJ          -1.71647        0.550354         1.63425
LJ           2.00572         -2.1443        -0.43248
LJ           1.45432        -2.04971        0.332637
LJ          -1.84923       -0.548463        0.817942
LJ          -0.29815        -0.45576         1.88741
LJ          -1.94933        -1.64544         -1.2775
LJ           1.48303         0.82186        0.827476
LJ          0.621752        0.768818        0.326195
LJ            1.5243       -0.574303        -1.86857
LJ           1.76553        -1.51667        -1.22087
LJ           1.94521        0.125182       -0.976719
LJ           2.24078       -0.144926        0.128976
LJ           1.92223        -1.19182       -0.255526
LJ          0.475455         1.97922        -1.89708
LJ         -0.216334         1.56752        -1.45465
LJ          -1.03774        -1.65019         0.29739
LJ           1.35716        0.491941        -1.93232
LJ          -1.43515         0.18279       0.0761289
LJ          0.296498         2.18776         1.86358
LJ         0.0978669         2.30047       -0.785684
LJ          -1.80843       -0.535714        -1.81527
LJ         -0.280135         -2.2599        -1.68992
LJ         -0.941426        -1.28873         1.98691
LJ          -1.78968         1.30446        -1.35112
LJ           2.09568        -1.59075        -2.13286
LJ          -1.55575        0.501627        -1.86305
LJ          -2.09623         0.79479       -0.559186
LJ           2.20893         2.02213          2.0063
LJ          -1.26132        -1.15155       -0.748727
LJ         -0.649822        -2.27405          2.1741
LJ           1.94426        0.986712         1.71972
LJ          0.483059         1.73949        0.107363
LJ         -0.243576        0.477562        -1.55492
LJ         -0.813334       -0.583232       0.0278601
LJ          -2.13923           1.556         1.16668
LJ           2.35454         2.23048        -1.54866
LJ          -1.39296         2.19195        0.496616
LJ          -1.16565        -1.30233        -1.76956
LJ          0.145552        0.923597       -0.673953
LJ           1.25664         1.96707         1.37124
LJ         -0.391146         1.87337         1.14573
LJ          -0.49045        0.811568         1.27571
LJ           2.19171       0.0239943         1.46902
LJ          -1.81153        -1.98806       -0.307065
LJ         -0.309228        -1.40056        -1.09897
LJ          0.615075        -1.83107         -1.3701
LJ         -0.844989        0.659834       -0.789354
LJ           1.69952        0.836588       -0.126699
LJ            2.0087         1.03529        -1.37795
LJ          0.900811         -1.4137        -2.24396
LJ             2.228         -1.7041         1.53317
LJ          -1.39868       -0.378011         2.03064
LJ          -2.06473        0.672622        0.627147
LJ            1.3557         2.11538        -1.44444
LJ          -2.37562       -0.765553        -1.06071
LJ           1.57573         1.45912        -2.16857
LJ       -0.00666609        -1.22019      -0.0290231
LJ          -1.43315         -1.8943         1.23258
LJ          -0.16574         1.26866         2.20103
LJ           1.29146        -2.32013         2.26478
LJ          -1.46739         1.83886       -0.556077
LJ        -0.0298356       -0.924794        0.922234
LJ          0.914911        -1.50813       -0.463153
LJ         -0.452377         0.48377         0.15192
LJ           1.17366        0.121659         1.91004
LJ           1.21403        -1.76088         1.48013
LJ          0.556923        -2.22243        0.890968
LJ         -0.719869        0.452954         2.28081
LJ         -0.575342          1.5011       -0.197989
LJ          0.276755       -0.172023        0.224786
LJ            1.3573       -0.129462        0.818408
LJ          -2.07383         1.57763        0.159736
LJ         0.0278328        -1.49592         1.89883
LJ         -0.404091        -1.83564         1.01585
LJ         -0.535377       -0.389663       -0.929819
LJ           0.66924         1.02364        -1.56218
LJ          -0.98609       -0.963507         1.06052
LJ          0.152376        -0.78233        -2.01707
LJ          0.732536       -0.695234          1.6095
LJ          -2.07488        -1.50397        0.530802
LJ           2.31729        -2.35973        0.797061
LJ           1.18717         1.33124       -0.800423
LJ         -0.970143       0.0674723        0.938688
LJ           1.61959         1.73978        0.412418
