108
#Comment!
LJ          0.867139        0.156488      -0.0596419
LJ           1.73978       -0.160209        0.816639
LJ           -2.0202        0.624307       -0.190165
LJ          -2.25489        -2.01895       -0.310638
LJ          -2.33331         1.64209      -0.0790574
LJ            2.0793         -2.0839         1.76093
LJ           1.62988         2.09524       -0.507893
LJ           1.35305       -0.737985       -0.132589
LJ         0.0986564         2.35464         -1.5973
LJ          -1.32465          0.7637        -2.34123
LJ           2.28844         2.03272        -1.29119
LJ          -1.71819         1.57547        -1.80082
LJ          -1.02974        -1.02509        -1.20376
LJ          -1.86196        -1.59386         1.96365
LJ          -2.29066        0.981882        -1.12521
LJ          -1.99489       -0.152928        0.681595
LJ          0.966105        -1.58261         1.83868
LJ           1.33024        0.376377         1.58931
LJ           1.88131        -1.27763        0.528242
LJ          -2.29038           -2.05        -2.01029
LJ           2.36578        -1.04821        -0.78562
LJ          0.958486         2.28435         1.17973
LJ          -1.88667          2.1203         2.05706
LJ            1.4454         1.47037        -1.31066
LJ           2.21925        0.098617         1.84963
LJ          -1.80715       -0.133286        -2.24625
LJ          -1.12504         1.45109         1.71544
LJ           1.88366        -1.21568         2.16983
LJ          -1.22563         1.17424        -0.25368
LJ            2.0436       -0.043874       -0.561857
LJ          -1.34915       -0.718254         1.70181
LJ          -1.98463        -1.70906        0.946932
LJ        -0.0712096        0.355518        0.304539
LJ           1.34853       -0.610274         1.66094
LJ         -0.200736        0.994599       -0.506038
LJ          0.868582        -1.45114        -1.76516
LJ         -0.061936        -1.86268          2.3055
LJ          0.586151        -1.54196       -0.846589
LJ          -1.77654        -1.91841        -1.18598
LJ           1.92329        -2.20258        0.831318
LJ         -0.420834         1.99821       -0.381195
LJ         -0.722687         1.50895        0.510075
LJ        -0.0568343         2.26773         1.35133
LJ         -0.170646         1.24363         1.89294
LJ           2.33928        0.609846        -2.07544
LJ         -0.475372      -0.0811398       -0.834603
LJ           1.27143        -2.32936        -1.42191
LJ          0.717126         1.30419         1.54202
LJ            1.8083        0.899562       -0.286166
LJ            2.1294       -0.268414        -1.56628
LJ         0.0828323       -0.501806        -2.16336
LJ           1.35313         1.78182        0.395957
LJ          0.367341         1.46609        -1.22012
LJ           0.41795        0.383319        -1.13407
LJ          -1.63625       -0.314367       -0.748355
LJ           -1.1475        0.215947       0.0780568
LJ           1.55782        -1.59323       -0.588927
LJ           -1.8958        -1.10217        -1.82071
LJ           1.80425         1.71863         1.44147
LJ          0.990725       -0.896325        0.774683
LJ          0.690352         2.19241         2.18333
LJ           1.35321        0.475646        -1.08393
LJ          0.249631         1.22902        0.690841
LJ          0.122207       -0.619549        0.155323
LJ          -1.12014        -1.27953        0.708886
LJ         -0.468945         2.01122        -2.28929
LJ           2.17684         0.75953        0.876257
LJ         -0.132401        -1.50504        -0.20351
LJ           2.14073         1.61145        -2.20273
LJ          -0.65621       -0.482347         1.01657
LJ          -1.19814        -1.65465       -0.387826
LJ         -0.192504        0.746559        -1.83097
LJ          -1.26221        -2.26037        -2.03041
LJ          -1.35204        -2.36391         1.30673
LJ          0.458807      -0.0908267         1.01462
LJ          0.530065        0.284596         2.26861
LJ         -0.105879         -1.3072        -1.48563
LJ           1.19932        0.796061        0.681875
LJ          0.831536        -1.76467        0.144811
LJ          0.768794         1.18261       -0.295671
LJ          -1.30815        0.890313        -1.22743
LJ           2.30172       -0.785772         1.33787
LJ         -0.649448         1.58792        -1.28081
LJ          -0.62183        0.706563          1.0963
LJ          0.417129        -1.63617        0.984287
LJ          -1.87227       -0.988523       -0.027522
LJ          0.568684         2.22078       -0.546401
LJ         -0.782222        -2.08608        -1.16663
LJ         -0.766942        -1.67855         1.54906
LJ          -2.17732         1.04284         1.77309
LJ           1.26066       -0.494178        -2.13595
LJ         -0.875168        -0.22877        -1.78057
LJ          -2.03507         1.82176        0.872325
LJ          -1.53246        0.291586         1.59413
LJ          0.286802         2.19611        0.410752
LJ         0.0890121        -0.99925         1.70207
LJ          0.842812         1.32261        -2.17467
LJ          -1.52472        0.947368        0.713711
LJ           1.27469       -0.529065        -1.13814
LJ              1.83         -1.2681        -1.56168
LJ          -1.46639         2.15357       0.0436279
LJ          0.361183       -0.568014       -0.781248
LJ          -1.61093         1.85199       -0.838707
LJ           1.38985        0.508502        -2.17526
LJ         -0.617943        -2.10948        0.522963
LJ         -0.944412         -1.2164        -2.21955
LJ         -0.463947        0.304472         1.94033
LJ         -0.928645       -0.700615       -0.105979
