108
#Comment!
LJ           1.72797       -0.117663         1.30812
LJ           2.31026         2.28646        -1.86813
LJ          -2.18596       -0.242571       -0.682329
LJ          -2.12876         1.37683       -0.301211
LJ         -0.118653       0.0867694        -1.50281
LJ          -2.31749         -1.1419        -1.13768
LJ          -1.51283        -2.33289        -1.72035
LJ          -1.50228         1.42485        -1.92659
LJ          -2.26456      -0.0894297        0.666349
LJ           1.80224        0.160893        -1.50505
LJ       -0.00834114        -1.60409        -2.12139
LJ          0.141777        0.557615       -0.632806
LJ           1.54279         -1.8308         -1.1014
LJ          -1.43726        0.558331       -0.183678
LJ         -0.854805       0.0118635        -2.15962
LJ           -1.4192         0.48704        0.809929
LJ           1.40677        -0.68466        0.196482
LJ          -1.77049        0.268188        -2.30815
LJ           2.36364        -2.04058        0.387024
LJ           1.03184        -1.15521        -1.56975
LJ           1.34081       -0.477012        -2.25061
LJ           2.30067         1.16062         2.35258
LJ           1.87657         1.97951         2.03255
LJ         -0.600778        -2.32982       -0.664054
LJ           1.08341       -0.962143         1.11384
LJ          -1.86001         2.11957         2.13195
LJ         -0.308855         1.06871        0.549691
LJ           1.55028        -2.14614         1.33793
LJ          -1.41202        -1.53301       -0.349433
LJ         -0.499013         1.13144        -2.27878
LJ          -1.52181       -0.387123       0.0548689
LJ          0.553323        -2.15272       -0.974637
LJ          -1.38432        -2.33224         1.37236
LJ          -2.25968        -1.79354         1.37657
LJ           1.28394         2.26226        -1.97839
LJ          0.818013        -0.20768        -1.24456
LJ          0.279666         1.53374       -0.724743
LJ          0.284467        -1.90349       0.0886527
LJ          -1.55891         1.69381        -1.01698
LJ         -0.729255        -2.02528        0.272291
LJ           2.13767          1.5666        -1.18907
LJ          -1.30763         1.55008        0.792962
LJ           1.03303        0.824073       -0.960843
LJ          0.741805        0.393873        -1.99727
LJ          -2.25489        -0.77112         1.75475
LJ           1.32356        0.884944         1.72549
LJ           1.66141         1.59496        0.876043
LJ          0.325121         2.15616        -2.00239
LJ          0.675969         1.57303        0.774043
LJ          0.746995       -0.161531         1.71344
LJ        -0.0304828        0.307861          2.1661
LJ           2.16244        0.581848       -0.351751
LJ           1.60637        0.633428        0.647428
LJ          0.170108       -0.718725        0.728627
LJ          -2.23107       -0.704573        -2.02318
LJ         -0.774089         1.25226       -0.502608
LJ          -2.25084        -1.05794       -0.148246
LJ           -1.5404        -1.62826        0.628742
LJ           2.01919        0.136359         2.30408
LJ          -2.31719        0.492139         1.48708
LJ          0.417118          1.1526         2.07024
LJ          0.850836         2.04935       -0.136846
LJ          -2.13501         1.13059        0.630636
LJ          0.610949        -2.23865        0.987774
LJ          -1.39397       -0.503395        -1.47178
LJ           1.91559        -1.58567         2.21679
LJ          -2.04477        0.520803        -1.22901
LJ          -0.50196        -1.53274         1.17536
LJ          0.194933         1.05196        -1.60492
LJ          -2.19759        -2.20998       -0.795931
LJ         -0.695838       -0.860212        0.286278
LJ         -0.426986         2.15795         1.03303
LJ         -0.121985         1.95464       0.0725098
LJ          -2.24389         1.99385         1.16318
LJ          -1.93076        -1.61132        -2.15763
LJ         -0.604789         1.15339         1.45098
LJ           1.50874         1.27088       -0.175478
LJ           1.65214       -0.620898       -0.774107
LJ           1.24971         1.22973        -1.95359
LJ       -0.00612824       -0.914672        -1.36087
LJ         -0.715891       -0.462958       -0.780643
LJ           1.82886         2.16527       -0.242162
LJ         -0.247711        -1.39206        -0.51687
LJ         -0.356265        0.187854         1.12224
LJ           1.16339         1.82999        -1.03179
LJ           -1.4325         2.14011       -0.126673
LJ         -0.529227         1.81037        -1.44849
LJ         -0.962424        -1.44337        -1.41425
LJ          -1.34101       -0.829848         2.15444
LJ         -0.430211       -0.555627         1.88021
LJ           1.36963        -1.69767        0.421038
LJ         -0.490851        0.210993       0.0552408
LJ           2.26621        -1.03169        0.842781
LJ          0.935895         -1.8154         2.18169
LJ          0.908276         1.98851         1.80543
LJ          0.265386        -1.22105         1.68276
LJ         -0.766931          1.9724         1.98487
LJ          0.570237        0.497968        0.748711
LJ           1.03459        0.199636      -0.0910099
LJ          -1.36203       -0.489114         1.12129
LJ          0.283148       -0.385111       -0.263556
LJ         -0.916912        -1.75939         2.11586
LJ         -0.874927        0.585916        -1.23948
LJ          0.362972       -0.660549        -2.27181
LJ          0.072038         -2.2605         1.85072
LJ          -1.60134         1.15912         1.64579
LJ           -1.0968        0.264046         1.68174
LJ          0.726749        -1.29999       -0.519008
