108
#Comment!
LJ           1.47835         1.58463        -1.07655
LJ         -0.645208         1.73683       -0.625296
LJ          -1.42674        -2.11167       -0.317474
LJ          -1.69757        -2.12637         1.73014
LJ         -0.203803       -0.741577         2.30053
LJ           -1.7265         2.02051         -1.0939
LJ           2.10415         1.65812         0.68688
LJ           1.67402       -0.128558        0.710203
LJ         0.0504038        -1.62752          1.8385
LJ         -0.514277        0.122789         1.85845
LJ          0.496623      -0.0635355          2.0662
LJ          -1.21352        0.142595        -1.26318
LJ           1.33631        -2.31687       -0.584662
LJ          0.367715       -0.379045        -1.56611
LJ          0.595988         1.73764         1.69131
LJ          -1.00999       -0.421901        0.764731
LJ          -1.39846       -0.710912       -0.213803
LJ          0.605674       0.0174745       -0.622316
LJ         -0.478593        0.775601       -0.725422
LJ           -1.8453       -0.568601        -1.47903
LJ         -0.504111       -0.549443         -1.1235
LJ           1.60884       -0.313665       -0.520759
LJ          0.204908         1.43552        0.176671
LJ           -1.4727         1.42722        0.743998
LJ          -2.25422      -0.0769854          1.2706
LJ          -1.12776         1.08795          1.5976
LJ           1.73701         -2.1634        -1.49676
LJ           2.37871         1.00975        -1.09845
LJ           1.25992       -0.925895        -1.27124
LJ          -2.21544       -0.325712        0.253143
LJ          -0.94438         2.35549        -1.68621
LJ          0.631554         1.35005        -2.12962
LJ          -0.12528        -1.34422        -1.48263
LJ         -0.286566         1.63882         1.19294
LJ           1.08163         -2.3706        0.474534
LJ          -1.01309        0.605498        -2.15298
LJ           1.93559        -0.15953         -1.5274
LJ          -2.17846         1.71799         1.63682
LJ          -1.56831         1.05103       -0.206393
LJ         -0.223734        -2.15248        -1.00411
LJ            2.1517        0.729377        0.248791
LJ         -0.762403        -2.29447         1.35856
LJ          -2.04851        -1.45244         0.13421
LJ           2.28033       -0.965836         1.09003
LJ           1.23061        -1.35899       -0.407059
LJ         -0.741879        -1.20435         1.53922
LJ          0.152929        -1.20862        0.575611
LJ            2.1056        -1.25476        -1.78297
LJ           1.24679       -0.518867        -2.17148
LJ          0.702136        -1.87647        -1.38981
LJ           1.08484        0.635141      -0.0457609
LJ          -0.68147         2.20154        0.362115
LJ         0.0759916        -2.11423         0.99248
LJ           2.00827        0.807753          1.2811
LJ          0.862008       -0.502444        0.294469
LJ          -1.11248         1.37848        -1.49769
LJ          0.166213        0.305102        0.207408
LJ          -1.41262       -0.475173         1.64989
LJ           1.10918         2.24713        -2.18879
LJ          -1.06178        0.253635       -0.135529
LJ         -0.887665        -1.56369        -2.29429
LJ           1.14201        0.552444        -1.82015
LJ         0.0779989         2.27967          2.3763
LJ          0.741032        -1.39185        -2.20636
LJ          0.614506         1.01569       -0.919216
LJ           2.05922        -2.17774        0.205455
LJ          0.232488        0.811412         1.62618
LJ          -1.57811        -1.35315         1.14401
LJ           1.48737         0.54539       -0.935046
LJ           1.06716         1.21827        0.941563
LJ          0.703948       0.0666708         1.13871
LJ           1.55988       -0.236712         1.69811
LJ          0.351877       -0.960321       -0.634887
LJ           1.10187        -1.97616         1.44235
LJ           1.66475        -1.42429         2.02737
LJ         0.0474874         1.76567        -1.52289
LJ           -2.2391         1.83216       -0.242317
LJ           1.22638        0.744605         1.90191
LJ          -1.73427        -2.35207         0.69983
LJ          0.112086        0.543752        -1.85246
LJ           2.17642        -2.08266         1.22594
LJ          -1.92348        0.100104       -0.597318
LJ          0.845541       -0.958381         1.66055
LJ           1.36895        -1.28946        0.833652
LJ           1.81668         1.55263        -2.00758
LJ          -1.88438         -2.0685        -1.93509
LJ         -0.374607       -0.564608       0.0512423
LJ           1.44584         1.56476      -0.0940894
LJ         -0.342721         1.31093         2.34359
LJ          -1.88737        -1.24361         2.17444
LJ         -0.460918        -1.45292       -0.331414
LJ           2.33012        -0.40761         2.29482
LJ           2.04985        -2.31089         2.21027
LJ          0.399082        -1.89946       -0.153317
LJ         -0.118319       -0.505359          1.1992
LJ          0.434452         1.96067       -0.616636
LJ           1.59283          1.7443         1.60038
LJ          -1.84961        0.479022         1.99628
LJ          -2.30113        -1.86335       -0.733716
LJ          -1.29501        -1.39985        -1.27662
LJ         -0.572108        0.894052        0.597786
LJ           2.10386        0.588244        -2.17639
LJ          -1.14547       -0.574418        -2.15201
LJ          -2.37463       -0.879542       -0.646538
LJ          -1.89178         1.22823        -2.13999
LJ           -1.1616         1.85593         2.21185
LJ          -1.51366        0.395205        0.732027
LJ         -0.813787        -1.57208        0.574945
