108
#Comment!
LJ          0.323164       -0.722924        -2.14198
LJ           2.08472        -1.26471        -1.94022
LJ          -1.44433      0.00491956        -1.78442
LJ           1.62464       0.0609583        -1.06998
LJ           1.97809         1.29507        0.408404
LJ          -1.45741       -0.115597        0.902774
LJ           1.20908        -2.11249        -2.11119
LJ          -1.10492        -2.23648        -1.75063
LJ           1.03185        -2.01597         -0.4941
LJ           2.33535       -0.330368        -2.03991
LJ           1.35669        0.171192         -2.1851
LJ          0.327786        0.988355         1.41052
LJ         -0.714102        -1.49591         -1.0262
LJ          -1.00472        -0.50049         2.10091
LJ          -1.98418         1.52829        -1.88365
LJ          -2.30742         2.27353       -0.472818
LJ           -1.4632       -0.579584       -0.880598
LJ          0.686811        0.305193        -1.29792
LJ          -1.27585        0.926218          -2.099
LJ           2.11445        -2.09017         1.79614
LJ          -1.82873        -1.92007        -2.35881
LJ         -0.344189        -2.21036       -0.468061
LJ          0.648746      -0.0491634         1.90986
LJ         -0.520222       -0.581246        0.852488
LJ          -1.91979         1.22685         1.65832
LJ          -2.10322        -1.39306       -0.395096
LJ           1.56797         1.79895       -0.305671
LJ           2.21437        0.452888        0.813513
LJ          -1.86794      0.00627058         1.84216
LJ          -2.37152        0.576602        -1.60611
LJ           1.77979        -1.49617       0.0657513
LJ         -0.724617         1.83884         1.41198
LJ           1.36245       -0.857614       -0.746617
LJ           1.79957        -1.79075        -1.09282
LJ            1.6921        -2.32742        0.651482
LJ            2.1324       -0.525752       -0.129309
LJ          0.299481        -1.28609          -1.278
LJ          0.457293         1.98284        -2.38031
LJ         -0.599996         1.64266       -0.836741
LJ           0.69397       -0.901538         1.26628
LJ           1.51253         1.06889        -1.75563
LJ          -1.72219        0.445831        0.141011
LJ          -0.46016         1.03463         2.03515
LJ          0.319425        -2.29921        -1.19099
LJ          -1.54666         1.72986        -1.00491
LJ         -0.188499       -0.912639         1.78706
LJ         -0.946708        -1.88732          1.2786
LJ          -1.89526        -1.66633        -1.32155
LJ           1.03646        -2.30388          1.6986
LJ          -1.97574         1.32334       -0.206312
LJ           2.19802         1.39912        -1.06849
LJ           2.08083         1.76511         1.41027
LJ         -0.583521        -0.87537        -1.79944
LJ         -0.441991        -2.36845         2.22252
LJ            1.1277         1.47066         1.76783
LJ           0.39754        0.939139        0.400309
LJ         -0.385797         0.79752        -1.46689
LJ          -0.75984        -0.13182       -0.185531
LJ          -2.16958        -1.44001        0.598981
LJ           2.19727        -2.30192        -1.79864
LJ          -1.13282        -1.42707      -0.0545676
LJ           2.34012       -0.656354        -1.09452
LJ          0.524079         1.66684       -0.419012
LJ           0.98014         1.68365        0.799933
LJ          -1.04912         2.17126        0.455152
LJ         -0.247235       0.0909031         1.53399
LJ           2.37632       -0.558222         1.01811
LJ         -0.314719        -1.62698        0.402365
LJ           1.28132       -0.729007        -1.76756
LJ           0.23576        -1.86454        -2.12088
LJ         -0.480901        0.668204        0.621746
LJ          -2.13946        0.261438       -0.731907
LJ           1.89947          1.7407         2.36871
LJ           1.41715        -1.17018         2.04811
LJ           1.61942       -0.188128         1.54058
LJ           2.36227        -1.07525         1.88021
LJ           1.76088        0.460361       -0.128023
LJ            1.2582         1.95528        -1.28265
LJ          -1.73669       -0.972309        -2.13032
LJ           1.31364        0.659667         1.11634
LJ         0.0853414       -0.768721       -0.120767
LJ          -1.33879         1.93309         2.24517
LJ          -0.47355         1.74997        -1.80825
LJ          0.616356        0.883741        -2.25915
LJ          -1.39503        -2.14331       -0.614077
LJ          0.302126         2.32454         0.28188
LJ         -0.870939        -1.49525         2.16355
LJ         -0.386504       -0.175909        -1.18127
LJ           2.02118        0.759865         2.01534
LJ          0.180643         1.99914         1.35292
LJ         -0.371718         1.52537       0.0382313
LJ          -1.10071        0.583697         1.41799
LJ          -1.33301         1.20994         0.66147
LJ          0.673667        -1.50649        0.319538
LJ           1.52129        -1.43835         1.06785
LJ          -1.82608         2.37297         1.37371
LJ         -0.164586        0.157191        -2.18396
LJ          0.197173        -1.78652           1.527
LJ          -1.22734        0.870277       -0.646858
LJ           0.43306         1.36879         -1.3481
LJ          0.601097       0.0458926        0.702906
LJ          -0.14819        0.725113       -0.523225
LJ           1.39508       -0.585568        0.539203
LJ          -1.53198        -1.07583         1.33404
LJ          -2.12897         2.03775        0.504567
LJ           1.20756         1.01339       -0.819616
LJ          -1.62998       -0.592713       0.0951256
LJ          0.666005       0.0795256       -0.284752
