108
#Comment!
LJ          -1.31614        -1.63578         1.71018
LJ        -0.0614416         2.00273        -1.25124
LJ          0.664837        -1.98635         2.22234
LJ           1.11167        0.924204          1.9917
LJ          0.154777       -0.363963        0.972404
LJ           1.33465         2.12609          1.4696
LJ         -0.766527        -2.25956       -0.761855
LJ          -2.16335         2.05025        -1.60207
LJ           1.63146         1.18019         -1.4552
LJ         -0.271058        -1.65082        -1.62669
LJ          -1.96166       -0.159406         1.22665
LJ           1.60268       -0.327496        -1.33377
LJ         -0.559611       -0.907354        0.438099
LJ          -1.32704        0.443032         1.72231
LJ          -1.95729         1.29774       0.0712691
LJ          -1.70483         2.26193         2.27284
LJ          0.979258         1.71816        0.236458
LJ           1.83864         1.08406        0.369323
LJ          -2.30655        0.383736           2.032
LJ           1.17564        -1.52416         1.01218
LJ          0.668389        -1.30946        0.126912
LJ          -1.62481         1.88541         1.08206
LJ           -2.3307        -1.74935        -2.02166
LJ         -0.414913        0.978298        -1.36546
LJ          0.303529         2.36895       -0.119858
LJ         -0.684682          1.9416        -2.05012
LJ            1.5275        0.428781        -1.98465
LJ             2.294         2.26269         1.66212
LJ           0.78644       -0.437503        -1.84187
LJ           2.35646       -0.887071         -1.4871
LJ           2.18608        -1.73869        0.976835
LJ          0.667271          1.3902         1.18688
LJ         -0.756188       0.0211495      -0.0401832
LJ          -2.19239        -1.76028     -0.00744648
LJ         -0.843075        -2.34132         1.10521
LJ         -0.958285       -0.467889         1.99757
LJ         0.0556944        0.222412        -1.78474
LJ          -2.23917         1.31021        -1.02509
LJ          0.942898         0.37378        0.915849
LJ          0.851338         -1.1018         1.80921
LJ          0.101616        -1.60527       -0.657344
LJ           1.58178        -1.15369       -0.072619
LJ          0.253184         0.24212        0.184574
LJ          0.389809        -2.35776        0.963272
LJ          -1.21706        -1.59401      -0.0921225
LJ        0.00386635       -0.664415       -0.320957
LJ         -0.161991        -1.15224         2.16613
LJ          -1.23674         2.17368       0.0631708
LJ         -0.683986        -1.05442       -0.944475
LJ           1.87384       -0.394706        -2.37922
LJ         -0.890555         1.16706         -0.1868
LJ           2.01821        -1.57015       -0.846758
LJ         -0.541714       -0.569852        -1.85209
LJ         -0.301323        0.785981         2.27212
LJ          -2.02672        0.836844         1.08041
LJ           1.25548         1.82308        -2.34392
LJ          -1.26138        -2.17378        -1.59655
LJ           2.26452       -0.492238       -0.394913
LJ          -1.52745       -0.830789        0.601865
LJ         -0.953748      -0.0498397        0.955545
LJ          0.683016        0.434829        -1.03269
LJ          -1.93048        0.205198         0.25405
LJ          -1.77709          2.3132       -0.763368
LJ           1.27199         1.04115       -0.473025
LJ          0.292817         1.88742        -2.19705
LJ          0.043784        0.572818         1.28982
LJ          -1.29768        0.681773        -1.02897
LJ           1.09103       -0.513245        0.626715
LJ           1.90105        0.250574         1.12694
LJ          -1.71147        -1.33719        -1.04143
LJ            2.1166         1.31077         2.36642
LJ           1.19658       0.0233402       -0.277497
LJ          0.652523         1.09105        -1.75021
LJ          -1.26923         1.40428         1.82337
LJ          -1.84395       -0.426715        -2.23529
LJ           2.26507       -0.730385        0.597804
LJ          0.188828         1.14226       -0.566003
LJ          -1.29535        -1.31701        -2.06151
LJ           1.63089        -1.83201         2.05054
LJ          -1.61153        -1.79426        0.827911
LJ          0.627826          -2.073        -1.56273
LJ           0.10242       -0.218997         1.95436
LJ          -0.36854        -1.85991        0.351451
LJ           2.27331          2.0565        0.655951
LJ          -1.15385         1.63289        -1.18151
LJ         -0.363929         1.69493          1.5304
LJ          -1.65697        0.976153        -2.02029
LJ           0.96092         1.89511       -0.946296
LJ           1.29911        -1.31629         -1.6286
LJ          -0.29147        -2.09671         1.93455
LJ            2.0101         1.84827        -0.40855
LJ           1.61229        -2.23973         -1.6103
LJ          -1.46311       -0.642166       -0.417067
LJ          0.188346         -1.3726          1.0489
LJ            2.1454        0.478267       -0.469903
LJ          0.948905       -0.854193       -0.775125
LJ         -0.288809         1.65326        0.529476
LJ         -0.493281      -0.0108166        -1.00129
LJ           1.78652        -0.73969         1.42271
LJ           1.09551       -0.114142         1.85019
LJ          -1.59882       -0.215804        -1.22568
LJ          -2.34921        0.360077        -1.62935
LJ          -1.11901         1.00563        0.770311
LJ         -0.997784        0.284755        -2.10996
LJ          -2.29313        -1.20017          1.8713
LJ           1.78006         1.26995         1.31951
LJ           1.55878         -2.1638        0.168106
LJ           1.07029        -1.85075       -0.635929
