108
#Comment!
LJ          -1.41206       -0.928152         1.50387
LJ         -0.194184         2.10474        -1.77989
LJ          0.755908        -1.81372         1.48495
LJ          0.666288         1.37798         2.24658
LJ         -0.397438       -0.214834         1.86586
LJ           1.52725         1.83497        0.174385
LJ          -1.17829        -1.46091       -0.835487
LJ          -2.25157         1.94485        -1.61114
LJ           1.64113         1.45768        -1.62764
LJ           1.06984        -1.41793         2.36002
LJ          -2.14299        0.576859         1.34652
LJ          0.257868       -0.479971       -0.849482
LJ          -1.04369        -1.17782        0.104379
LJ          -1.23115         1.18635         1.78427
LJ          -1.60388         1.79909        0.374394
LJ          -1.54918        -1.62862         2.15659
LJ          0.293816         1.00294        0.358672
LJ           1.23417        0.932682       -0.163231
LJ           1.51733        0.651374         1.81735
LJ          0.830732        -2.06262        0.272002
LJ          0.728118        -1.15447         0.72939
LJ          -1.06364         2.15022         1.20683
LJ          -1.94399         2.20523          2.1883
LJ         -0.628499         1.49701        -0.68261
LJ         -0.715095         -2.3269        -1.03002
LJ          -1.31641          2.0682        -1.71601
LJ           0.90947        -0.29013        -1.62171
LJ          -2.31444        -2.16366         1.34263
LJ         0.0572127       -0.636517        -2.14745
LJ          -1.75826       -0.831897          -1.356
LJ           1.42803        -1.15882         1.44206
LJ          0.809153         1.76425        0.900588
LJ         -0.620027         0.30604        0.239413
LJ           1.49501        -2.32018        0.959138
LJ          -1.42477        -1.80382        0.959959
LJ          -2.19904       -0.547649         2.36954
LJ         0.0686818        0.173916        -1.56183
LJ          -2.17722        0.944904        -1.56139
LJ           1.49964        0.643328        0.736825
LJ          0.400466       -0.774232         1.66713
LJ        -0.0773741        -1.41847       -0.945318
LJ           1.54417       -0.612771        0.498849
LJ          0.157049      -0.0581272        0.997721
LJ        -0.0923258        -2.11014         1.06415
LJ           1.75442        -1.56037        0.178251
LJ         -0.235028        -0.56386       0.0181768
LJ         -0.473241        -1.53334         1.84647
LJ          -1.00691         -2.2724      -0.0376735
LJ           -1.8489        0.114555        -1.19074
LJ           1.74908        -1.01015        -1.73403
LJ          -1.35111        0.908761        0.809309
LJ           1.98985        -2.02315        -1.30746
LJ          -0.60074       -0.623225        -1.34975
LJ         -0.344369        0.980604         2.24762
LJ          -1.29719       0.0459688         1.28754
LJ            1.4452         2.08461         2.06433
LJ         -0.825302        -1.74751          -1.867
LJ           1.70879        -1.14951       -0.730857
LJ          -2.27323       -0.523004       -0.496792
LJ          -1.47454       -0.256699        0.076393
LJ        -0.0132067        0.675683       -0.520639
LJ            2.3309          1.2511        0.397557
LJ           1.28006        -2.22694       -0.668805
LJ          0.986953        0.505754        -1.01653
LJ          0.130546        -2.30355         2.05222
LJ          0.611846        0.856981         1.37029
LJ          -1.21915         1.11416        -1.85473
LJ           1.09491       -0.164236          1.2609
LJ          -2.35436        0.122781        0.370164
LJ          -2.06281        -1.58197       -0.354406
LJ          -2.19151         1.15585         2.13458
LJ          0.678594       0.0147419        0.093285
LJ           1.10604        0.641444        -1.96241
LJ          -1.97111         1.63397         1.29585
LJ           1.85881       -0.108312         -1.2723
LJ           2.18035       -0.293717         1.49931
LJ        -0.0917196         1.18375        -1.58371
LJ          -1.92849         -1.7046        -1.68993
LJ           2.04154        -1.88661        -2.37552
LJ           -2.2189        -1.05334        0.674962
LJ          0.868024           2.171        -1.90203
LJ          -1.15313       -0.824658        -2.19495
LJ        -0.0641481        -1.74263    -9.74503e-05
LJ           2.37441         2.37417        0.115443
LJ          -1.66256         2.16561       -0.793923
LJ          -0.13715         1.61226         1.47699
LJ           2.07947        0.335182        -2.14976
LJ          0.268189        -2.31106       -0.886583
LJ          0.884489        -1.54667        -1.26974
LJ         -0.958059         2.17795         2.15743
LJ           0.67705         1.41965       -0.875985
LJ           2.09112         1.72879       -0.725454
LJ          -1.27798         1.03288       -0.206905
LJ         -0.588713       -0.967016         1.03257
LJ           1.58411      -0.0476881       -0.304665
LJ          0.135384        -1.66595        -1.99904
LJ         -0.668339         1.49423        0.466973
LJ         -0.890992         0.32736       -0.938775
LJ           1.47278       -0.339912         2.15188
LJ          0.470014        0.221927          2.0384
LJ          -1.68772        0.349214         2.33331
LJ          -2.30182        0.602462       -0.475717
LJ         -0.517503        0.636409         1.16129
LJ         -0.814015        0.245665        -2.00458
LJ          -2.28742        -1.25506         1.69135
LJ           1.81153         1.48385         1.12647
LJ          0.144722         1.98652        0.186868
LJ          0.883447       -0.900664       -0.199323
