108
#Comment!
LJ           0.10672         1.89632       -0.432667
LJ          -1.32669         0.45065         2.34064
LJ         -0.239748        -0.87681        0.212747
LJ          0.476942       0.0579213       0.0539777
LJ          0.521987         1.06658      -0.0224317
LJ           1.27264        -1.29319        -2.21075
LJ          0.290425         2.37987        -1.29813
LJ          0.330669        -1.89245       0.0963129
LJ           1.00781       -0.766544       -0.805406
LJ           -1.3016        -1.44601       -0.546078
LJ            1.3567         1.91401       -0.511548
LJ            1.0881        0.515387         1.03192
LJ           1.36968       0.0696994         2.04325
LJ          0.722628       -0.434101        -1.79092
LJ           2.23228          1.8457       -0.114084
LJ          -1.16749        0.913197        0.296798
LJ           1.49951        0.261582         -1.7654
LJ          0.103496       -0.500768       -0.729574
LJ         -0.330937         1.59604        0.419195
LJ          -0.70741        -2.21184        -1.19098
LJ         -0.903623        -1.30705         -1.6361
LJ          -1.54971         1.90519       0.0233386
LJ           1.26232         2.37858        0.559414
LJ           1.94211        0.940714        -1.13713
LJ        -0.0450989        0.777314        0.887207
LJ          -1.29794        -1.20856         1.82174
LJ           1.97913       -0.815558        -1.62801
LJ           1.86564        -0.86054          1.8933
LJ         -0.662863        0.322203         1.59159
LJ           1.22849        -1.78597       -0.309223
LJ         0.0115509         2.25978          1.2028
LJ           2.00116         -1.0186       -0.547693
LJ           1.98294         1.66763         1.92344
LJ           1.58816        -2.21615        -2.25802
LJ          0.499535        0.294266         1.77966
LJ         -0.921757       -0.364403       -0.363543
LJ         -0.375921       -0.508416         -1.6014
LJ          0.477224        -1.42563        -1.50394
LJ          -2.28374        -1.94247        -1.66709
LJ          -1.90263         1.50402       -0.858734
LJ          -1.50451       -0.161504        -1.19645
LJ         -0.767484         1.30899        -2.32685
LJ           1.23568        0.994128         1.82623
LJ          -2.24678        -1.99573          1.9984
LJ          -2.22184        0.060988        -1.97139
LJ          -1.53931        0.584359         1.22915
LJ          -1.75259       -0.320587         1.59891
LJ           1.58214       -0.243522       0.0556023
LJ           2.06031         1.95037        -1.26291
LJ          0.766576         1.38526        -1.04026
LJ          0.836306       -0.845513        0.222113
LJ          -2.04575        -1.12796        -2.28864
LJ           2.14285        -1.96421       -0.764812
LJ         -0.106194         1.29324        -1.45334
LJ           -1.8687         1.92421        -2.01533
LJ          -2.09575        -1.53124        0.187387
LJ           1.24506        -2.05887        -1.29138
LJ          -2.05321         1.48581        0.777823
LJ          -1.89707       -0.616799       -0.401622
LJ           1.24136        0.533797       -0.436208
LJ         -0.335527       -0.459755         2.17408
LJ           2.33236          0.5059         1.95866
LJ           2.12153        0.432222        0.980476
LJ         -0.713841         2.25454         2.08939
LJ           1.62048        -1.75023         1.61316
LJ          0.493328        -1.50631         1.00855
LJ         -0.346317        0.441418       -0.249442
LJ          0.745989         1.56972        0.956168
LJ          -1.76595         1.27661         1.96975
LJ          -1.45067         1.08595        -1.67577
LJ           2.32983        0.862437       -0.222243
LJ          -0.78625        -2.24999       -0.243696
LJ           -1.4746         -2.0998        0.689954
LJ         -0.273883        0.404728        -2.05732
LJ          -1.72382        -2.33021       -0.806868
LJ         -0.832579         1.40158       -0.633617
LJ           1.41425         1.51789        -1.95885
LJ          -1.83151        -1.15325        -1.32892
LJ           1.62895        -1.46033        0.645975
LJ          0.124988         1.29098         1.76483
LJ           2.31565         1.05068        -2.04803
LJ           2.15002      -0.0252504        -1.02711
LJ          0.389623         2.00194        -2.29244
LJ             2.231       -0.610332        0.936114
LJ           2.24339         2.36437        0.751079
LJ          -1.58401         2.23992         1.60745
LJ          -1.38848        -2.04115        -2.09871
LJ          0.218419       -0.441064        0.981207
LJ          0.317532         0.50911       -0.951491
LJ         -0.233332        -1.45756       -0.649285
LJ         -0.753537         0.45688        -1.21639
LJ          -1.51908       -0.778143          0.5307
LJ          -1.24094       -0.490901        -2.11401
LJ         -0.378717         -1.6599         1.73966
LJ         -0.646075       -0.859246         1.12797
LJ           1.58765          1.1505        0.357041
LJ         -0.526291        -1.75824        0.650354
LJ          -1.94261        0.126441        0.293868
LJ         -0.779215         1.31694         1.32472
LJ          -0.19056        -1.88841        -2.06016
LJ          0.604764        -1.82346         1.99423
LJ          -1.43825        0.559964       -0.547211
LJ           1.13436         2.08277         1.74325
LJ          -0.79931       0.0768837        0.661126
LJ          0.694476        0.873326        -1.93008
LJ           1.23636       -0.622433         1.16663
LJ          -2.06748        -1.48323         1.17271
LJ           0.62766       -0.740744         1.90332
