108
#Comment!
LJ          0.791637         2.35874        0.150969
LJ         -0.429133        -1.76505         1.19134
LJ           1.54991        -0.28644       -0.752112
LJ           1.39222       -0.313792        0.994676
LJ           1.90549        0.114161         0.23563
LJ          0.354601         1.08484         1.72337
LJ          -1.27382          1.6352         -1.8083
LJ          -2.20568        -1.98039       -0.442695
LJ           -0.9501        0.313645         2.20956
LJ         -0.703417         1.01865         1.34543
LJ         0.0307962         -1.8859         2.07651
LJ           1.26338         0.99567        0.227294
LJ        -0.0594232        0.210067        0.215403
LJ           1.22373         2.12867        -1.54662
LJ           2.35515       -0.854326       -0.480291
LJ          -1.71617         1.17736        0.964336
LJ         -0.931292          0.3557         0.64131
LJ          -2.34133        0.283585        -1.57859
LJ         -0.646272        -2.37924      -0.0315189
LJ           0.76827        0.471398        -0.94258
LJ         0.0936283         1.41478        -1.35346
LJ          0.880232         2.18311         1.98737
LJ           1.01673       -0.763209        -1.89357
LJ            1.7654         1.06669        -1.58639
LJ           1.91684        -0.35321         2.34346
LJ           -1.4469        0.616561        -1.75224
LJ          0.256431         2.16484        -2.04075
LJ          0.561783        -1.92696         1.21021
LJ          -1.05352          -1.943        -2.08245
LJ         0.0437656        -1.31462        -1.61354
LJ         -0.505419        -2.29428        -1.38323
LJ           -1.4895       -0.667637       -0.910162
LJ          -1.46184         1.30611         1.94755
LJ          0.946443        -1.71318        -2.26119
LJ           1.57614        -2.16805         1.29928
LJ           2.24888         1.12431        0.334092
LJ            1.5887        -1.46343       -0.293874
LJ         -0.547322          1.6192       -0.583243
LJ          -1.30728        -1.48656       0.0443294
LJ          -2.24598        -1.67315         1.53662
LJ          0.530986         2.28133       -0.765174
LJ           1.68965         2.01445        0.377162
LJ           -1.3389        -1.71015        -0.89534
LJ          -1.87306        0.337717        0.379895
LJ          0.625287       -0.526794        -1.02272
LJ          -2.06841         2.16053         1.23849
LJ         -0.953387         2.16259         1.37604
LJ          -1.12428        0.854149       -0.749091
LJ            -0.673        -1.22392         2.19777
LJ          -1.88257       -0.752912         1.50751
LJ         -0.462758        0.964481        -2.02527
LJ           1.98695        0.718109        -0.62507
LJ          0.217233        -1.60683        0.324194
LJ          0.217475         0.13351        -1.68258
LJ           2.23749       -0.695911        -1.45541
LJ           1.53299         0.77014         2.21745
LJ         0.0552448         1.96473        0.971931
LJ           1.41854        -1.15564         1.60059
LJ         -0.787989       -0.155608        -1.61729
LJ          0.880515      -0.0494691         1.78799
LJ          -2.07532        -1.83406        -1.74848
LJ          0.396892        0.943611        0.787923
LJ          -1.57662         2.27873        0.351712
LJ         -0.913285       -0.429624         1.38207
LJ          -1.92603        0.195055       -0.706363
LJ           1.78722        -2.26032          2.3386
LJ          -1.38841         1.36332       0.0526656
LJ             1.498         2.32938       -0.520636
LJ          0.881105         1.39092        -2.08615
LJ          0.322406       -0.611272        0.786966
LJ         -0.157112        0.726205       -0.702068
LJ          -0.36279         1.69212         2.04071
LJ          -1.48408         2.11225       -0.966717
LJ         -0.812881      -0.0424896       -0.290029
LJ          0.469566       -0.958494         1.83088
LJ           1.88244        -1.26347        -2.21391
LJ         0.0279248        0.197099         1.32633
LJ          -1.51034       -0.550436         0.18459
LJ           2.21157         2.04586        -1.20236
LJ         -0.392825       -0.794917       -0.919466
LJ           1.28602         0.74256         1.28097
LJ           1.16671        -1.51746        0.652213
LJ           2.10838         1.34649         1.46006
LJ          -2.08986         1.16216        -1.17974
LJ          -1.43095        -1.53144         1.02837
LJ          -2.19553         1.77006       -0.305687
LJ          0.810679        -1.53089       -0.925059
LJ           1.26127         1.40526       -0.798877
LJ           1.80432        -1.77632        -1.22341
LJ           2.36991        -1.92453         0.58645
LJ          0.381381          1.5076       -0.141569
LJ         -0.116091        -1.75232       -0.609804
LJ         -0.575153        -0.91124        0.441752
LJ           2.20664         0.26034         1.27971
LJ           -1.5998        0.333045         1.46633
LJ          0.910427      -0.0414946        0.213851
LJ           1.07154         1.73878         1.11432
LJ         -0.463283         1.26024         0.34635
LJ         -0.179111       -0.325686         2.30526
LJ           1.99691       -0.932428        0.495093
LJ           -2.2909        0.695826         2.19996
LJ          0.753257       -0.946913      -0.0612492
LJ          -1.08576        -1.12616          -1.648
LJ           2.33945         1.64333         -2.1305
LJ           1.41624        0.120942        -1.67884
LJ          -1.80142        -0.33026        -2.13242
LJ          -1.69295          2.2158         2.16615
LJ           -1.6422        -1.24826         2.25669
