108
#Comment!
LJ         -0.789165         -2.1552         1.57492
LJ           1.67463        0.344246        -2.24987
LJ         -0.138205         0.11085        -2.28972
LJ           2.00453       -0.908619         1.28992
LJ           1.26459       -0.275227         1.37986
LJ          -1.16398         2.29263        -1.24524
LJ         -0.337028         2.10955         2.25691
LJ           1.31117         1.32218      -0.0253438
LJ           2.36957        -1.70878        -2.11861
LJ         -0.531401         0.95436        0.302898
LJ          -1.14028        -1.63068        -1.99396
LJ          -1.66419         2.23917        -2.11248
LJ         -0.056873        -1.75519        0.945604
LJ          -2.10891        0.184645        -1.04518
LJ         -0.511853       -0.754495        0.542564
LJ          -1.66455         -1.8996           1.822
LJ          0.483171         2.18053       -0.119656
LJ          -1.72037        0.581386       0.0700025
LJ          -1.40968       -0.555302       -0.758208
LJ          -1.33369         1.60531         1.89445
LJ          -1.39668         1.85146        0.794552
LJ          0.667085        -2.36407        -1.29894
LJ           2.37557         1.53967         1.20465
LJ          0.580038        0.955381        -2.28989
LJ         -0.926906        -1.59967       -0.730912
LJ           0.48169         1.24668         0.53277
LJ         -0.315334         1.71759         1.28665
LJ          0.531975       -0.704089        0.826889
LJ           -1.8778          2.3439       -0.397919
LJ          -0.76709       -0.949949          1.4699
LJ           2.12556        -2.17516         1.37095
LJ          0.999883        0.737516         1.41941
LJ          -2.37672         1.57865        0.188082
LJ        -0.0137151        -1.28392         -1.0169
LJ          -2.00408       -0.495805        0.175098
LJ           1.38447        -2.07257        -2.03758
LJ          0.819221        -1.62817       -0.109753
LJ       -0.00360058        0.700127        -1.54194
LJ         -0.522546         1.13036        -2.34231
LJ          0.638565         1.91375        -2.12043
LJ           1.04611       -0.146337       -0.661837
LJ         -0.316629         2.22392       -0.666771
LJ           2.35755         2.09743         -1.4416
LJ           0.38027         0.49068       -0.400235
LJ         -0.401604       -0.186644       -0.710556
LJ          0.771745        -1.17147         -1.8842
LJ          0.994981        -1.07084       -0.890791
LJ         -0.194843        -1.56794      -0.0293213
LJ           2.31291        0.847389        -1.68484
LJ           2.06943      -0.0415229        0.714718
LJ          -2.00469        -1.72066        -1.22819
LJ           1.71682         1.20387         1.92989
LJ          0.160429        0.285411        0.550127
LJ        -0.0993126        0.781028         1.58538
LJ          0.370964       -0.690812       -0.112409
LJ          -1.69195        -1.26259         1.07482
LJ          -1.95584       -0.746759        -1.53895
LJ          -1.99376        -1.00483         2.06449
LJ          -1.29975         1.48576       -0.128944
LJ           1.99866        -1.41439         0.41822
LJ          -1.73101        -1.43637       -0.182851
LJ         -0.713007       -0.685627        -1.48197
LJ          0.789865        -1.09514          1.8044
LJ           1.38156         1.59287         1.09582
LJ          0.170829        -0.24114           1.611
LJ         -0.304478        -2.07383        -1.54725
LJ          -1.68244        -0.24457         1.21529
LJ           1.40636       -0.572692         0.20258
LJ          -2.00341        -2.07771        0.584946
LJ           1.55788         1.51963        -1.91305
LJ          -1.35383         1.44072         -1.6557
LJ          0.344653        -1.93172         2.17587
LJ         -0.352507         1.10935        -0.66936
LJ         -0.958774        -2.01162        0.417373
LJ          -1.99642       0.0872934        -2.16404
LJ           1.18277        -2.19281         1.73326
LJ         -0.992122        0.411439        -1.71764
LJ           0.57436         1.40276       -0.819132
LJ          -2.08721        0.984883         2.14168
LJ         -0.180656        -1.10257        -2.35863
LJ          0.597444         1.65549          1.6803
LJ           1.62357         2.33427        0.318827
LJ          -1.11145       -0.688027         2.36824
LJ           1.66109         1.06234        -1.00119
LJ           2.12258          2.0422         2.24391
LJ          0.317325       -0.321719        -1.37343
LJ          0.970429        0.475192        -1.44959
LJ         -0.339666          1.6711        -1.50441
LJ           1.84665         0.86122        0.688112
LJ          -1.27093        0.684292       -0.771108
LJ         -0.693503        0.135984          1.0876
LJ            1.7284       -0.904787         2.33528
LJ          -1.06734        0.327251         2.04991
LJ           1.91762         0.15608       -0.375917
LJ           0.68582         2.28165        0.856669
LJ           2.19449       -0.807313       -0.576794
LJ           1.13532        -1.52422        0.937883
LJ           1.60267         2.03243       -0.757429
LJ          0.855754       -0.217096        -2.33346
LJ          -1.45264        0.797397         1.03619
LJ           1.09084        0.367791        0.357956
LJ         -0.883361        0.038134       0.0662452
LJ           2.02432         -1.7917       -0.537653
LJ           2.23759         0.15371         1.68395
LJ           1.86027         -1.3068        -1.41661
LJ         -0.456361         1.94324        0.329482
LJ           1.82801        -0.25868        -1.47519
LJ          -2.06974         1.35701       -0.882036
