108
#Comment!
LJ           2.30006       -0.146687        -0.85166
LJ         -0.597944       -0.137541     -0.00572675
LJ          -1.25047        -1.41608       0.0361245
LJ          0.226259        0.401776       -0.727768
LJ           1.12401        0.321372         1.03949
LJ          -1.28951       -0.813473        -1.94994
LJ           1.51829         1.05174        0.371041
LJ          -1.35906       -0.355732       -0.646427
LJ          0.284987        -2.12625       -0.202574
LJ         -0.185225        -1.00116       -0.501922
LJ          -1.66907        0.637632        -2.37293
LJ         -0.138003         1.06207        -0.09446
LJ         -0.893611         -1.8125        -1.93129
LJ          -1.69939        0.724666         1.34969
LJ           1.43544        -1.29356        -2.10657
LJ          -1.62066         2.31492        -2.29115
LJ          0.618467       -0.663721        0.113685
LJ          -1.50595          1.7095         1.25411
LJ          -1.55149         1.48441       -0.599656
LJ           1.11124        -1.61167         1.63261
LJ           1.23736         2.11622        -0.94204
LJ          -1.11702        -1.55317        0.996378
LJ         -0.238378       -0.258355         1.41638
LJ          0.587468        -1.95162        -2.10523
LJ          -2.27286      -0.0111855        0.919468
LJ          -1.50193        -1.47981         1.94591
LJ          0.845832        -1.45573        -1.26826
LJ          -2.06749        0.764387        -1.00052
LJ          -1.57084        0.152589        0.119792
LJ          0.307827         1.82719        0.404662
LJ          0.882479        -1.54077        0.562111
LJ         -0.780846          1.8271      -0.0398598
LJ           1.82728        -1.70374         -1.2318
LJ          -1.85886        -1.85347       -0.866644
LJ          -1.57455         1.41197        -1.77751
LJ           2.03406         1.81661         1.25171
LJ          0.124769         1.12257         1.23548
LJ          0.803694          1.3921       -0.367216
LJ          -1.46343         1.11207        0.362737
LJ         -0.412086       -0.237229        -1.24803
LJ            2.0212         1.21739       -0.480634
LJ           1.26713         1.05961         2.37766
LJ           1.35189       0.0554403         2.03673
LJ          0.480885        0.824557         -1.6134
LJ           2.34379          1.8611        -1.19152
LJ          0.129255        -1.72148         1.22879
LJ          -2.05918       -0.093283        -1.76186
LJ           1.09641         1.29945         1.35019
LJ         -0.135434         1.60224       -0.999307
LJ          -1.36045          2.3515         0.56059
LJ          -1.06789         2.13855          -1.163
LJ           1.85828        -1.30429        0.259771
LJ         -0.351343        -1.31478         2.07155
LJ          0.658291       -0.448186        -1.05057
LJ           0.16533        0.266038         0.70139
LJ         -0.240214       -0.304749        -2.23027
LJ          0.572357         -0.8058         2.15576
LJ           1.42334       -0.568205         0.70985
LJ          -2.36309        -1.05843        -2.32926
LJ          -2.12371      -0.0980638         1.94388
LJ           1.22237         2.11444         2.00517
LJ          -2.26551       -0.964135        -1.26661
LJ          0.483583       -0.755308         1.15768
LJ           1.96418         0.24582       0.0578038
LJ          -0.37538        -2.09114          0.4836
LJ           2.13455        0.724197        -2.02196
LJ          -2.22086        -1.90957        -1.88245
LJ         -0.582666         1.70105         0.92135
LJ          -2.15639         1.55204         2.15463
LJ          -1.07333         1.60924         2.14098
LJ           2.14081        0.813052          1.7299
LJ          -2.13941         1.80003       0.0992771
LJ          -2.37417        0.971471        0.766006
LJ          0.735823      -0.0919524        -1.96749
LJ           1.55935         1.30997        -1.41487
LJ           1.94018        -2.03354         0.95393
LJ         -0.389003        -1.00298        0.562977
LJ         -0.740481        -2.24291           1.741
LJ          -2.07467       -0.952997        -0.30568
LJ          0.176858         2.18091         1.79144
LJ           1.55726       -0.468597        -1.48941
LJ           1.77862         2.23449        -1.93202
LJ         -0.986009        0.556002       -0.575851
LJ          0.222468         1.31081         2.23059
LJ          -2.19067        -1.13775          1.2015
LJ          0.893921         2.33589         1.08754
LJ           -1.1627        0.344139        -1.49805
LJ         -0.138996         -1.1948        -1.57874
LJ         -0.614567        -2.02093        -0.55655
LJ         -0.997863        -1.26938        -1.07235
LJ          0.830334          1.7804        -1.84659
LJ         -0.500529         1.00302        -1.78944
LJ           1.44545        0.392645       -0.902938
LJ           1.20812         -1.6837       -0.448112
LJ          0.435976        0.443339         1.94749
LJ          -1.85774        -2.15987         1.34135
LJ          -1.20068       -0.130814         1.68815
LJ          -2.15963        -1.92215        0.115493
LJ          -1.45098       -0.614268        0.833796
LJ         -0.242698          2.1316        -2.08327
LJ           2.07356        -1.87424         1.97608
LJ          0.876496        0.338265       0.0339756
LJ           1.77358       -0.764316         1.67492
LJ         -0.676244        0.733693         1.85983
LJ           1.76657         2.26023      -0.0502388
LJ          0.153775        -2.19351        -1.14815
LJ          -0.84693        0.479354         0.83737
LJ           1.44748       -0.716872       -0.543853
