108
#Comment!
LJ          0.725942        -2.20293        0.583188
LJ          -1.13993         1.33084        -2.11945
LJ          -2.27956       -0.673082        -1.78382
LJ          0.349457        -0.59478        0.579607
LJ          0.890328         1.21405        0.764276
LJ           1.44339         1.91334       -0.443136
LJ           1.11784        0.958612       -0.121809
LJ          -2.07475         1.91888         1.44415
LJ           1.66924        -1.12806         2.36728
LJ         -0.930471        -0.84136       -0.683343
LJ          -1.41685        -1.52965        0.310419
LJ          -2.24147       -0.540894         2.02801
LJ          -1.89642        0.149501        -1.14254
LJ          -2.10362        0.847098       -0.483731
LJ           1.73614         2.04411        0.734093
LJ          0.874166        0.106573       -0.699418
LJ          0.134689         1.13053      -0.0717502
LJ           1.03804        -0.88726       -0.344447
LJ          0.271527         2.16746       -0.240614
LJ         -0.657057        -1.89016       -0.346406
LJ           0.35898         1.56909       -0.988874
LJ         -0.121289       -0.991094        -1.57371
LJ           1.76945        0.468168        0.483523
LJ           1.80953           1.141       -0.954174
LJ          0.505539       -0.160041         1.52415
LJ            1.7802        -1.99401        -1.95527
LJ         -0.643023          1.3366        -1.29301
LJ          -1.88987       -0.933649         1.20284
LJ          -1.18916        -1.52388         2.32063
LJ          -1.26334         1.36298       -0.437226
LJ          0.210161         2.34608         1.81156
LJ          0.068457          1.7875        0.724801
LJ          -1.67048         2.20671        0.540919
LJ         -0.804462         1.90754        0.181968
LJ           1.50119       -0.660246         1.47036
LJ          0.315043        -1.76971        -1.92266
LJ           -2.1567         1.86799       -0.567291
LJ          0.138214         1.67321        -1.96618
LJ           2.22216          1.4147        0.191264
LJ         -0.312719      -0.0914934        -2.30834
LJ         -0.265544        -1.26215         2.06864
LJ         -0.205882        -1.91076        0.523871
LJ          -1.00179          -1.575        -1.34569
LJ          0.405249        0.631418         2.29626
LJ         -0.568334        0.684435        0.656879
LJ         -0.224263        -2.34962        -1.25283
LJ         -0.844736         2.24036         1.57839
LJ          -1.89411       -0.705135     0.000684839
LJ         -0.934993        0.437844        -1.69384
LJ          0.464217        -1.57375       -0.943029
LJ           1.26982        -1.89184       -0.222777
LJ           -2.3198         1.85072        -1.67405
LJ         -0.359676      -0.0941136        -1.15141
LJ          -1.28378       -0.667899        -1.71481
LJ          -1.24562         2.14213        -1.37181
LJ           2.16536         1.08289          1.2546
LJ          -1.10098        0.373529       -0.420132
LJ           2.30097       -0.132576          1.1262
LJ           1.24697       0.0315562         2.23978
LJ          0.237631        0.668804        -1.41719
LJ           0.90821          2.3164         -2.2302
LJ         -0.581738        -2.26659        -2.24664
LJ           1.02165         1.78078         1.53896
LJ           -1.9912          1.1824         2.17703
LJ           2.32936        -1.94931          1.8839
LJ         -0.623401        0.524086         1.76485
LJ         0.0580033       -0.810186       -0.503281
LJ           1.21936         1.58668        -1.58562
LJ          -1.61632         1.09834        -1.30928
LJ           1.75265       -0.582205        0.452665
LJ          -1.49462        0.259767         1.28526
LJ          -1.94121        0.237971        0.328289
LJ          -1.61845        0.140405        -2.35741
LJ           1.17489        -2.27649        -1.22737
LJ           1.23892        -1.78575         1.56879
LJ           1.33136         1.05666         2.33417
LJ           2.12062        0.391179         1.99612
LJ           2.00897        -2.09907       -0.822179
LJ           1.94594         1.89474         2.14671
LJ           1.12296        -1.28613        0.622713
LJ          -1.04964       -0.501164         2.01568
LJ         -0.468219         -0.2621         1.20574
LJ          -1.61865         2.35205         2.33212
LJ          0.574566       -0.250666        -1.88047
LJ         -0.142393        0.156163       -0.145961
LJ          -1.53568         1.17333        0.635545
LJ           2.16231        -1.97835        0.143376
LJ          0.810588        0.240971         0.59943
LJ           2.01091        -1.10111        -0.40107
LJ         -0.287553         1.41443         1.98556
LJ           1.33943        -1.29092        -1.33689
LJ          -1.05984       -0.188307        0.423116
LJ           -1.5676        -1.89748         1.28515
LJ         -0.519176        -1.04352        0.272809
LJ          -1.84637        -1.07133       -0.983206
LJ           1.87504       0.0490686       -0.447913
LJ          -1.89751        -1.88431        -1.65541
LJ           2.14512        -1.47102        0.955473
LJ           1.58654       -0.356592        -1.50202
LJ          -1.61066        -2.13284       -0.465816
LJ          -1.19616         1.35477         1.53806
LJ           2.26728         0.67064        -1.70986
LJ           1.20222        0.570452        -1.62248
LJ         -0.808811        -1.25083         1.14381
LJ          0.749942       -0.902891         2.19126
LJ           1.24115        0.527049         1.39985
LJ          0.219263        0.892904         1.30686
LJ          0.361493        -1.33792         1.30836
