108
#Comment!
LJ             2.064         1.22347        0.289077
LJ          -1.27869        0.105466       -0.801941
LJ           1.54973       -0.300825         2.23642
LJ          -1.65009       -0.823999           1.797
LJ          0.496669       -0.442109        -1.84515
LJ          -1.39332         2.12358         -1.3072
LJ          -2.12359         2.14704        0.388057
LJ           1.29599        -2.37645        0.790822
LJ           1.29796          2.2063         1.75285
LJ         -0.632731       -0.738654         2.05882
LJ          0.673372         1.43487         1.92938
LJ           1.91851        0.361854         -1.7867
LJ           2.18434        -1.83332        -0.39431
LJ          0.919763        -1.17617         2.28807
LJ           1.17854         1.41959         1.07374
LJ           1.34307        -0.47174        0.125763
LJ         -0.818414         -1.8321        -1.45162
LJ           1.18779         2.07061        -1.85227
LJ          0.208018        -1.48546         1.57199
LJ          0.814468         -1.1261       -0.761705
LJ         -0.139224       -0.304843       -0.571553
LJ            2.1632         1.37898         1.26198
LJ         -0.780799         1.26574        0.559461
LJ          -1.19785         1.00772         1.53035
LJ         -0.124498         0.31983        -2.33985
LJ          0.124294        0.893478         1.32004
LJ          -1.14018          2.1773        0.126815
LJ         -0.041889        0.354015        -1.31559
LJ           1.89325       -0.872112       -0.625331
LJ           2.29558    -0.000188334       0.0227687
LJ          -1.12331        0.167041         2.13242
LJ           1.37897         1.13973        -1.55581
LJ           0.48408        -2.08154       -0.604319
LJ          -2.04179        0.814484         1.96057
LJ           1.62635        -1.75409        -2.08971
LJ         -0.777834         1.88048         1.31435
LJ           -2.1481       -0.128874          2.2639
LJ          -1.35824         1.51956        -2.28292
LJ         -0.472383        0.375197        0.588231
LJ          -0.60401         1.34024        -1.62705
LJ         -0.307032         1.33036         2.12048
LJ          0.449708        -1.86093        0.634508
LJ          -1.30542        0.600038        -1.71135
LJ          -1.92494       -0.535734        0.666978
LJ           2.24234         0.41097         1.20584
LJ         -0.128016         2.12799        0.207552
LJ           1.07465         1.88565       -0.840852
LJ          -1.45497        -1.79915       -0.598326
LJ           -1.9618         0.91723       -0.388279
LJ           1.26499        -1.55854        0.129808
LJ          0.635171        0.742511       -0.768836
LJ          0.161518         1.04428        0.112965
LJ           1.74376         2.11172      -0.0647238
LJ          -1.68078          1.8734         1.58222
LJ           1.87757        -0.60799         1.02181
LJ          -1.65259       -0.515819         -1.5902
LJ          -2.32502       0.0744059       -0.974534
LJ        -0.0374791        -1.42629        -2.21515
LJ          0.939096        0.399598        -2.14286
LJ             2.247        -1.65469        0.679538
LJ          0.284723         2.30248         2.16131
LJ           1.71929       -0.793596        -1.63296
LJ        -0.0677632        -1.07564        -1.31229
LJ           2.23323        -2.36132         1.41129
LJ           1.17331          0.7925        0.240819
LJ          -1.61045        -1.95535         1.29553
LJ          0.421435        0.153648        0.354561
LJ          -0.78103       -0.897257         1.08991
LJ           1.27622        0.473271         1.65791
LJ          -2.00975         2.12116       -0.548186
LJ         0.0431399       -0.122326           1.268
LJ            1.8825          -1.223         1.82767
LJ           1.15128        -0.21147        -1.04882
LJ         -0.705484       -0.384748        -1.75558
LJ          0.690302        -1.75389        -1.62584
LJ         -0.469923        -2.31447       -0.687749
LJ         -0.608122        0.680147       -0.527474
LJ            1.6843         1.18487         2.22728
LJ          -1.83562         1.05392        0.648694
LJ          0.304838       -0.881764         0.44204
LJ          -1.26603        -1.27249        -2.16028
LJ          -1.00724       -0.921582       -0.878427
LJ          0.926627       -0.575582         1.33683
LJ           2.35145        -2.35519        -1.43565
LJ           2.06737         2.03589        -2.37909
LJ           1.54691        -1.92755        -1.12457
LJ         0.0535554         2.21368        -1.59705
LJ          -2.30973         1.31148        -1.77668
LJ          0.185626          2.0813         1.14791
LJ         -0.847044         -1.7205         1.82727
LJ          -1.19311         1.44345       -0.637483
LJ          -1.84977       -0.675472       -0.346358
LJ          0.424051         1.17422        -1.78988
LJ           0.82468         1.77414         0.17653
LJ          0.144371         1.65482       -0.630092
LJ           2.03829         1.57975       -0.961941
LJ          -2.30516        -1.06232        -2.22163
LJ          -1.43968        0.145155         1.17092
LJ          -1.59441        -1.50806        0.295939
LJ         -0.691029         2.24932         -2.2941
LJ           1.68926        0.563373        -0.52269
LJ          -1.43092        0.193684        0.186438
LJ          -2.22407        -1.43308        -1.32957
LJ           1.22642        -1.57515          1.2161
LJ          -1.73977        -2.14716        -2.16193
LJ         -0.600867        -1.97751        0.916456
LJ         -0.940879       -0.662297         0.14509
LJ         -0.328649         -1.5923       0.0804951
