108
#Comment!
LJ         -0.509616      -0.0386861         0.92189
LJ         -0.599281        0.967191         2.04437
LJ           1.39605         2.04778        0.689181
LJ          -1.28434        -2.33732        -2.30734
LJ           2.16634         1.32704        0.223822
LJ          -2.20875          1.8012        0.940618
LJ           1.61161        -2.19074         1.52288
LJ           1.60359      -0.0165678        0.990138
LJ          -1.86321        -1.69711        -1.80987
LJ          0.311011        -1.39429        -2.32568
LJ         -0.379202         1.71792        -1.16677
LJ          -1.18845        0.623549        0.375503
LJ          0.396022        -1.99604         1.62875
LJ          -2.24403        0.597708        0.943499
LJ         -0.856294         1.61587        -1.98452
LJ          -1.73809        -2.19426       -0.128829
LJ          0.922173        0.456306        -1.57273
LJ        -0.0584697        -1.36975         0.80241
LJ          -1.54875        -1.38333       -0.734222
LJ          -2.36881         1.14743        -1.80569
LJ          -0.22354        0.708471       0.0213884
LJ          0.316649         1.08193        -2.19296
LJ          0.800542      -0.0664752         1.52352
LJ          0.922171        -1.53284        -1.44507
LJ          -2.24108        -1.29803      0.00865243
LJ           1.33364         1.04588        0.766717
LJ         -0.109239         1.94088         1.40049
LJ           1.04535         2.34845        -0.33458
LJ          -2.29357        -1.97234       -0.920002
LJ          -1.62329         1.57953        0.251864
LJ          -1.38396        -1.43386         2.07147
LJ           1.12036         1.40566       -0.207042
LJ          -0.44896         1.05259        0.975877
LJ          0.998505        -2.09936          -2.306
LJ         -0.949888      -0.0584776         2.05599
LJ          -1.05712         1.44241       -0.547093
LJ           1.80862        0.401012      -0.0556122
LJ           1.87151        -1.68197        -1.76896
LJ          -1.41511       -0.699291         -1.8273
LJ         0.0690102       -0.101969        -0.89244
LJ         -0.611183       -0.655913        0.139379
LJ          0.134142        -1.99597       -0.808214
LJ           1.66862        -1.01059        0.843219
LJ          0.556643         1.06866        -0.94737
LJ          0.886226         2.18521        -1.31619
LJ          -2.34328       -0.926332        -2.34428
LJ           1.68015        -1.60735       -0.418727
LJ           1.80005          0.8552        -0.97668
LJ          0.941746         1.78844         2.00738
LJ           2.31815       -0.319004        0.417258
LJ           2.37991       -0.930133        -1.34121
LJ          -1.97211        0.584886       -0.164423
LJ          -1.09802         1.81649         1.15692
LJ         0.0986971       0.0581578         2.30255
LJ          -1.63588       -0.166037         1.12979
LJ          -1.20265        -1.36454        0.335801
LJ           1.76499       -0.109167         -1.3933
LJ           1.85295         1.52271         1.62873
LJ           0.46063         1.55572        0.602083
LJ            1.1431        -1.75611        0.490706
LJ          -1.59614         -0.5673       -0.063774
LJ         -0.618888         2.26269       0.0967901
LJ           -2.1049        -1.06998         1.17446
LJ         -0.687277        -2.03468         1.04085
LJ           1.44881        0.617138         1.74304
LJ         0.0213619       -0.651763         1.60289
LJ          -1.40528        0.764857         1.46842
LJ          0.382603       -0.506665         0.61378
LJ         -0.998998        0.261966       -0.518469
LJ          -1.69698         1.52893         2.20887
LJ          -1.21622        0.606266        -1.99541
LJ           2.26617       -0.308374         1.63945
LJ          -1.69393        0.877937        -1.10925
LJ           -1.6784        -2.10864        0.872091
LJ          0.673947        -0.52864        -1.83493
LJ          -2.28397        0.641519         1.99482
LJ         -0.952758        -2.34989       -0.817168
LJ          -1.78332       -0.158835       -0.978197
LJ          -0.43648        -2.01655        -1.71861
LJ         -0.420018       -0.834505        -2.30638
LJ          0.663931        0.417407         0.28244
LJ          -1.83388         2.11448        -1.53078
LJ          -2.17092         1.65019       -0.704336
LJ           2.00984       -0.508859       -0.515175
LJ          -2.21198        -1.97569         1.75713
LJ           1.76779         1.81142        -1.31974
LJ           1.11397       -0.719183       -0.931722
LJ         -0.495285        -1.92473         2.01571
LJ          0.168684          1.7982        -0.36107
LJ           2.13768        -1.94737        0.766749
LJ         -0.616793        -1.54244       -0.378436
LJ           2.14445         2.00761        -2.27899
LJ         -0.912262       -0.921792         1.30835
LJ           1.40309         -1.3244         1.93663
LJ          0.245001        -2.28408        0.524878
LJ          0.580586        0.981621         1.40341
LJ           1.02046        0.226185       -0.617619
LJ           1.30123         1.24444        -2.05053
LJ           1.39668        -0.41426         2.24422
LJ         0.0430081         2.06284        -2.35324
LJ          -0.12072        -1.08165        -1.32994
LJ          0.662411        -1.34071       -0.253576
LJ         -0.433068        0.779623         -1.3723
LJ         -0.595441       -0.147527        -1.63386
LJ           2.03039         2.30979      -0.0945794
LJ         -0.908889       -0.670529       -0.902413
LJ          -2.07912       0.0778124        -1.89609
LJ           1.20021       -0.464073        0.131874
