108
#Comment!
LJ        -0.0735969         1.39839         1.53032
LJ          -1.10187         1.21632          2.1618
LJ           1.78925        -1.24812        -1.88651
LJ          0.302886        -1.08043        0.392569
LJ        -0.0514745        0.690419        0.685394
LJ           0.44827         1.81793        0.370786
LJ          0.688448        0.846866       -0.388621
LJ          -1.93272         2.36102         1.67255
LJ          0.838835       -0.697364        -2.05546
LJ          -1.79378        -1.21777        -1.02255
LJ          -1.39176         -2.2834        0.772206
LJ           1.82419        0.626877         1.70358
LJ          -2.00093       -0.838685        -1.94787
LJ           2.33187         1.30461        -1.72074
LJ           2.34691        -2.26781        0.676174
LJ         -0.560615         1.07456       -0.281342
LJ          0.333389        0.997151        -1.31993
LJ           1.78256        -2.32694       -0.317348
LJ          -0.34331        -2.04943        0.397692
LJ         -0.596323        -1.06765       -0.265865
LJ           1.41173         0.96739        -1.12955
LJ          -0.86129        -1.29252        -1.23689
LJ          0.952944        0.911215         1.99042
LJ           1.40587         1.53243      -0.0784645
LJ           1.04011        0.387419         1.05318
LJ           2.01375       -0.357872         2.23843
LJ         -0.199207         2.04642       -0.348358
LJ          -1.36312       -0.456601      -0.0108505
LJ          -2.29785        -1.55371         2.16296
LJ           -2.1968        0.551044       0.0397791
LJ         -0.732468         2.21477         1.55183
LJ         -0.645572         1.47547        0.704456
LJ          -1.03634        -2.33815       -0.645084
LJ          0.797562         2.26457       -0.474946
LJ          0.213007       -0.587197         1.21013
LJ        -0.0949839         2.12915         2.34295
LJ           1.65055        0.607315        0.276016
LJ           1.64128       -0.322553        -1.59042
LJ          -1.99474         1.72268        0.303831
LJ          -0.82305        -0.35056         1.53808
LJ         -0.048677        -0.47821         2.28149
LJ          -1.27836        -1.15405         0.92809
LJ         -0.194522        -1.46389         1.20507
LJ          0.128946        0.399096         1.68417
LJ          -1.42504         1.49913         1.24461
LJ         -0.180952         1.10367        -2.23375
LJ          -1.04503        -1.62992         1.81065
LJ          -1.15946        -0.35279        -1.36386
LJ           2.31088         1.66802       -0.733957
LJ          0.371706       -0.881802       -0.575303
LJ           1.19664         2.36088        0.617605
LJ           1.58909        -1.04115          1.5079
LJ          -1.53636         0.93455        -1.49475
LJ          -1.76477       -0.809908         1.79249
LJ         -0.846916       -0.961603        -2.17242
LJ           1.12932         1.43151         1.03267
LJ          -1.21433        0.332124       -0.549068
LJ           1.23325       -0.676677        0.658271
LJ         -0.152273        -0.54144        -1.40907
LJ          0.717753      -0.0996716        -1.02383
LJ          0.910926         1.98685         1.85311
LJ         -0.693611         1.65186        -1.14312
LJ          0.631538        0.290734        -2.05789
LJ          -2.22274         2.15031        -2.18651
LJ           1.65693        0.597558        -1.99799
LJ          -1.89667          0.1285         1.93322
LJ         -0.244248      -0.0740067       -0.559826
LJ        -0.0777911        -1.85702       -0.842677
LJ          0.956234         1.40133        -1.99868
LJ           2.28602        -1.46248       0.0990756
LJ           1.96972       -0.147783         1.15571
LJ          -2.11688       -0.273822       -0.821502
LJ         -0.765476        0.206147        -2.31541
LJ          0.407585         2.21855        -1.46443
LJ          0.253787         -2.3041         1.17939
LJ           1.81705         1.52546         2.22935
LJ           1.03199       -0.222406         1.89176
LJ          0.908736        -1.69459         -1.3979
LJ          0.736724        -1.44551          2.0211
LJ           1.04556        -1.48773      -0.0152033
LJ           -1.6215       -0.127782        0.952348
LJ          -0.82419        0.619822         1.45553
LJ           1.71982         -2.0142         1.58587
LJ           1.66037     -0.00601984       -0.473558
LJ          0.508164       -0.050241        0.221796
LJ          -1.47839         1.44476       -0.539844
LJ          -1.66078        -1.74825        -1.85535
LJ            1.7709        -1.05934       -0.854898
LJ          -1.99245        -2.26973       -0.374099
LJ         -0.583202        0.599963        -1.24606
LJ           1.46813        -2.24504        -2.22771
LJ          -2.16716        0.653437         1.03204
LJ          -2.36616       -0.461127         0.26559
LJ          -1.46558        -1.59671       0.0710825
LJ          -1.23769         2.14185        -2.28118
LJ           2.32291        0.657316        -1.00905
LJ           2.23704        -1.97057        -1.28592
LJ          0.880579        -1.56203         1.02576
LJ          -2.16477        0.171612        -1.84773
LJ         -0.541468        -2.24142         -1.6019
LJ          -2.06868         1.06938          2.1853
LJ          -1.67364         2.10951        -1.36341
LJ           1.48725         2.07451        -1.32172
LJ          -2.31035          -1.393         1.08047
LJ         0.0459202        -1.51277        -1.99352
LJ           2.05156         1.72577         1.27793
LJ          -1.18261         0.69508        0.510789
LJ         -0.526022       -0.365903        0.584982
