108
#Comment!
LJ           1.61188        -1.54373        0.598048
LJ           2.28834        -1.23352       -0.373689
LJ           2.24886       -0.452455        0.200489
LJ          -1.76317        -1.95545        -0.47892
LJ          -1.83691        0.542114        -1.30595
LJ           2.32804        -1.83975         2.25787
LJ          -1.94799         1.88778       -0.202378
LJ        0.00854917         1.88391        -1.01698
LJ           1.01475         1.89055        -1.14794
LJ          -1.00013         1.02884        -1.90596
LJ           1.32831         1.28598        -2.13467
LJ          0.148932          1.1324        -1.53667
LJ          -2.32073        -1.72738         -1.4468
LJ          -1.52326         2.28986        0.621078
LJ          -1.55025         1.49581        -1.04092
LJ         -0.821662       -0.206438        0.913099
LJ           2.10952       -0.915866         1.07693
LJ          -2.04906        0.706231           1.625
LJ          -1.62327       0.0262432       -0.473633
LJ           1.50016        -2.22782        -1.91786
LJ          -2.34413       -0.711206        -1.50607
LJ          -2.15395         1.39819        0.588706
LJ          -1.93469         1.89394         1.50324
LJ          0.553248         2.09672        -2.10288
LJ          -1.90685       -0.297552         1.33607
LJ         -0.878561       -0.821952          1.9407
LJ         -0.550719          1.8822        0.641257
LJ           1.28754         2.29477         1.89958
LJ         -0.708506        0.863349       -0.941687
LJ           1.92334       -0.249355         2.07454
LJ          -1.56341       -0.727869        0.164886
LJ        -0.0119994        -2.19334       0.0693403
LJ          0.130822        -1.16126         1.62397
LJ           1.39276        -1.47936         1.60361
LJ           2.01537         1.04076        -1.26391
LJ          0.709976       -0.859185        -1.43232
LJ          0.461457         1.81806         1.04914
LJ          0.630167        -1.40546        0.186572
LJ          -1.82734         2.31607        -2.14121
LJ         -0.859051         2.12308        -0.52386
LJ           1.07747         -2.1955      -0.0641628
LJ         -0.253222         1.37589       -0.154046
LJ           0.66792         1.49757        0.105367
LJ           1.06485        0.312706         2.03067
LJ          -1.65378        0.332046        -2.30081
LJ          0.187403       -0.567573        0.514072
LJ             2.171         1.84644         2.21897
LJ        -0.0785354        -1.89995        -1.77103
LJ          -1.49309        0.349263         0.54122
LJ          -1.96308       -0.773033         2.17691
LJ          0.340891         0.79132       -0.604985
LJ           1.50347         1.94542        0.919276
LJ           1.59233         1.65934       -0.313592
LJ         -0.245756        0.242561        0.118933
LJ          -1.38975       -0.301592        -1.49663
LJ         -0.502827        -1.06433       -0.100609
LJ           1.52444        -1.35402        -1.13976
LJ          -1.10398        -1.21868        0.980511
LJ          -1.96448         1.29214        -1.94357
LJ           1.38213        0.148367         1.06538
LJ          0.582929        0.778211         1.03607
LJ           1.58672        0.566368       -0.455366
LJ          0.680613        0.193963        0.156449
LJ          0.604391        -1.91036         1.17685
LJ          -1.50019        -1.04473       -0.816764
LJ           1.53472        -1.19912        -2.10299
LJ          -2.13081        0.820605       -0.229614
LJ        -0.0832258        -2.12199         1.89992
LJ            2.0632        0.730368        -2.34256
LJ         -0.973041        -1.86492       0.0953872
LJ         -0.331734         -1.9204        0.960634
LJ         -0.318674         1.64518         1.67773
LJ          -1.06374         2.29163         1.50615
LJ          -1.25853         1.33396         1.14091
LJ            2.2129        0.524963        0.646919
LJ          0.141265        0.660433         2.18747
LJ          0.660274         -1.8227       -0.884012
LJ           2.22622       -0.122957       -0.771183
LJ           1.89815        -2.13282       -0.734771
LJ           1.08477        0.675114        -1.35477
LJ           -1.1981         -2.0498        -1.33013
LJ          -1.99757        -1.59463        0.476118
LJ         -0.362586        -1.67051       -0.853935
LJ           1.35068        0.950419        0.449779
LJ          0.929993       -0.704588         1.18033
LJ           2.14954        -2.36583         0.28807
LJ           2.08653         1.95513        -1.47448
LJ         -0.171047       -0.739063        -1.89664
LJ          -1.29947         1.54101         2.12487
LJ          -1.08763        0.477663         1.66155
LJ           1.36024       -0.819635       -0.278618
LJ         -0.624743       -0.191067       -0.718323
LJ          -1.68179        -1.58786          1.6871
LJ          0.155681      -0.0417712         1.36923
LJ           2.21917        -2.04606         1.28092
LJ          0.799356       -0.764645         2.13779
LJ          0.773956         1.36803         1.85154
LJ         -0.366614        0.907562        0.910964
LJ           1.51155       -0.233111        -1.77859
LJ         -0.974163        -2.09676        -2.37477
LJ          -1.13619         1.12718        0.161159
LJ          0.287527       0.0558197        -1.52413
LJ         -0.478587         1.86477         -2.0151
LJ            1.7939          1.2096         1.60374
LJ          0.737303         -1.7059          2.3215
LJ          -1.10047         -1.1503        -1.87286
LJ         -0.656646        0.113249        -2.20478
LJ          0.390726       -0.700408       -0.528848
