108
#Comment!
LJ          0.455851        -1.45202         1.91284
LJ          -2.14379       0.0448456         1.96199
LJ         -0.232563       -0.317639       -0.294629
LJ          0.215151        0.903043        0.734712
LJ         -0.130523        0.695923       -0.175788
LJ          0.328254        0.222425        -2.27069
LJ          0.925217         2.22754        0.326522
LJ           1.20466         1.86582        -2.10163
LJ           2.33586        -1.28328          0.9141
LJ          0.289457        -1.10808        0.034746
LJ          -1.74217        -1.35014       -0.387348
LJ           1.74583        0.423815        0.523447
LJ         -0.476638        0.999979        -1.41924
LJ           2.03056       -0.612634        -1.05896
LJ          -2.18838        -2.22945        -0.89776
LJ           -2.1806        0.352735        -1.04328
LJ          -1.81827        0.237455        0.167571
LJ          0.799958       0.0204451      -0.0425875
LJ          -1.89582         1.79915        -0.23438
LJ           2.26724      -0.0159278        -1.90962
LJ           1.04866        0.919861        -1.88621
LJ          0.675047       -0.783205        0.990435
LJ           1.10436        0.968896        -0.12754
LJ          0.379202         2.32756         2.23595
LJ          -1.42115         0.50887         1.32293
LJ           1.82106        -1.47668       -0.710552
LJ         -0.544375         2.35308         1.40305
LJ          -1.24306        0.868835         -0.5183
LJ           2.21124        -1.86719         1.95935
LJ         -0.727585         2.30536        -2.30135
LJ           2.19389        -2.01556       0.0153761
LJ             2.263         1.54267        0.723123
LJ           1.12233        -1.57837         0.57531
LJ          0.916705          2.1504         1.42596
LJ         -0.879079         1.83866       -0.523509
LJ           1.66132        0.350977         2.11703
LJ         -0.384435        0.390376         1.50734
LJ           -1.8412         1.01514         2.22642
LJ           1.48167       -0.704522        0.311176
LJ        -0.0916252         2.30621        -1.09185
LJ            1.3512         1.32518         1.83391
LJ          -1.50588        -1.01266         1.03309
LJ           1.70179        0.883221        -1.02952
LJ         -0.420342        -1.73473        -1.72918
LJ         -0.856404       -0.956154        -1.26564
LJ           -1.2493        -1.92649        -1.08266
LJ          -1.28889        -1.48717        -2.15931
LJ          -1.16182         1.85459        -1.48832
LJ           1.78676         -1.7616        -1.68834
LJ          0.213791        -1.91871        0.903629
LJ          -2.33875        0.858355         1.43026
LJ         -0.689275        -1.26543       -0.194542
LJ          -1.28484       -0.609188         1.83759
LJ           0.25389         1.53176        -1.76281
LJ           2.10019         1.92787         2.08713
LJ          0.178328         1.66682       -0.118354
LJ           1.24027        -1.92426         2.25286
LJ          -2.37208       -0.616805       -0.161128
LJ         -0.789913         1.31665         1.30185
LJ           1.85898         1.83546       -0.512245
LJ          -1.70165         1.78512         1.49311
LJ           1.02205       -0.775195       -0.673983
LJ          0.802396        -2.16063        -1.63813
LJ          0.143534         1.83158        0.858188
LJ           1.88098       -0.853992        -2.20359
LJ          0.738896         0.45615         1.58457
LJ           2.06505         1.00472        -1.94338
LJ          -2.01747        -1.32419        -1.39432
LJ          -0.83235         1.95167        0.528183
LJ           1.00983        -1.06167        -1.76981
LJ         -0.309818       -0.829915        -2.09639
LJ          -1.85247        -2.21155        0.672719
LJ          0.508807        0.921362       -0.912426
LJ          0.166774      -0.0945874        -1.36145
LJ          -1.57401       -0.525473        -1.90985
LJ          -2.19187       -0.926969         1.80602
LJ          -1.61381       -0.350597       -0.635917
LJ          0.781251        -1.86145         -0.6112
LJ           1.44763       -0.189949         1.27884
LJ          -1.50364         1.25777         0.48085
LJ         -0.477179       -0.994591        0.946976
LJ          0.029266       -0.103596        0.586006
LJ          -1.97909         1.43719        -1.12839
LJ          0.300261         1.27267         2.06425
LJ          -2.29142       -0.144111          0.9993
LJ        -0.0414359        -2.12517       -0.146545
LJ           1.40582        -1.13663         1.69644
LJ         -0.697471       0.0666918        -2.23464
LJ           2.17685        0.912089        -0.17716
LJ          -1.83857        -2.33957        -2.13203
LJ           1.14214         1.38349        0.815646
LJ          0.904908         1.86191       -0.945677
LJ           1.79045        0.086709       -0.430373
LJ          0.110003        -1.13594        -1.07102
LJ         -0.831311           1.334        -2.27786
LJ          -1.29528        -2.11348       -0.150541
LJ           -1.3957        0.516544        -1.69822
LJ         -0.666045        -1.44286         1.85772
LJ         -0.818111       0.0692698        -1.03884
LJ          0.963734       -0.445238         2.18455
LJ          -1.54747        -1.99099         1.65207
LJ          0.022947       -0.523199         1.76135
LJ           1.35972        0.110642        -1.48142
LJ         -0.876047        -1.83702         0.69961
LJ          -1.08015       -0.433424        0.350367
LJ           2.07985         2.10568        -1.66069
LJ          -0.82138         0.52742        0.481187
LJ           1.80238        -2.30817         0.85451
