108
#Comment!
LJ           1.17771         2.04171        -1.46565
LJ           1.10492       -0.388158         1.37674
LJ          -1.22895         1.74401       0.0633359
LJ         -0.215928       -0.745881         -1.0139
LJ          -2.04648       -0.537194       -0.814509
LJ          -1.97758         0.46277        -1.35768
LJ           1.97868         1.18579        0.835965
LJ          -1.70858       -0.397875        0.206706
LJ          0.933622        -1.41709        0.558981
LJ           2.31367        -1.02466      -0.0312007
LJ          0.512287         1.47031        0.966573
LJ         0.0508042        -1.74539        0.880761
LJ           1.56919        -1.07354        -1.11265
LJ          -1.96509        0.517202        0.663939
LJ         -0.784099        0.940642          1.2216
LJ         0.0426068        0.722028        0.510801
LJ           2.09747         1.26522       -0.820659
LJ          -1.76812        -1.82412         -1.4406
LJ        -0.0978089        0.164264       -0.438219
LJ          -1.05073        -2.30106       -0.987347
LJ          -2.33116       -0.965978        -1.90799
LJ          -1.81952        -1.04057         1.98704
LJ         -0.511326       -0.326142        -1.99072
LJ           0.65459       -0.244228        -2.09576
LJ          -1.48541       -0.312215        -1.75518
LJ          -2.03043        -2.19159        0.167313
LJ          -2.18262         1.55622         1.77386
LJ         -0.391851         1.47063       -0.603805
LJ           1.01155         -1.9912       -0.300335
LJ          -1.49475         1.62268        -1.86723
LJ           1.25187         2.35538        0.777694
LJ          -0.53028        0.566032        -1.20009
LJ           -1.8086        -1.97585         2.33454
LJ          0.813641        0.192256       0.0937937
LJ          -1.41715         1.26177       -0.788387
LJ         -0.593047        0.725753          2.2836
LJ          -1.73272        0.643421         1.60517
LJ           1.85193        -1.94722         -1.5374
LJ           1.02659        -2.36194        -2.33458
LJ         -0.768038        -2.11676        0.280858
LJ          -2.06443       -0.108433         2.19899
LJ          0.274338        -1.04067        -1.83969
LJ          -2.02427         2.08053       -0.792821
LJ           1.93365       -0.189336        -1.56149
LJ         -0.601731         2.29186         1.55964
LJ           1.11616        0.647133         1.03578
LJ           1.36428         1.73204         1.61053
LJ           1.43978        -0.37314       -0.432047
LJ          0.574556      -0.0479952        -1.11578
LJ         0.0659924        -1.45819      -0.0585528
LJ          0.661116        -1.02016       -0.740831
LJ          0.393679       -0.515233        0.740789
LJ          -1.26929        -1.30267        0.430227
LJ          -1.87815        0.413574       -0.336358
LJ           1.21196        0.515029        -1.71612
LJ          -2.29258         -1.1933        0.957351
LJ         -0.825003      -0.0881431         1.73384
LJ           1.83291        -1.92403         2.15236
LJ           1.89113       -0.848753         1.70418
LJ           1.29107        0.579994       -0.743047
LJ           1.34044       -0.953999        -2.08908
LJ         -0.723097       -0.881807         1.17816
LJ           1.82796        -1.81126        0.339784
LJ          0.464541         1.37234        -1.30988
LJ           1.12309         1.60209       -0.585382
LJ          -2.13861         1.28748       0.0460601
LJ          0.369258        -2.28278         1.66184
LJ        -0.0483466         -1.8337        -2.34963
LJ           -1.6863         1.70171        0.888793
LJ         -0.197176        -1.78511        -1.34818
LJ            1.8519          2.0761      0.00352281
LJ          0.815632        -1.76733        -1.37688
LJ         -0.550535         1.46085        -1.58737
LJ          -1.09481       -0.136918       -0.756085
LJ          0.185843       -0.747021         1.82312
LJ           1.86411         1.88412        -2.29905
LJ          0.824798        0.516962         1.99318
LJ          0.865043        -1.48039          1.9993
LJ           2.23967        -2.36337         1.11487
LJ          0.458295         1.00722       -0.296041
LJ          -1.53895           0.628        -2.22689
LJ           1.71446        0.897508          1.9612
LJ           1.61229      -0.0622357         2.24625
LJ          0.131149         1.96346        -2.13036
LJ         -0.428784         1.76485        0.623468
LJ          0.119019         1.29231         1.93883
LJ          0.338885         2.26445        0.244032
LJ          0.259551        0.662847        -1.97429
LJ           1.21097         1.26452        0.282943
LJ          -1.45121        -2.02706         1.23836
LJ         -0.914007       0.0803081        0.604017
LJ          -1.78404       -0.374506         1.18541
LJ         -0.908169        -1.24619        -1.72702
LJ         -0.964008        -1.52743         1.96621
LJ           1.55966         -1.6506         1.28176
LJ        0.00238894        0.370848          1.4585
LJ          -1.17989         1.48121         1.96831
LJ         -0.948037         0.76939      -0.0815902
LJ           2.14002        0.124513         1.37785
LJ         -0.418521       -0.625322        0.130429
LJ           1.87056        0.485164       0.0880133
LJ         -0.998458        -2.25883        -1.98589
LJ          0.196105         2.21401       -0.783779
LJ           2.03912        0.993531        -1.85702
LJ          -1.22423        -1.38163       -0.578121
LJ           1.72286       -0.389661        0.560044
LJ          0.951378         1.36585        -2.27412
LJ           2.25743        -1.79827       -0.666322
