108
#Comment!
LJ          -2.25049        -2.30321       -0.111706
LJ          -0.42889         2.05575      -0.0403766
LJ          -2.11933       -0.700436         1.06694
LJ          -1.30174        -1.83531         -2.1153
LJ          0.408857        0.280211         -1.9742
LJ          -1.53665         1.93609       -0.663966
LJ          -2.16699         1.45487         1.49255
LJ           1.33079        0.911315       -0.251987
LJ          0.151298        -2.31777         1.00069
LJ          0.230117         1.64919         1.60465
LJ          -1.56788         1.52669        -1.56981
LJ         -0.453969         1.03599        0.396504
LJ           1.67537        -1.94444        0.306503
LJ         0.0425565       -0.818619        -1.85245
LJ         -0.667524         2.06216          2.0613
LJ         -0.514254        -1.01017         1.01149
LJ          -1.39358        -1.07836        0.362699
LJ         -0.426328        -1.24851       -0.378049
LJ           1.80647         1.13552        -1.85506
LJ         -0.870695       -0.395082        -1.47906
LJ         -0.271259        0.447672        -1.16162
LJ           1.56282       -0.974866        0.252603
LJ           1.20593         1.92021       -0.127544
LJ         -0.726552           1.922         0.93766
LJ          -2.09432        0.415371        0.907327
LJ          -2.21413        0.475169        -2.01143
LJ          -2.28209        -1.11472       -0.150354
LJ         -0.791751         2.21757        -1.37225
LJ           1.44875       -0.510967         1.70121
LJ         -0.834244       -0.322445       -0.270023
LJ         -0.627739        -1.89825         1.52143
LJ         -0.420961         1.04959         2.21878
LJ          0.526893          2.2515        -1.67608
LJ           1.03701      -0.0495289       -0.059033
LJ           2.03458        -2.35673         1.70447
LJ          -2.37369        0.829051        -1.02881
LJ          -1.95907       -0.117572        -1.07774
LJ          -2.33982         1.47427       -0.145824
LJ         -0.662391         1.19106       -0.770339
LJ           1.22711        -1.50453        -1.57365
LJ          -1.83048       -0.240428        0.136952
LJ          -1.53708        -2.35689         1.33256
LJ          -1.36571        -1.78966       -0.309262
LJ          -1.65956       -0.875085         -2.1504
LJ           1.90505        -1.40879         1.28478
LJ         -0.670111        -1.12116          2.2573
LJ          0.154385       -0.693854         1.79685
LJ           1.92381       -0.506347       -0.733038
LJ           1.17277        0.696455         1.46495
LJ           0.17294       -0.365635       -0.814919
LJ            2.1527        0.324324       -0.230239
LJ           1.16606        -2.02172         1.35327
LJ         -0.275056        0.542302         1.30778
LJ          0.913308         1.31616        -2.19275
LJ          0.484461           1.502        0.570476
LJ         -0.252036        -2.01392        -2.07622
LJ           -1.7029         1.34167        0.629145
LJ         -0.513572       -0.111258         2.38029
LJ          0.876152       -0.522704        -2.26724
LJ          -1.37255        -1.21518         1.53685
LJ         -0.832832        -1.42917        -1.36086
LJ           1.76412         0.20357        -1.48878
LJ          0.567671        -1.47514         2.26476
LJ           0.74583         2.26541         2.19238
LJ          0.424636         -2.1446       0.0940005
LJ           2.30128        -1.96191         -1.8486
LJ          -1.11174         1.09575         1.41842
LJ          -0.66227        -1.82532        0.452626
LJ          -1.55118        0.980214       -0.367532
LJ            2.2713         2.06923        0.726346
LJ          -1.17563        0.453303        0.566662
LJ            1.7741       0.0737763        0.919183
LJ          0.241662        -1.52127        -1.19485
LJ          0.484031         -1.3682         1.06449
LJ           2.33324       -0.509414         2.17524
LJ          0.303499         1.49095       -0.480492
LJ           1.18324        -2.21001        -0.87777
LJ           1.37575         1.79963         1.00842
LJ           -2.1272        -1.69876        0.691921
LJ         0.0996284         1.35788        -1.46069
LJ           1.58573         2.17383         -1.8729
LJ           0.12273        0.491825       -0.202427
LJ          0.722307        -0.34487         1.01066
LJ          0.663146        0.527621        0.613075
LJ           1.70854         1.45717          1.9609
LJ          -1.67719        -1.99442        -1.23955
LJ         -0.173681       -0.111503        0.564133
LJ           1.15812         1.48752        -1.09571
LJ          -1.42772         2.18518        0.291667
LJ           2.00872       -0.900724        -1.63705
LJ          -2.14936        -1.60338         2.08313
LJ           2.25711        0.582484          1.7473
LJ             1.588        -1.50463         2.23325
LJ           1.11274        -1.25691       -0.585426
LJ          -0.92644       -0.216421         1.43123
LJ           1.03155       -0.536324        -1.27184
LJ           2.27844         1.97693         -1.0249
LJ           -1.9331         2.16318         2.29041
LJ           2.07647        -1.67938       -0.891366
LJ           -1.7014        -1.05244       -0.956021
LJ          0.798366        0.423721       -0.969128
LJ           1.46472        0.321083         2.32294
LJ           -1.6345         1.13734         2.26391
LJ           -1.2215        0.528012        -1.74131
LJ        -0.0334031         2.32621       -0.844052
LJ          -1.65223        0.168426         1.96789
LJ           1.93926         1.04329         0.64523
LJ          0.437246       -0.951433        0.150472
