108
#Comment!
LJ            1.3451        0.281803       -0.823322
LJ           1.06505       -0.692005         2.18329
LJ           -0.9279         2.07134        -1.52463
LJ          0.405637         -1.3556        -1.90137
LJ           2.36743       -0.688985       -0.615206
LJ          -1.37543        0.877032        -1.32412
LJ          -1.65339       -0.374912         1.49931
LJ          -1.47354      0.00619906       -0.750754
LJ           1.38683        -1.49716       -0.912417
LJ          0.373915        -1.19549       -0.956539
LJ          0.553644         1.88079       0.0372069
LJ          0.370518        -1.85259         0.19196
LJ           1.58588         1.99273        0.416414
LJ         -0.726243       -0.270745      -0.0816164
LJ          -1.04876        0.519394        0.616992
LJ          0.958922        -0.46829        0.862765
LJ           2.32474         1.76832         1.47731
LJ          -2.09524       0.0756818        -1.54366
LJ          0.325918        0.924372       -0.508773
LJ          -1.54189         -0.9815       -0.307862
LJ          -1.08443       -0.281708        -1.64199
LJ           2.08715        -1.73171        -1.80674
LJ          -2.31967       0.0345185         2.21761
LJ           1.63166        0.134813        -1.87887
LJ          -1.64616        -1.23754         2.29743
LJ          -1.49666         1.58949        0.399861
LJ             1.626        -1.19783         1.03765
LJ         -0.451073         1.20694        -1.29806
LJ           2.35659         1.70515       -0.205023
LJ           1.80947          2.1062        -2.27757
LJ          0.497876        -1.46839         1.27148
LJ         -0.529504        0.431619         -2.0539
LJ           1.50347         -2.2935         1.39057
LJ           1.44506       -0.692463       -0.241744
LJ            2.2521        0.993393        -2.32252
LJ         -0.808241        0.687932         1.56477
LJ          -1.89574       -0.150474        0.462442
LJ          0.490621           1.494        -1.28351
LJ          -1.79267        -2.24899        -1.76955
LJ          -1.39271        -2.22409         1.05169
LJ           1.95951       0.0848143        0.807582
LJ         -0.802675        -1.16295        -2.04237
LJ          -1.39663        -1.92714       -0.895618
LJ          0.981933       -0.512204        -1.61895
LJ          0.332653         0.43928         1.40918
LJ           1.29203         1.51012         1.66362
LJ           1.50419         1.08457        0.759497
LJ           2.13005        0.169888       -0.170961
LJ         -0.417714        0.303998       -0.949791
LJ          0.314485        -2.15116       -0.806636
LJ         -0.078085       -0.471351        -1.63753
LJ          0.266679      -0.0484103         2.25803
LJ         -0.345402       -0.518973         1.24135
LJ          -2.03889         1.47912         -1.5272
LJ           2.21555        0.764826       -0.993871
LJ          -1.66468        -1.90723        0.133499
LJ         -0.930114        -1.32458          1.6331
LJ           1.83921        -0.42052         1.62834
LJ           1.01515        0.580251         2.13427
LJ          0.541488       -0.265438       -0.662681
LJ           1.38558           1.405        -1.76485
LJ          0.319533       -0.895037       0.0822901
LJ           2.21091        -1.38356       0.0947075
LJ           1.31732         2.15318       -0.524911
LJ          0.560339         2.08644         1.02543
LJ           1.95502         2.01697         -1.2908
LJ         -0.783664         2.26673        0.304443
LJ          0.622445         2.24072         1.98889
LJ           -1.9419        0.600417         1.51622
LJ          -1.76348         1.61619          2.2657
LJ           1.43903         1.07512        -0.26326
LJ           2.10433        -1.24539         2.09742
LJ         -0.825849         1.28304         2.36248
LJ         -0.619778       -0.773405       -0.866469
LJ         -0.560084        -1.50905        0.756111
LJ         0.0927181         2.10721        -1.92215
LJ          0.508185        0.369348        -1.44712
LJ           1.24327        -1.68985         2.36653
LJ          -1.14478       -0.738088        0.627011
LJ          0.538819         1.09966        0.653811
LJ          -1.46581         0.52353        -2.37431
LJ           1.80223        0.614729         1.65281
LJ          0.231171         1.12049        -2.17055
LJ          -1.34553         1.60835         1.38725
LJ         -0.374792         1.92862       -0.651589
LJ         0.0908529         1.38073         1.68556
LJ         -0.483369         1.49469         0.82146
LJ         -0.770604       -0.308187         2.08341
LJ           1.34949        -1.81747        0.117221
LJ          -2.13489        -2.06752         1.83398
LJ          0.158694        0.224996        0.277258
LJ          -2.34503         -2.2265        0.810012
LJ         -0.465322        -1.84712        -1.33103
LJ       -0.00813589        -1.02434         2.02121
LJ         -0.402274         2.24073         1.41767
LJ           1.15884        0.234299        0.180912
LJ          -2.23273        0.893098        0.465888
LJ         -0.752375        0.952929       -0.201277
LJ          -1.75307        0.933673       -0.409802
LJ         -0.495269        -1.69648       -0.266302
LJ          -1.32226         1.91423       -0.528152
LJ          -1.67218        -1.03545        -1.27845
LJ          -2.36215        -2.07597       -0.609182
LJ          -1.10608        -2.28674         2.19444
LJ         -0.203229        -1.96333         2.22077
LJ          -1.87374        -1.28287         1.04464
LJ           1.03426         2.33078        -1.65918
LJ            2.1796       -0.718602        -1.80234
