108
#Comment!
LJ            1.9117        -1.47856        -1.90173
LJ           2.27408       -0.519326        -1.82515
LJ          0.561392        0.958081       -0.990083
LJ          0.204397         2.14391        0.331583
LJ           2.07516        -1.37097       -0.893663
LJ           1.34081       -0.630173         -2.1846
LJ          0.663028        0.698519          1.3778
LJ          0.241275         1.88933        -1.15524
LJ          0.578612        -2.02662       -0.622481
LJ          0.688496        -1.29508         2.11131
LJ           2.26808         1.28726         -1.0831
LJ           -1.2989        -1.72572         1.18479
LJ            1.9683         1.78491       -0.186162
LJ          -1.61411        0.295774        0.193112
LJ           1.91773         2.07675        -1.98123
LJ          -1.93097        -1.46781        -1.55174
LJ         -0.114153       -0.203572         1.12502
LJ          -0.85409         1.64709        0.202118
LJ           2.17646         1.58663           1.031
LJ         -0.708724        0.654246       -0.200714
LJ           -1.1158        0.741519         -2.1425
LJ          -1.42118        -1.39796        -0.69968
LJ         -0.354955        0.360287         1.89991
LJ         -0.602264        -1.39346        -2.15293
LJ           2.17214        -1.71709         1.92697
LJ          -2.08538        -1.18315           0.994
LJ           1.28659         2.09157        0.767435
LJ         -0.290219        -1.33552       -0.444786
LJ           2.22705         1.09112        -2.20235
LJ           0.43656       -0.292111         2.22271
LJ           2.24027        0.915246         0.29187
LJ           1.70075          2.1917          1.6858
LJ         -0.317721         1.40655         1.98427
LJ           -1.1532        -2.16516         2.15111
LJ          0.267561        0.366789       0.0920823
LJ         -0.290855         1.02194        -1.68489
LJ          -2.00058        -2.33802        -2.16444
LJ          0.376925       -0.759884        0.207454
LJ          -2.03666        0.325597        -1.59685
LJ          0.321862       -0.604491       -0.790036
LJ          -0.21244        0.215648       -0.966631
LJ          -1.22423         1.60227         2.21989
LJ          -2.08002        0.594336         1.71948
LJ        -0.0659785        -1.87886        -1.33512
LJ           1.75215       -0.927759          0.5767
LJ         -0.492702        -2.33896       -0.518601
LJ          0.945867        -1.98565         1.40673
LJ           1.01915        -2.18637        -2.15858
LJ          -1.99248         1.99168         1.67539
LJ          -2.29142        0.417095       -0.532419
LJ           1.29157        0.836952       -0.281699
LJ          0.756991         1.60435        -2.26179
LJ           1.15003       -0.152519        -0.11721
LJ            1.5548       -0.416419        -1.04081
LJ          -1.71162         1.44887        -1.68846
LJ          -1.08256         1.86536         1.23142
LJ           1.52187        -2.06364      -0.0282601
LJ          0.498735        -1.02328         1.19041
LJ          0.776141       -0.143737        0.829607
LJ          -1.28842        -1.74327        0.229889
LJ          0.751524         1.19124        0.489548
LJ          0.735258       -0.160645        -1.58851
LJ          0.657452        -1.70079        0.407581
LJ          0.470647        0.644935        -2.15185
LJ          -1.70348         1.18833       -0.359624
LJ         -0.778524        0.453264        0.744642
LJ           2.35094       -0.382405         1.68809
LJ          -1.49923       -0.184781          1.2179
LJ          -0.19971         1.31963        0.847488
LJ          -1.15407        0.895792         1.57316
LJ          -1.80768        -1.22385         2.21927
LJ          -1.54054       -0.449659         -1.9641
LJ        -0.0264859         1.38347       -0.327431
LJ         -0.889526         1.60159       -0.999019
LJ         -0.855294       -0.906717        0.904415
LJ              1.07        -1.17707        -0.40723
LJ          0.606013         1.65461         1.51263
LJ           1.65311        0.364228          1.1871
LJ           1.52661       -0.916166         1.57519
LJ          -1.16501        -2.04078        -1.40782
LJ        -0.0283625         2.36388         1.31124
LJ           2.29531      -0.0274733        0.577301
LJ         -0.628402       -0.350547      -0.0322399
LJ           1.50274        0.287214         2.17172
LJ         0.0298136       -0.874586        -1.69202
LJ          -2.19197         -1.8428        -0.15916
LJ           2.13177       -0.551256        -0.25666
LJ          0.983564        -1.29175        -1.49542
LJ         -0.311676        -1.64476        0.677044
LJ           1.23824         1.58433        -1.40377
LJ           1.52201        -2.29013        -1.03497
LJ          -1.94659       -0.602911       -0.925538
LJ          -2.19784         2.34598        -1.21286
LJ          -1.67112         1.22493        0.711061
LJ          -1.57318       -0.740549       0.0666914
LJ         0.0666435        -2.09749         2.30947
LJ          0.991199         1.84647       -0.420616
LJ           -1.9779         2.35199        0.741454
LJ         -0.829264       -0.749564        -1.09273
LJ         -0.300946        -1.49907         1.66204
LJ          -1.56827         2.23873       -0.419117
LJ           1.42546         1.20088         1.83935
LJ         -0.419808      -0.0469704        -1.97581
LJ           1.68429        0.537505        -1.18113
LJ         -0.623412         2.01366        -1.88747
LJ          -1.25939        0.151617       -0.864005
LJ           1.95443        -1.92591        0.963919
LJ         -0.643104       -0.585233         1.93623
