108
#Comment!
LJ           2.26832         1.14472         1.84699
LJ          -1.55455         0.30239        -1.49205
LJ          -2.28213       -0.662255        0.892872
LJ           1.66046        -1.05175        0.454485
LJ           2.29627        -1.82589        0.137961
LJ           1.49455        -2.11819        0.637722
LJ           1.71226        0.516409       -0.914714
LJ          -1.58868         1.57035          2.1668
LJ         -0.680356         2.10418          1.8022
LJ           1.87568        -2.26767       -0.960089
LJ          0.766681        -1.42334        -2.14455
LJ          -1.02713         1.16062        -1.42915
LJ           1.88483        0.955193         1.02713
LJ          -2.11289        0.784382       -0.741253
LJ           1.89246         1.50603       -0.729985
LJ         -0.319691       -0.321171        0.691007
LJ           1.10326         1.21352        0.155774
LJ         -0.560621         1.93416        0.241236
LJ          -1.81072       -0.322203          1.6613
LJ           1.81092        0.790753         -2.0828
LJ          0.272451        -1.29119      -0.0690732
LJ          -1.71889        0.465989         2.32785
LJ          -2.25571        -2.11492         2.19722
LJ          0.724203        0.534952       -0.595605
LJ          -1.33361        -1.55237         2.19674
LJ           2.27947         1.64434        0.427818
LJ           2.03031         2.00196          1.3941
LJ          -1.18714       -0.888709         1.03336
LJ          -2.03672        -1.30782         -1.7055
LJ          0.255486         1.46887          -0.127
LJ          -1.73396         1.74446       -0.809733
LJ          0.876547        0.738534         1.09976
LJ          0.015055        0.551434         1.48945
LJ           2.29034         -1.6033         1.11028
LJ           0.78536       -0.441581         1.13316
LJ         -0.302166        -1.30729        0.810095
LJ          0.421423          -1.297         1.67748
LJ          0.495117       -0.477771       -0.809632
LJ          -1.79272        -1.03544       0.0418934
LJ          0.803511       -0.454523         2.16337
LJ           1.97287       -0.141517         2.37417
LJ          0.583257        -2.37158        0.241985
LJ          -0.71113         1.09045         1.99292
LJ         0.0529885         1.49936        -1.21289
LJ           1.14415        0.127197        -1.75939
LJ           2.27476       -0.399295        -1.45559
LJ           1.28378       -0.827307        -1.47572
LJ           1.57569       -0.455239       -0.330601
LJ         -0.163406         1.75668        -2.14127
LJ         -0.125209        0.544951         -1.3493
LJ          -1.93594          1.3405         1.09414
LJ          0.356669        0.818229        -2.10805
LJ         -0.479728        0.177434        -2.32528
LJ         -0.252992        -1.93437        -1.78114
LJ           -1.8459        -1.86976       -0.737289
LJ           1.02022         2.05101       -0.673822
LJ           1.58352         2.22761         -1.8861
LJ          0.736598        -1.55534         0.79179
LJ           1.17682         0.42785         2.02827
LJ         -0.372025       -0.582007         1.83218
LJ           1.81771        -1.54041        -2.09002
LJ          -1.19325        0.199083        -0.51428
LJ          -2.13214       -0.130425       -0.302933
LJ            1.3245        -1.65816       -0.219269
LJ           1.77962       -0.124568         1.36752
LJ          -1.66231        -0.72207       -0.993057
LJ         -0.688653       -0.984775        -2.02961
LJ          0.142229        0.609776        0.425162
LJ          -1.51592         2.23197        0.131131
LJ          -2.12789         2.29043        -1.65217
LJ         0.0360332        -2.20735         1.09625
LJ           2.01677        0.704851       0.0816783
LJ          -2.00452        0.357703          0.7664
LJ          0.127709        -2.31707        -0.95612
LJ           1.28082          1.5783         2.12087
LJ        -0.0490772         -1.2162        -1.17089
LJ           1.06108         1.40528        -1.43578
LJ           1.96891          -1.182       -0.924269
LJ          -1.51015       -0.474597        -2.20163
LJ           1.42267        -1.13542         1.56453
LJ          0.468003       -0.328152        0.114626
LJ          0.362116         1.41464         1.77081
LJ          -1.05537        -1.60442        -1.41202
LJ           1.32716       0.0841539        0.488863
LJ          0.641334         2.28103        -1.71818
LJ           1.06219         -1.7303        -1.16747
LJ         -0.716941         1.14936       -0.480475
LJ          -2.03505         1.17252        -1.66599
LJ          -1.31569       -0.221588        0.346285
LJ         -0.212187        0.202875       -0.421312
LJ          -2.27861        -1.10957         2.03572
LJ         0.0488673         1.59913        0.870048
LJ           1.08341          1.7758        0.982979
LJ          -0.56627        -1.80891       -0.214572
LJ         -0.778586         2.06157       -0.802161
LJ           1.50607        -2.04046         1.95776
LJ          -1.80268         2.30626         1.27944
LJ          0.593471         2.33863         1.97057
LJ         -0.358251        -1.77368         1.98421
LJ         -0.912818       -0.802456       -0.358737
LJ          -1.12371         2.12133        -1.87703
LJ          0.196238       -0.292195        -1.83286
LJ          -1.71451         1.17589        0.135623
LJ          -1.00163        -1.84816         1.26044
LJ         -0.768173       -0.373326        -1.22838
LJ         -0.915741         1.43698         1.05415
LJ         -0.902317        0.291304         1.32561
LJ         -0.866911        0.629639        0.408485
