108
#Comment!
LJ          0.336722        -1.04549          1.0207
LJ           1.70409       -0.855002         2.01524
LJ          -1.25372       -0.400021       -0.247202
LJ         -0.449008        0.654041        0.834084
LJ          -0.55237        0.443548       -0.191574
LJ         0.0265824        0.525259        -2.11355
LJ          0.983242         1.88393       0.0918946
LJ          0.486217         1.98662         1.96585
LJ           2.25887        -1.66286        0.768566
LJ          0.298018       -0.213228       -0.379553
LJ          -1.57966        -1.50374        -0.63379
LJ           1.33485          0.4416         1.12958
LJ         -0.396051        0.884767        -1.25464
LJ           2.11125       -0.900351       -0.704857
LJ           -1.9908        -2.25828        -2.01566
LJ           2.21868        0.558751        -1.27162
LJ          -2.23759       0.0099431       -0.525327
LJ          0.811369       -0.178454        0.460288
LJ           2.29243           1.593       -0.685155
LJ            1.7942       -0.578168        -1.64333
LJ           1.30543        0.821863        -1.78398
LJ          0.421031        -1.19027      -0.0380317
LJ          0.563501        0.800904         0.46567
LJ         -0.165458        -2.25453         1.42467
LJ          -1.77348         0.25369         1.54215
LJ           2.29589        -1.76542       -0.232331
LJ         -0.769099        -2.24392       -0.274152
LJ          -1.48901         0.74945       -0.832222
LJ           1.51427         2.34479        -2.34105
LJ           -1.0561        -2.21963         1.99367
LJ            1.9428         2.15965         0.32777
LJ           1.88328         1.85592         1.51945
LJ           1.33425        -1.66447        0.411577
LJ          0.895429         2.36524          1.1433
LJ          -1.92598        0.945157       0.0353033
LJ           1.78681       0.0988245          1.8984
LJ         -0.541915      -0.0595864         1.43423
LJ          -1.86586         1.76118          2.1498
LJ           1.32951       -0.765856        -0.14476
LJ          -0.27962         2.07423        -1.35895
LJ           1.21386        0.889347         1.97866
LJ          -1.28002       -0.746393         1.74078
LJ           1.48382         1.05005       -0.853481
LJ         -0.246212        -2.35993        -2.26568
LJ          -1.03208       -0.815096        -1.13756
LJ         -0.947681        -2.01663        -1.25642
LJ          -1.86575        -1.16991        -1.49755
LJ          -1.15559         2.03114        -1.89953
LJ           1.94846        -1.56385        -1.97028
LJ          -1.09902         1.62746       -0.910588
LJ           2.23491        0.894968          1.5129
LJ         -0.722743        -1.27264      0.00251435
LJ         0.0494342       -0.479693        -2.21123
LJ          0.464154         1.45956        -1.97618
LJ           1.96704         1.44475        -2.21037
LJ        -0.0711204         1.73596       -0.391342
LJ          0.648972        -1.91025        -2.38023
LJ          -2.05228       -0.899933       0.0274429
LJ         -0.971729        0.667437         1.98856
LJ           1.35291        -2.00322       -0.565111
LJ         -0.973901         1.97195        0.863812
LJ           1.22345        -1.11694        -1.03838
LJ           1.00139        -2.03812        -1.47445
LJ          0.126141         1.80165        0.749686
LJ          0.710123       -0.731655         1.86322
LJ          0.417953        0.084577         1.37442
LJ          -2.18216        0.594559        -2.25286
LJ          -1.87956        -1.34079          2.3585
LJ         -0.955167         1.28512        0.162537
LJ          0.869019         -1.0797        -1.96511
LJ        -0.0583907        -1.53316        -1.77992
LJ          -1.90362         2.01792       0.0267335
LJ          0.387471        0.762948       -0.572887
LJ          0.559069      -0.0285679         -1.3849
LJ          -2.22599       -0.397874        -2.31704
LJ           -2.0845       -0.855817         1.18632
LJ          -1.86947       -0.138053        -1.42379
LJ          0.196898        -1.97279       -0.860854
LJ           1.32762        -0.80543        0.936001
LJ          -1.77473         1.20769        0.974971
LJ         -0.676073        -1.68347        0.879561
LJ         -0.212147       -0.318806        0.479218
LJ          -1.97957         1.53901         -1.6265
LJ         0.0686284         1.19335         1.55389
LJ           2.29553        0.124218        0.720277
LJ          0.237689         -2.1581        0.266631
LJ           1.14783        -1.55081         1.56142
LJ         -0.965557       -0.198933         -2.2413
LJ           2.01314         1.24227        0.609015
LJ            2.2137        -1.82257         1.75931
LJ          0.982865         1.41796         1.07921
LJ          0.822206         1.86919       -0.885126
LJ            1.7207        0.416888       0.0131441
LJ        -0.0511121       -0.918605        -1.02009
LJ         -0.634192          1.6291         2.10726
LJ          -1.85647         2.33056       -0.906265
LJ          -1.27076        0.799597        -1.80718
LJ         -0.927257        -1.18102        -2.10772
LJ         -0.421388      -0.0812204        -1.45285
LJ          0.930724       0.0500701        -2.32574
LJ          -1.57681        -1.64574         1.44381
LJ         -0.251906        -1.25636         1.76918
LJ           1.49448      -0.0689589       -0.834341
LJ          -1.56362        -1.73247        0.412349
LJ          -1.12484       -0.666317        0.750536
LJ           1.90165         2.27864          -1.327
LJ          -1.46037        0.275187         0.60077
LJ          -1.91954         2.21215         1.02904
