108
#Comment!
LJ          0.621437         1.18352           1.509
LJ         -0.729502        0.363936         2.04053
LJ           1.50486       -0.849494        -1.96517
LJ          0.770464        -1.32989        0.176943
LJ          0.827669         1.05831        0.344297
LJ           1.10237         2.17744        0.726045
LJ           1.78198        0.535202         -1.3822
LJ           2.17032        -1.96484         1.59394
LJ          0.522175       -0.965896          2.2822
LJ          -1.31023       -0.881654        -1.15766
LJ          -1.33295        -1.30359        0.634079
LJ           2.01539        0.638803         1.79968
LJ          -2.37913       -0.972706        -1.43818
LJ          -2.17972        0.778116        -2.14772
LJ           2.29265         1.99307        0.528218
LJ         -0.214457        0.495486       0.0516704
LJ          0.103629         1.19734       -0.701548
LJ           2.34382        -2.18687       -0.347801
LJ         -0.504319        -2.14001         1.15258
LJ         -0.330895       -0.913204       -0.698646
LJ          0.766975         1.84084       -0.209521
LJ         -0.912811       0.0658587        -1.55161
LJ           1.16782         0.42994         1.08268
LJ           1.77048         1.44909       -0.120849
LJ           1.97665       -0.359306         1.27813
LJ           2.23995       -0.231375         2.30541
LJ         -0.369589         1.92929       -0.114376
LJ          -1.52841       -0.784036        -0.22867
LJ          -2.17328        -1.24716         2.20903
LJ            2.1528        0.514157        0.773411
LJ         -0.595443         1.42793         1.82122
LJ         -0.980129         1.76744        0.952147
LJ           -1.1659         2.16782       -0.735511
LJ           1.47974        -2.00543      -0.0542579
LJ         -0.686778       -0.367761        0.103362
LJ         -0.121582         2.22703        -2.13077
LJ          0.970752        0.637387       -0.561579
LJ           1.46158       -0.254067       -0.844136
LJ          -1.56535         2.38041        0.108201
LJ         -0.393972         -1.8126         2.06958
LJ          0.205188         -0.9739         1.31365
LJ         -0.183661        -1.25558        0.442813
LJ          0.230576         2.18247         1.65877
LJ          0.247374       0.0924337          1.6748
LJ           0.17723         1.70673        0.797697
LJ          0.225354          1.3575         2.35915
LJ          -1.24648        -1.45891          1.6906
LJ          -1.87901         0.25686        -1.30683
LJ           1.50583          1.4277        -1.08908
LJ          0.372428        -0.46048        -1.50094
LJ           1.32001        -1.55305        0.973934
LJ           1.59987        -1.09907         1.86357
LJ          -1.17932        0.876494        -2.00528
LJ          -1.18442        -1.42559        -2.06173
LJ         -0.234066        -1.16125         -1.7905
LJ            1.6435         1.32763         0.96561
LJ            -1.317         1.25092        -1.09243
LJ             0.131       -0.196788        0.653848
LJ          0.150326        0.252639        -2.09328
LJ           1.06447       0.0592118        -1.82025
LJ           1.35571         2.01736         1.80897
LJ         -0.389873         1.14327        -1.64271
LJ           0.67967         1.05103        -1.56914
LJ           1.91132         2.35283        -1.26796
LJ            1.1253        0.896515         2.30857
LJ          -1.81162         0.29603         1.50073
LJ         -0.067445        0.222643       -0.983549
LJ          0.258328        -1.73024       -0.546429
LJ        -0.0387714         2.09749        -1.14589
LJ          -2.35678        -1.72949        0.582789
LJ           -1.4124       -0.499168          1.7647
LJ          -2.34621       -0.367648         -0.5527
LJ          -0.39021       -0.685727         1.97377
LJ          0.896641        -2.37848        -1.05835
LJ          0.275908        -2.17465        0.380915
LJ           1.90702         1.67533         -2.1042
LJ           1.15136       -0.174279         1.84523
LJ           1.01732        -1.33395         -1.0164
LJ          0.941844        -1.85112         1.83097
LJ           1.87997       -0.979032        0.308387
LJ         -0.675354       -0.475561         1.06079
LJ          -1.23905        0.343477        0.633309
LJ           2.25162         1.73268         1.69188
LJ           1.51359        0.071205        0.108743
LJ          0.508345       -0.420774       -0.268914
LJ          -1.90856         1.55274        -0.35455
LJ         -0.671753        -1.88775        -1.28736
LJ           1.94018        -1.32036       -0.673032
LJ          -1.74499        -2.08117        -1.34812
LJ          -1.08927         0.42806       -0.517857
LJ           1.55855        -1.84516        -2.19623
LJ          -1.83636         1.13576         0.64259
LJ          -2.05676       -0.221925        0.363081
LJ          -1.08788         -1.6849       -0.400711
LJ          -1.10219         2.29499         1.88436
LJ           2.29928        0.650374       -0.423538
LJ          -1.95005        -2.28084        -2.30473
LJ           1.07462       -0.576251        0.820007
LJ          -1.65038       -0.515058        -2.02973
LJ         -0.992657         1.92615        -1.80094
LJ          -1.57335         1.25541         1.92196
LJ          -2.33506         1.31957        -1.33018
LJ          0.905386         1.97961        -1.99356
LJ          -2.09856       -0.952599         1.19663
LJ          0.517776        -1.78676        -1.83367
LJ          -1.65773        -2.19803         1.11163
LJ         -0.971073         1.16436        0.168363
LJ         -0.425799        0.838356        0.985579
