108
#Comment!
LJ          -1.88968        -1.86317         1.10084
LJ          -1.02802         1.00539        -2.05031
LJ         -0.789798       -0.900426      -0.0116609
LJ           1.33659      -0.0515628         1.18663
LJ          0.208388         0.31064        -1.07077
LJ           1.18361         1.68617        -1.30696
LJ          -0.93528          1.5095        -1.12101
LJ          -1.38259        -1.69444        0.197061
LJ          -2.10797        0.227905        0.383424
LJ           1.22577        -0.45908        -1.71657
LJ          -0.64565        -1.44414        -1.36858
LJ          0.439102       -0.451192       -0.393273
LJ           1.89209        -1.54638        0.392861
LJ          -2.23957         1.30159      -0.0310089
LJ          -2.15261        -2.00506        -1.61811
LJ         -0.440088        0.908174         1.88751
LJ            2.0401       -0.668001         0.90264
LJ          -2.04758        0.697114         2.36214
LJ          -2.23617        -2.33164       0.0275287
LJ         -0.815106        -1.64244         2.14493
LJ           1.96425        -1.60447        -2.25284
LJ          -1.22367         1.63867         1.85738
LJ           1.87952        -1.70373         1.49445
LJ          -1.72746        0.111108        -1.60072
LJ           2.30301         1.01883        0.903433
LJ           1.62266         2.08275          1.7535
LJ         -0.273391         1.69673         1.31066
LJ         -0.175864        -1.97294         1.25792
LJ         -0.332824         -1.9562        0.280049
LJ           0.47169        0.240261        -2.16347
LJ         -0.836179        -1.27637        0.942899
LJ         -0.182908         2.18488        -1.50195
LJ          0.881924        -2.22203         1.23304
LJ          -2.22207        -2.29493         2.03857
LJ           1.11087        -1.17813          -2.326
LJ           1.21149       0.0392984         -0.8484
LJ          0.908954         1.65072        -0.30335
LJ           1.49925        -2.30996       -0.443582
LJ           2.32988        0.227477       -0.585773
LJ         -0.589635        -2.31761       -0.573307
LJ          -1.51664          2.2669       -0.813999
LJ          -1.98581         1.87124        0.915901
LJ           2.02768       -0.729485       -0.359415
LJ          0.687531       -0.388593         1.83013
LJ         -0.663989       -0.369226        0.908662
LJ          0.223266       0.0717978        0.714625
LJ          0.655965         1.10892        0.655997
LJ           1.26504         1.25654         2.31813
LJ          0.397481         2.10288        0.464382
LJ         -0.312232      -0.0904329         1.87153
LJ         0.0418487       -0.780738         -2.2261
LJ           1.99966        0.135575        -1.53013
LJ           1.26666       -0.641034        0.287272
LJ          0.216799       -0.931449         0.47001
LJ          -1.82401         1.64725        -1.99857
LJ           1.06455        0.732355        -1.54705
LJ          -1.17156     -0.00626514         -0.1036
LJ          -2.22058       -0.313175        -2.31085
LJ          -1.07139        -2.24617         1.40118
LJ           1.67352        0.410265         2.27767
LJ          0.816217         -2.2737        -1.98663
LJ          0.933899        -1.52796       -0.133094
LJ           1.43004         1.17458         1.34993
LJ           -1.7549       -0.758759        0.135054
LJ           2.02646       -0.989462         -1.3573
LJ          -1.64409       -0.613062          1.1857
LJ           2.05717         1.19056        -1.82237
LJ         -0.921447       -0.646164        -2.36425
LJ          0.405577        0.619399         1.49932
LJ           1.51085        -1.91039         -1.3394
LJ         -0.331207         0.53026       -0.101546
LJ         -0.404624         1.93462         2.30759
LJ          0.519404        -2.31877       -0.761298
LJ           2.31535         1.39682         1.85611
LJ          -1.48323         1.01181        0.950368
LJ          -1.04044         1.83395        0.589999
LJ           1.57491         1.72038        0.479205
LJ           1.81613         2.19798        -1.95481
LJ           1.62955         1.05743       -0.642902
LJ          -1.80029       -0.524743       -0.850133
LJ         -0.982049        0.451389        -1.11772
LJ           1.57581        0.233219        0.261308
LJ        -0.0874625        -1.35048       -0.511899
LJ          -1.22845         1.25724       -0.281902
LJ            2.1788         2.00531       -0.991349
LJ          0.622523        0.715964       -0.259183
LJ          0.162838         1.38807       -0.919339
LJ         -0.266387         1.52999      -0.0222624
LJ          -1.18511        -2.33614        -1.82648
LJ          0.434928         -1.7614         1.99521
LJ           2.26022        -1.64059       -0.617864
LJ          0.247245       -0.614535        -1.30072
LJ          -1.91456        -1.21038         2.00693
LJ           1.75499       -0.609548         1.90221
LJ          0.586714         1.87292         1.90283
LJ           1.10138        -1.27422         1.00907
LJ         -0.436583        0.047791        -1.80634
LJ         -0.557787        0.743754        0.793073
LJ         -0.653041       -0.452049       -0.847007
LJ        -0.0623151        -1.08258         1.55342
LJ           1.09212        -1.05864       -0.958135
LJ          -1.37967        -1.42358       -0.747179
LJ          -1.88761        0.924067        -1.04892
LJ          -1.55224        -1.03356        -1.76423
LJ          0.268136         1.28995        -2.00345
LJ          -2.21274        0.099094         1.51002
LJ          -1.29757        0.183107         1.91095
LJ           0.30116        -1.62978        -1.41093
