108
#Comment!
LJ           0.86782         2.11348       -0.321975
LJ         -0.564259        0.867892        -2.01624
LJ         -0.211954       -0.559623        0.127452
LJ          0.757076       0.0808814        0.123346
LJ          0.867472         1.06799       -0.196493
LJ           1.51485         -0.9749        -2.21958
LJ          0.920061         2.30547        -1.39353
LJ          0.630767        -1.72605       -0.105565
LJ           1.94421       -0.839807        -0.93117
LJ          -1.05824        -1.23601        -1.15612
LJ           1.84201          2.2617       -0.630682
LJ          0.852498        0.677508        0.897288
LJ           1.04112       -0.126973        -2.18637
LJ           1.02778       -0.494991        -1.26511
LJ           1.59483         1.54132        0.140812
LJ          -1.27305         1.26313        0.960758
LJ           2.15338       -0.271521        -1.77843
LJ          0.647976       -0.738844       -0.421143
LJ        -0.0164546         2.36668       0.0191996
LJ         -0.152576         1.92826        -1.90918
LJ          -1.76962        -1.69846         2.23971
LJ          -1.25013         1.18975       -0.280231
LJ           1.09822        -1.94994        0.743224
LJ           1.47854         1.41595       -0.976417
LJ         -0.211601         1.13081         1.10225
LJ          -1.04222        -1.80594         1.57742
LJ          -2.23959        -1.79206       -0.691959
LJ          -2.22675     -0.00078311         2.10128
LJ         -0.341034       0.0341758         2.05759
LJ           1.19038        -1.52484       -0.932384
LJ          0.179004        -2.25191         1.18373
LJ           1.49725        -1.04301      0.00781119
LJ           1.91761         1.68725         1.81069
LJ          0.693513        -1.24133        -1.80851
LJ          0.361349        0.628564         1.78226
LJ         -0.806355       -0.274944        -0.59661
LJ        -0.0202157       -0.871259        -1.19332
LJ           0.20809        -1.90363       -0.967741
LJ           2.30278          2.3788        -2.17512
LJ           2.30562         1.11235       -0.503383
LJ          -1.01522       -0.162145        -1.52522
LJ         -0.739584         1.67013        -1.15201
LJ          0.957748         1.44551         1.66574
LJ            2.3285         -1.9775         1.61465
LJ          -1.56678         0.46493        -2.12337
LJ          -1.44523        0.156332         1.26727
LJ          -1.75919        -1.21673         1.16308
LJ            2.2985       -0.208957      -0.0984669
LJ           1.35704         1.62896        -2.02583
LJ          0.178403         1.61452       -0.865501
LJ           1.40763       -0.317969        0.740148
LJ           2.30927         -1.0133         1.83895
LJ          -1.85849         2.06743       -0.388941
LJ          0.478858         1.06703        -1.95463
LJ           2.29307          1.7581        -1.30833
LJ          -1.37236        -1.60373       -0.249656
LJ           1.66352        -1.84726         -1.6554
LJ          -1.78617         2.00503         1.55193
LJ          -1.87006       -0.762242       -0.697726
LJ           1.61101        0.395537       -0.583204
LJ         -0.170911        -0.90847        -2.18061
LJ           -2.0886         1.04507          1.6361
LJ           1.80707        0.698555         1.33752
LJ         -0.437822         2.30236         1.96226
LJ           1.82197        -1.26273        0.940611
LJ          0.529059       -0.920767        0.656782
LJ         -0.236446         1.25732      -0.0504611
LJ          0.610965          1.8139        0.616205
LJ          -2.00851          1.4526        -2.18909
LJ          -1.52993         1.08578        -1.33086
LJ          -2.11837        0.603348        0.676375
LJ         -0.964383         2.11715       0.0109823
LJ          -2.02386         1.62099        0.462179
LJ        -0.0659784      -0.0117004        -1.78242
LJ           -1.5731        -1.91246        -1.57133
LJ         -0.786065        -2.11894        -0.89521
LJ           1.70603        0.806055         2.30895
LJ          -2.07327        -1.09378         -1.8221
LJ           1.99174        -1.94603        0.191549
LJ         0.0292538         1.48685         2.00449
LJ           2.17537        0.863146        -1.55594
LJ          -1.86994        0.145569        -1.09834
LJ          0.325501         -1.7858         2.20295
LJ          -2.20875        -1.16816        0.218251
LJ           1.83167         2.04075        0.887744
LJ         -0.674315         2.04256        0.962271
LJ          -1.06076         2.12825        -1.99172
LJ        -0.0139382        0.113593        0.993647
LJ          0.382759        0.141134       -0.872366
LJ         -0.353644        -1.40747       -0.309715
LJ         -0.471074        0.590753        -1.05593
LJ           -1.2095       -0.757345        0.260614
LJ          -1.16267       -0.507618         2.30392
LJ         -0.106329        -1.32618         1.31708
LJ         -0.859174        -0.73884         1.36132
LJ           1.67761         0.51696        0.340072
LJ         -0.628604         -1.8153        0.524647
LJ          -2.33269       -0.315066         1.01227
LJ          -1.18361         1.20006          2.0064
LJ         -0.496808        -1.83241        -1.98768
LJ           1.07001        -1.34509         1.64258
LJ          -1.52229        0.237063       -0.204281
LJ           1.13081        -2.32752         1.96919
LJ          -0.75936        0.558468        0.510991
LJ           1.12462        0.514193        -1.43164
LJ           1.60246        -0.32159         1.66578
LJ          -1.56397        -2.21719        0.679014
LJ          0.402866       -0.505652         1.70118
