108
#Comment!
LJ         -0.170347        0.566574          1.0708
LJ         -0.928089         1.52795        -2.20912
LJ           1.02714        -2.20489         1.02043
LJ        -0.0167709        0.993968         2.02143
LJ           2.08165         1.00778        0.349771
LJ           1.51571         1.92192        0.401738
LJ           1.73975         1.84111        -2.34406
LJ            1.6337      -0.0974519         1.01065
LJ           -1.2187        -2.19351        -2.37741
LJ           1.14861        -1.35651         1.97456
LJ         -0.112293         2.06679         2.25311
LJ          -1.81205        0.846281        0.808106
LJ         -0.450078         2.29632         0.41828
LJ           2.05993         1.56162          1.2299
LJ         -0.490896         2.28338        -1.62474
LJ          -1.56884         -2.1353       -0.516768
LJ          0.552753        0.124337        -1.92275
LJ          0.405845        -1.45798        0.844979
LJ          -1.11649        -1.76628        -1.46972
LJ           -1.9781        0.951641        -2.02322
LJ            -1.505        0.615524       -0.464921
LJ          0.788955          1.0561        -2.09605
LJ          0.423876       -0.760513         1.58491
LJ           1.37162        -1.96082         -1.1125
LJ          -1.84537       -0.497658       -0.516551
LJ           1.21691        0.838604        0.877924
LJ         -0.787051         2.18585         1.53032
LJ           2.24051        -2.32149       -0.274186
LJ          -1.05924        -1.31342       -0.567469
LJ          -2.02051         1.90313        0.512721
LJ          -1.21016         -1.1845        -2.35986
LJ           1.00331        0.998418      -0.0851271
LJ           -0.7849        0.793585        0.201565
LJ           1.89629        -2.00874        -2.12197
LJ          -1.19747        0.301788         2.29846
LJ          -1.11542        0.807066        -1.34564
LJ          -2.18595         0.13708       0.0853797
LJ           2.06462         -1.2537         -1.4267
LJ         -0.479575       -0.627808        -1.72693
LJ          0.483291      0.00491068       -0.967546
LJ         -0.192203       -0.342461        0.771209
LJ            1.4046         1.90791       -0.544284
LJ           2.29614       -0.913391        0.388697
LJ          0.548221         1.00228        -1.00155
LJ           1.06469         2.00025        -1.63057
LJ          -2.22104        -1.21498        -2.29607
LJ           0.82696         -1.1282        -1.11652
LJ            2.2098        0.685475       -0.767595
LJ          0.866459         1.53999          1.4867
LJ           -2.1271       -0.315064         1.07349
LJ          -1.53868       -0.889149        -1.49349
LJ          -1.20981       -0.093706        0.185302
LJ          -1.10124         1.52321        0.918092
LJ         -0.420587       -0.307565         2.08626
LJ          -1.06931      -0.0175332         1.28651
LJ          -1.63854        -1.45325        0.201214
LJ           2.26865       0.0182938        -2.07878
LJ           1.62164        0.920999         2.00663
LJ        -0.0337392         1.66158         1.07504
LJ           1.36189        -1.90322      -0.0391678
LJ         -0.538567        -1.37613        0.283647
LJ         -0.587462         1.49115       -0.774458
LJ          -1.72163        -1.50797         1.58617
LJ          -1.24232         1.73295      -0.0519847
LJ           1.39475       -0.371111         1.96655
LJ          0.190199        -2.03566         1.54268
LJ         -0.868434        0.956002          1.6637
LJ          0.736748       -0.118528        0.613106
LJ         -0.454323        0.522408       -0.687523
LJ          -1.73159         1.32273         1.77155
LJ          -1.80945       0.0623829        -1.45747
LJ           2.16466        -1.07447          1.4606
LJ          -2.06842         1.46548        -0.47403
LJ          -1.13348          -1.967        0.853317
LJ          0.413051       -0.892566         -2.0819
LJ           -2.3242        0.427132         1.78086
LJ          0.329078         2.26467       -0.996283
LJ         -0.940583       -0.325043       -0.849353
LJ          0.595257        -1.96484        -1.96076
LJ         -0.620024        -1.38345         1.50003
LJ          0.252519        0.314538      -0.0581073
LJ          -2.33112        -2.18363        -1.36131
LJ          -1.39717         1.93337        -1.40351
LJ            1.7595       -0.328075       -0.826775
LJ          -1.89781          2.2712         1.45664
LJ           2.03832         1.59896        -1.19953
LJ            1.4727       -0.542718        -1.79219
LJ          -0.29744        -1.65053        -2.31646
LJ         0.0410808         1.27448      -0.0269544
LJ           2.36216        -1.89851        0.684979
LJ         -0.511379         -2.2903       -0.608314
LJ          -2.04843         2.00793        -2.28242
LJ          -1.28527       -0.899315        0.914148
LJ           1.37869        -1.34803        0.794885
LJ          0.552079         2.10756       0.0464701
LJ          0.663231        0.319511         1.69599
LJ           1.60536        0.182501       0.0384568
LJ           1.32344        0.463176        -1.43964
LJ           1.88926        -2.14519         1.51358
LJ            1.0021         2.37885         1.98538
LJ         -0.238639        -1.49537        -1.14091
LJ          0.330355        -1.73556       -0.324181
LJ        -0.0621338         1.38005        -1.76467
LJ         -0.326761        0.356419        -1.70367
LJ          -2.25913        -1.41549       -0.589667
LJ        -0.0504677       -0.663028       -0.401003
LJ          -1.81288       -0.394197         1.99274
LJ           1.12523       -0.788425       -0.124538
