108
#Comment!
LJ           2.12243        -1.60197        -1.93163
LJ           1.96527       -0.897411       -0.246797
LJ           1.10177         1.28807        -2.09712
LJ          0.765004         1.89293         1.08123
LJ           2.10496        -1.72132        0.738186
LJ            1.8859        -1.44655         1.65789
LJ          0.826988         1.01157         1.73069
LJ           -0.3573          2.3449       -0.977981
LJ         -0.757429       -0.762759       -0.734929
LJ        -0.0504631       -0.463277         2.09097
LJ          -2.13443         1.49331         2.15883
LJ          -1.63909        -2.10557         1.81224
LJ           2.24007         1.49662        -1.43065
LJ          0.971672        0.138155        -1.02079
LJ          -1.15532         1.63394         1.93744
LJ          -1.79608        -1.07334        -1.88422
LJ          -1.44964       -0.207892         1.05747
LJ          -1.75297         2.14551        0.952217
LJ           1.78187       0.0810964       0.0690801
LJ          -1.74811        0.829905        -1.36368
LJ           1.87541       -0.432991         1.71884
LJ         -0.112658       -0.214036       0.0183144
LJ         -0.822254        -2.30926        -1.90124
LJ           2.25765        -2.30927        -1.09091
LJ           1.14928        -1.94279         0.99952
LJ          -2.32417       -0.637575        0.911126
LJ          0.651544         1.53043      -0.0943313
LJ          0.171065        -2.28175       -0.193038
LJ           1.55226         1.07728        0.932584
LJ          0.298869         1.67757        -1.48756
LJ           1.42605          1.0091       -0.076649
LJ          0.974121        -2.26723           2.072
LJ          -1.96383         2.22811        -1.91031
LJ          -1.02654        -2.11126        0.500962
LJ         -0.951844        0.701753         1.34311
LJ         0.0972977        -1.51328         1.98633
LJ          -1.43506        -2.15688        -1.07125
LJ          0.820579       -0.572532        0.260318
LJ           2.34666        0.659758        -2.10588
LJ          0.592311        0.455183       -0.182981
LJ          -1.66294        0.892879       -0.222345
LJ          -2.03562          1.1552         1.29588
LJ           1.72947        0.617063         1.85612
LJ          0.135161        -2.04973        -1.94716
LJ           2.08019        -2.32898         2.10123
LJ           1.56071        -1.72198       -0.636025
LJ          0.203755       -0.955845        -1.88374
LJ         -0.599814        -1.45303        -1.51378
LJ           1.62479        -2.37994        0.218172
LJ           1.09866       -0.345971        -2.03737
LJ        0.00891533        0.412193        -1.08928
LJ           0.52605        -1.50621        -1.09202
LJ          0.555983        0.540636        -1.91005
LJ           1.09359       -0.802218       -0.750095
LJ           2.14091       -0.412426        -2.09347
LJ          -1.32149         1.33608        0.646393
LJ          0.840598         2.26284       -0.860485
LJ           1.17231        0.176882        0.787414
LJ        -0.0265793        0.439382         1.68285
LJ          -1.90362        -1.22647        0.249088
LJ         -0.446562        0.906754        -1.85268
LJ           0.16359        -0.60016       -0.938886
LJ         0.0211079        -2.10116         1.18675
LJ          0.900363      -0.0372754         1.79562
LJ          -2.07253         2.29407       0.0293945
LJ         -0.394406         1.05546      -0.0608072
LJ           1.48153       -0.863576        0.855203
LJ          -1.59944       -0.337499        -1.12437
LJ           2.07388         2.03758         1.06265
LJ          -2.05871        0.336048         1.76395
LJ          -1.99001       -0.774039         1.97204
LJ          -1.30434        0.748033         2.29918
LJ          -1.81059         1.72087       -0.776961
LJ          -1.24789         1.56186        -1.85313
LJ         -0.103438         1.87357        0.544811
LJ          0.849702        -1.60789        0.139464
LJ          0.184759         1.86065         2.29835
LJ           2.18928        0.870659       -0.681895
LJ         0.0200896        -1.24904       -0.217445
LJ          -1.06874         1.87032      -0.0885424
LJ         -0.663075        -2.23329         1.88191
LJ           1.20326        -1.44167        -1.80639
LJ          -2.00512        -1.28555       -0.771652
LJ          -1.83955       -0.348733       -0.156689
LJ         -0.143063         1.44004         1.44426
LJ           -1.6239        -1.29269         1.20364
LJ          -1.00847        0.208796         0.32537
LJ           1.92484        -0.91676        -1.28538
LJ         -0.349544       -0.161629        0.959464
LJ           1.13812         1.07935        -1.10942
LJ           1.34921         2.28767        -1.72447
LJ           2.02255       0.0726782        -1.22606
LJ           1.68969          1.7914        -0.63977
LJ          -2.22291        0.420363        0.755092
LJ         -0.927289        0.368415       -0.732946
LJ         -0.981902        -1.23828         2.24397
LJ         -0.807397         1.46808        -1.00816
LJ          -2.30386         1.35988        0.303104
LJ          -1.03494       -0.200604         1.94462
LJ          0.353842       -0.810671         1.23599
LJ         -0.804045         -1.7088        -0.43722
LJ           1.51835         1.65014         1.88663
LJ         -0.702298      -0.0909162        -1.61025
LJ            0.9942        -1.05189         1.97013
LJ         -0.620827        -1.17739         1.24589
LJ            -1.759       -0.103017        -2.12097
LJ          0.291951        0.898237        0.663801
LJ         -0.913458       -0.730996        0.236373
