108
#Comment!
LJ          -1.53603         1.09701        -2.34626
LJ           -1.7609        0.217975        -1.64518
LJ          -1.53948       -0.332951        0.498779
LJ           1.15284        -1.28023        0.849512
LJ           2.07054        -1.56405        0.654573
LJ           1.36704         1.97254        0.171353
LJ           1.38547        0.897476       -0.290715
LJ          -1.93939        -2.05693         1.22433
LJ          -1.00657         2.08132         1.74623
LJ           1.83925        -1.92372       -0.261669
LJ           0.62798       -0.754254         2.23004
LJ        -0.0360205          1.8402         2.36501
LJ           1.14812        0.796563         0.74034
LJ          -2.15253        0.865916       -0.743398
LJ           2.15073         1.45654       -0.175589
LJ         -0.439896       -0.254274         1.53198
LJ          0.409901          1.3596        -0.48128
LJ         -0.616631         1.97711       -0.404933
LJ          -2.34478        0.814074         1.50136
LJ            1.5684         1.17684        -1.17361
LJ          0.337941       -0.337253       -0.766542
LJ          -0.40152         1.10736         1.81585
LJ            2.0876        -2.01896         2.35967
LJ          0.624221        0.540158        -1.25257
LJ          -1.70809         2.24395        -2.05558
LJ           1.89617         1.52789        0.865533
LJ           2.24848         1.79935         1.99252
LJ           1.69573        0.133498         1.58872
LJ           2.09588       -0.795185        -1.31083
LJ         -0.801224        0.708471        -1.61026
LJ          -2.34345         2.15258       -0.846764
LJ           1.50499         1.13724         1.73994
LJ          0.677831        0.147496         1.82549
LJ           1.84087        -2.31674         1.25469
LJ          0.312042       -0.905811         1.25697
LJ         -0.155147        -1.63964        0.425801
LJ           1.12978         0.46764         -2.0918
LJ          0.127831       -0.241573        -1.75652
LJ          -1.84098        -1.02841         1.12569
LJ            1.2176        -0.29421        -1.49283
LJ          -2.11265       -0.169772         1.75738
LJ          0.279213        -2.35732       -0.584626
LJ          0.555333         1.16934         1.78295
LJ         -0.333247         2.26544        -1.35941
LJ           2.06394        0.182731        -1.26579
LJ            1.9104       -0.279518        -2.24234
LJ           1.57728      -0.0178924        -0.33623
LJ           2.01885       -0.580446        0.923924
LJ         0.0537811        0.818681        -2.11866
LJ          -0.39846        0.307483       -0.306543
LJ          -1.90846         1.71404         1.25028
LJ         -0.393916         1.13545       -0.855834
LJ          -1.03498      -0.0826715        -2.27909
LJ         -0.575299        -1.25635        -1.21678
LJ          -2.13389        -1.47982        -0.69662
LJ           1.35552         2.10801       -0.872698
LJ           1.84712         2.03767         -1.7519
LJ          0.560682        -2.01779         1.03943
LJ           2.22069        0.674072        -2.17159
LJ         -0.922464       -0.951546        0.840882
LJ           1.39207        -1.09028        -2.00173
LJ          -1.35194        0.392319       -0.321209
LJ           -2.2272       0.0249702       -0.110635
LJ          0.767209        -1.83309       0.0795287
LJ           1.01236        -0.17518        0.887181
LJ          -1.59451       -0.565274       -0.746299
LJ         -0.377058         -1.0559        -2.25601
LJ          0.562706        0.240408       0.0878023
LJ          -1.96113        -2.31375       0.0443608
LJ          -2.12876        -1.56609        -1.68438
LJ          -0.28227        -1.65536         1.44173
LJ            -1.808        0.612527        0.611399
LJ         -0.800477        0.509834        0.746084
LJ         0.0962558        -1.37542       -0.562575
LJ           1.09077         1.43675        -2.09435
LJ         -0.805046       -0.953004       -0.175952
LJ          0.331463         1.50084        -1.45853
LJ           1.98174         -0.8469       -0.049968
LJ          -1.40992       -0.879663        -1.67947
LJ            1.5619        -0.98316         1.82776
LJ          0.612188       -0.875987       0.0990209
LJ          0.771109         1.75508        0.931716
LJ           -1.5126        -2.18838        -1.15225
LJ           0.11695        0.586842         1.03873
LJ           1.63147        -1.82828        -1.28236
LJ           1.18292       -0.990034       -0.636355
LJ         -0.856689         1.66632        -1.84345
LJ          -2.05396          1.4406        -1.63977
LJ          -1.15335       -0.868858         1.85009
LJ         -0.135394       -0.320281        0.505048
LJ           -2.1515        -1.00719         2.22876
LJ         -0.292337         1.18823        0.150462
LJ           0.90954         2.28084         1.89773
LJ         0.0932887         2.09319        0.358466
LJ          -1.11703        -1.88687       -0.293179
LJ          0.810035        -2.38084        -1.63889
LJ          -1.02721        -2.21562        0.838153
LJ        -0.0927889          2.0349         1.31889
LJ          0.463592        -1.65415         2.17049
LJ          -1.80547        -1.29693        0.162617
LJ         -0.440257        -2.09634         2.35968
LJ          0.351732        -1.28007        -1.59828
LJ          -1.25361         1.49788       -0.945533
LJ          -1.31723        -1.77393         2.22914
LJ         -0.688968       -0.200914        -1.15166
LJ         -0.985908         1.48096         0.99465
LJ          -1.34713        0.419001         1.61941
LJ          -1.54068         1.35384      0.00654806
