108
#Comment!
LJ          -0.29236       -0.629278        -2.01045
LJ       -0.00903237        0.141144         2.18282
LJ          0.894288       -0.479727        0.194721
LJ         -0.109427        -1.00669       0.0559325
LJ         -0.919531       -0.325656       -0.398978
LJ         -0.219712         1.99093         -1.4587
LJ           1.38704         1.34112       -0.410436
LJ          -1.24444          1.7607         1.40895
LJ          0.921182        -1.75553        0.814696
LJ          0.253421         -1.3797         2.20776
LJ          -1.58988        -1.37097       -0.888496
LJ           1.99113       -0.877728        -2.02791
LJ         -0.587641        0.116592        -1.21811
LJ           2.19515        -1.31031        -1.09775
LJ          -1.05668        -2.37195       -0.209852
LJ           2.33545        -1.10926       -0.145584
LJ         -0.775983        0.403403        0.282231
LJ            2.0958       -0.612321         1.79336
LJ           2.04298         0.76347       -0.930835
LJ         -0.769844        -1.42765         2.37231
LJ             1.162       -0.368329         1.13716
LJ         0.0403321        -1.24878         1.05108
LJ           1.71099        0.236141        -1.81414
LJ           1.75503        -2.05631        -1.56011
LJ          -1.24176       -0.530896        -1.51403
LJ          0.712516         2.35079        -1.03605
LJ         0.0642229        0.761586        0.678302
LJ          -1.80592       -0.148892        0.261079
LJ          -2.36768         1.69969       -0.347613
LJ          -1.77786          1.4641         2.30591
LJ            2.1731        -1.58609         2.03179
LJ           -1.9655        0.788283       -0.128542
LJ          0.149368          1.8377        0.677782
LJ         -0.319801         1.75951         1.66564
LJ           2.29467       -0.179957        -1.00034
LJ           1.78135        0.269072       -0.125036
LJ          -1.00364        0.697982        -1.94339
LJ          -1.93753          0.8991        -1.54314
LJ          0.765932         2.09198       -0.109259
LJ           1.00766         2.07949        -2.03603
LJ          -0.65667        -2.16033         1.22177
LJ          -2.33958         1.83568        -1.71837
LJ           1.04311        0.872226        -2.13221
LJ        -0.0194034         2.34814        -2.35569
LJ           1.62179         2.19661       -0.759201
LJ         -0.181797        -1.93037       -0.715485
LJ           1.92422        -1.71482         1.02032
LJ           0.52714           1.463        -1.18733
LJ          0.686964       -0.487051         2.25873
LJ          -1.47274        0.622624         1.92418
LJ           1.36535         0.19214         1.97176
LJ          -1.96828        -1.94359       0.0247518
LJ          -1.89978       -0.143397         1.35734
LJ         -0.200396         1.84323       -0.458239
LJ           -1.6917        0.807879        0.822335
LJ         -0.852854          1.3465         0.59983
LJ          0.608937        0.631709         1.53513
LJ          -1.69634       -0.878752         2.08859
LJ          0.458622         1.14114       -0.204991
LJ          -1.99729        -2.31934       -0.980707
LJ          -1.64641        -1.45641        -1.89546
LJ          -1.84093        -2.04416         1.13441
LJ           1.24881        -1.77467         2.37209
LJ          0.655633         1.58997         1.81038
LJ          0.871223        0.450765       -0.887343
LJ           1.52588         1.26365         1.45953
LJ           1.49762       -0.662332       -0.576502
LJ           1.71983         2.25928         1.88537
LJ          -1.34908         1.69426        -1.14177
LJ           1.05942       -0.509145        -1.49648
LJ          0.286567        0.364636        -1.66578
LJ           2.34066        0.512705          2.0089
LJ          0.228129       -0.433402        -1.05628
LJ          0.979726        -1.47217       -0.979785
LJ         -0.364897        -0.67668         1.67974
LJ          -1.99364        -1.00196        0.859816
LJ          -1.00169         -2.1125        -1.28146
LJ          -1.14129        -1.30389         1.40142
LJ           1.51034        -1.65471       -0.197085
LJ          -1.05313         1.09863       -0.354501
LJ         -0.587607        0.829432         1.41649
LJ       -0.00305638        0.264311       -0.376686
LJ           -1.5813        0.213148       -0.921686
LJ           2.14333          1.3153        0.490973
LJ           2.05207        0.521124         1.03429
LJ         -0.301849        -1.98071         0.31925
LJ        -0.0808117       -0.230407        0.742448
LJ          -2.01492       -0.145055        -1.99542
LJ           2.02102       -0.418171        0.728455
LJ          -1.03215         1.98283        -2.17533
LJ           1.07112        0.465702         0.52428
LJ           1.56365         1.52035        -1.41476
LJ           1.94094         1.36462         2.36858
LJ           0.53911        -1.63332       -0.134142
LJ        -0.0506911          1.1179        -2.23996
LJ           1.91827         2.27595         0.31777
LJ         -0.392384         1.09241        -1.15871
LJ          -1.56408        -2.10308         2.13583
LJ          0.148309        -1.69796        -1.61444
LJ         -0.989274        -0.12081         2.22266
LJ          -2.36008         1.75921         1.38752
LJ         -0.993771      -0.0272717         1.17638
LJ           1.14971         1.51025        0.550171
LJ           -1.7322         1.91333        0.443263
LJ          -1.32632        -1.22447       0.0689961
LJ          0.520115        -2.21428         1.56914
LJ         -0.677882        -1.11223       -0.900426
LJ            1.0208        -1.17921         1.58976
