108
#Comment!
LJ         -0.404131        -1.23277        -2.08272
LJ         0.0898546       -0.448861         1.69812
LJ           1.36048       -0.287015        0.207899
LJ         0.0191807         -1.0144        0.228841
LJ         -0.475176       -0.779842        0.976677
LJ         -0.741635         1.94216        -1.20618
LJ            1.9017         1.72031      -0.0124752
LJ        -0.0476286         2.15141         1.86022
LJ           1.34542         -1.9259        0.738976
LJ         -0.104639         -1.4956         1.81193
LJ          -1.12785        -1.46562      -0.0776867
LJ           2.02958       -0.441548         -2.3045
LJ         -0.178782      -0.0603549        -1.38386
LJ           0.97775        -1.09386        -1.35405
LJ          -1.66641         1.45149        0.174844
LJ           2.00968        -1.17247       -0.377012
LJ          -1.08574       0.0317677        0.395535
LJ           2.11276        0.185092         1.03451
LJ           2.17213         1.01236       -0.762456
LJ          -1.45372        -1.30235        -1.72562
LJ          0.840507        0.708302         1.23729
LJ          0.530918        -1.08495         1.06773
LJ            1.3139        0.390957       -0.789692
LJ           0.68387         2.02034        -2.08252
LJ          -1.28406        0.694912        -2.29114
LJ          0.898377        -2.08868        -1.25681
LJ         -0.758036        0.857635        0.689411
LJ          -1.60277       -0.534074       -0.490438
LJ           2.32764         1.20882        0.769477
LJ          -1.90942         1.66456         1.62831
LJ           1.54521        -1.51464        -2.01017
LJ          -1.93401         0.41988       0.0610921
LJ           0.60339         2.32684        0.194988
LJ          0.471762          1.2913         1.98602
LJ          -1.55237        0.461065       -0.978999
LJ           2.29345       -0.164309       -0.824809
LJ         -0.694936       -0.366225        -2.35061
LJ          -2.24016         1.31847         -2.1469
LJ            1.4733        -2.17986       -0.318143
LJ         -0.224287        -2.31106        -1.81743
LJ           1.19054         -2.2369         2.04693
LJ          -2.05502         -2.3583         2.27603
LJ           1.04933         1.07463        -1.96957
LJ          -1.12348        -2.12076        -2.22782
LJ           1.92582        -1.88702        -1.15259
LJ          -1.33052        -2.37554       -0.348598
LJ          -2.30563        -1.41425        -2.34836
LJ          0.195487         1.43456        -1.38514
LJ           1.29799       -0.967968         1.97139
LJ         -0.224846        0.633288         1.61219
LJ           1.84861         0.56276        -1.70904
LJ          -1.65557         2.30388        0.677531
LJ          -2.26729       -0.964822         1.51044
LJ         -0.843721        0.838011       -0.318806
LJ          -1.60344        0.788696         1.18955
LJ         0.0337226         1.43818         1.05947
LJ          0.909855        0.108495         2.19614
LJ           2.19047       -0.924658        -1.45529
LJ          0.289523        0.570364       -0.790907
LJ           2.32655         1.96006        -1.01585
LJ          -1.15363       -0.349122        -1.44609
LJ         -0.844587        -1.87493          1.0303
LJ           0.49714        -1.71767         -2.1857
LJ           1.00068         1.97835         1.22934
LJ          0.493038       -0.429851        -0.72449
LJ           1.67922        0.754836         1.85526
LJ            1.3781       -0.273042        -1.56889
LJ           1.92599         1.79064         1.93293
LJ          -1.78203        -2.32679         -1.5112
LJ          0.475585       -0.666255         -2.0973
LJ         0.0221372        0.539293        -2.09527
LJ          -2.14902        0.396786          1.9472
LJ         0.0452516        -1.49325       -0.845276
LJ          0.968158        -1.41076     -0.00253938
LJ           -1.0186        -1.10088         1.90984
LJ          -1.44987        -1.14412        0.818484
LJ          -1.94558        -1.55446       -0.864322
LJ          0.248969        -2.04726         1.03244
LJ          -2.33962        -1.58136        0.558642
LJ         -0.281258       0.0312416       -0.176627
LJ         0.0188328       0.0763285        0.816529
LJ          0.702758        0.504789        0.111913
LJ          -1.60272         1.52022         -1.0739
LJ            1.1067         1.27347        0.532965
LJ           -1.7833       -0.226661         1.00974
LJ         -0.384402         1.83247       -0.126717
LJ           1.17481       -0.208411         1.35925
LJ          -2.00003        0.236355        -1.75168
LJ            2.3664       -0.412072        0.136525
LJ          -1.36982            1.68        -2.05518
LJ           1.87365        0.539393       0.0624397
LJ           1.38644          1.4811        -1.16635
LJ           1.73256         2.06124        -1.88923
LJ         0.0846608         2.30487        -0.81107
LJ         -0.387263         1.41908        -2.27342
LJ          -2.24724        -2.28083       -0.167904
LJ          -0.71045        0.845605        -1.48002
LJ          -1.67467        -1.76286          1.5601
LJ          -0.87398        -1.86045       -0.973074
LJ          -1.74737       -0.500482         2.29954
LJ           2.14201         2.16885        0.892352
LJ           -1.0132    -0.000998167         1.55588
LJ          0.764815         1.39427       -0.398356
LJ         -0.830861         1.84416        0.954458
LJ         -0.231368        -1.94611     -0.00274332
LJ           2.06031        -1.90873         1.69395
LJ         -0.675428        -0.78867        -0.61549
LJ           1.56257        -1.00022        0.889197
