108
#Comment!
LJ           1.05206        -1.72719        0.797218
LJ          0.109264        -1.57472         1.13276
LJ          0.449476       -0.837265       -0.911706
LJ           1.33522        0.737835         2.24144
LJ         -0.186611      -0.0430351        -0.85128
LJ          0.690421         1.60976        -1.70128
LJ          -1.86369        0.787066        -2.00687
LJ           -1.2824       -0.926216         -1.0562
LJ         -0.571023       -0.605914         1.09742
LJ         -0.739931        0.167942        0.361756
LJ         -0.726255        -1.26383        -2.13124
LJ          0.830507        0.170877       -0.517626
LJ          0.947955        -1.30015       -0.155835
LJ           1.11255         -2.3568      -0.0504594
LJ           2.07102       -0.250201       -0.283534
LJ          -1.04274         1.27546         1.04139
LJ         -0.590264       -0.718152       -0.253838
LJ          -2.33889        0.237591         2.08925
LJ          -1.82699         1.75461      -0.0217032
LJ        -0.0602107         1.01693       -0.206123
LJ          -1.18132        -2.20775        -1.32654
LJ           1.46625         1.72765         2.25992
LJ           1.55084        -1.89804       -0.807627
LJ           1.48186        0.919703       -0.983055
LJ          -2.14974        -1.02831         2.12254
LJ          -1.16778        0.981344         2.05532
LJ         -0.740663        -2.10135         2.37191
LJ          0.976261        -1.85076        -1.65647
LJ           -1.4299         1.97411          1.6889
LJ          0.391251      -0.0179005        -1.69785
LJ          -1.75353         -1.8663         1.92958
LJ          -1.52903        0.350082        -1.18512
LJ         -0.235983        0.510615         1.34066
LJ           1.24828         -2.1585         1.77398
LJ           1.79933        -1.20782         1.56124
LJ           1.41424        0.443909        0.204925
LJ          0.529706         -2.0059       -0.831982
LJ          0.183091         2.02437       -0.125719
LJ          -1.75855        -1.13484      -0.0172056
LJ           2.32963         2.17662         1.48238
LJ           1.58858         2.09746        -1.62982
LJ           1.39835          1.6019         1.24644
LJ          -1.79427        -2.06812       -0.381818
LJ          -1.54353       -0.155907       -0.302505
LJ         -0.224927         1.56673        -1.11809
LJ           2.03967         0.77483         1.30664
LJ         -0.934642        -1.86745          1.3622
LJ         -0.622411         0.58456        -1.41594
LJ          -0.16069       -0.750868         2.01645
LJ           2.34001       -0.386254         1.28911
LJ         -0.510957           1.665        -2.30836
LJ          0.347526        0.826583        -1.10109
LJ         -0.688664        -2.22447       -0.381673
LJ          0.911298         1.73761       -0.749374
LJ           -1.8021        -1.55561        -1.73548
LJ          0.571295           1.218         1.81729
LJ         -0.328043          -2.283        0.591681
LJ          0.836114        -0.99563          1.5496
LJ          -0.86049        0.038923         1.99523
LJ           1.61051       -0.826904       -0.910229
LJ          -2.32052        -2.31306        -1.30238
LJ          0.602178         2.14226        0.969188
LJ          -1.96921         1.42364        0.912649
LJ          -2.29216        -1.66409        0.867987
LJ           2.27453        0.366318        -1.09888
LJ          -1.87076         1.76372        -2.00416
LJ           1.94877         1.28428        0.276009
LJ          -2.18687         1.34616        -1.15028
LJ         0.0124268         2.37865        -1.71904
LJ      -0.000849176        -1.49918      -0.0357146
LJ         -0.924865        0.683011       -0.419848
LJ         -0.458567           2.034         1.52673
LJ          -1.30658         1.68313       -0.831073
LJ          -2.19488        0.214802        0.427928
LJ           1.34532      0.00558145        -1.40772
LJ           1.63584        -1.30489        -2.18101
LJ          0.440275       0.0354219         2.03625
LJ           2.34936       -0.726199         -1.6944
LJ           1.93801         1.04463         -1.8762
LJ         -0.697722       -0.333812        -1.77198
LJ          0.751327        0.762965        0.843434
LJ           1.19154       -0.667823        0.658532
LJ          0.442559         2.09324         2.17284
LJ          -1.89786        0.767881       -0.422553
LJ           1.88312         1.94332       -0.624146
LJ          0.935221         1.38986        0.101966
LJ          0.801805       -0.796449         -2.1557
LJ           2.13583         2.30195        0.436415
LJ           -2.2208        -1.27883       -0.858082
LJ           1.98304        -1.22209        0.045793
LJ          -1.44009        -2.32275        0.694706
LJ         0.0955194        -1.38505         -1.6589
LJ          -0.91807        -1.55602         0.33891
LJ           1.29368       0.0279464         1.42611
LJ          -1.60758       -0.840289        0.900638
LJ          0.330062       -0.529251       0.0622211
LJ          0.325078        -0.23585         1.06814
LJ         -0.880649         1.55981       0.0679011
LJ        -0.0675125         1.33936        0.821158
LJ          -1.58771        0.217277         1.23203
LJ           1.64777       -0.283314        -2.29463
LJ         -0.503113        -1.41346       -0.901736
LJ          -1.68683       -0.175369        -2.12677
LJ          -2.12645         1.24714         1.94338
LJ         -0.110129        0.714959        -2.28291
LJ          -1.21179       -0.888032         1.80057
LJ           2.09879        -2.17774        -2.34124
LJ          0.273914        -1.68587         2.23121
