108
#Comment!
LJ           0.11734       -0.952818        -2.15804
LJ          0.751466       -0.186076         2.27405
LJ           1.07754       -0.598346        0.572699
LJ          0.139913       -0.602982       0.0974417
LJ         -0.886278        -1.02555        0.741702
LJ         -0.334906        0.664043        -1.04448
LJ           1.74391         1.86266       0.0218553
LJ          0.561073         1.84616        -2.15665
LJ           1.08251        -1.55019        0.928847
LJ          0.731153        -1.05429         1.79336
LJ          -1.87239        -1.23521      -0.0763611
LJ           2.25419        0.489158         1.68752
LJ          -1.08709       0.0561543         -1.3428
LJ          0.686942        -1.43036        -1.08737
LJ          -1.94812         1.74265        0.322209
LJ          -1.58557        -1.58882        -1.00001
LJ          -1.38648       -0.161702        0.454071
LJ          0.602228        0.498641         1.47901
LJ           2.31437         1.07054       -0.246083
LJ          -2.02502        -1.07037        -1.68554
LJ          0.583012        0.910787        -2.37644
LJ      -0.000760428        -1.57149        0.587426
LJ          0.521687        0.205601       -0.755694
LJ         -0.447369        -2.06447         2.34019
LJ          -1.06745        0.908165         1.33923
LJ           1.59845        -2.04715       -0.718345
LJ        -0.0742244         1.09514        0.877927
LJ           -2.1647       -0.516561       -0.836744
LJ           1.15562         2.09348        0.847132
LJ         -0.725431        -2.32248         1.37598
LJ           1.40756        -1.58929        -1.77156
LJ          -1.94381        0.650824        0.553231
LJ          0.899996        -2.17473      -0.0228472
LJ           1.45844         1.08561         1.57416
LJ          -1.67118        0.352882       -0.555998
LJ           1.29836       -0.218153       -0.324063
LJ         -0.327644          0.5697         1.98813
LJ           -2.2338         1.62092        -1.18483
LJ           1.90577        -1.16095       -0.617826
LJ         -0.427852        -1.76443        -1.41206
LJ           1.55382         2.25059        -1.64956
LJ           2.28141        -1.86164         1.13715
LJ          0.502642         1.27962        -1.35274
LJ         -0.909548        -1.06139        -2.12498
LJ          -2.31971        -2.05308        -1.44042
LJ          -1.05769           2.374       -0.578923
LJ           2.33928          -1.572         2.07447
LJ         -0.332806         1.87369        -1.58701
LJ           1.38535        -2.01046         2.06238
LJ         -0.238074         1.69378         2.01725
LJ           1.42474       -0.131635          1.5733
LJ          -1.73269        -2.03926        0.523168
LJ          -2.15336       -0.666231         1.91368
LJ          -1.33541         1.47384       -0.545246
LJ          -1.64315         1.99632         1.24377
LJ          0.935456         1.12238        0.673846
LJ           1.69089       -0.709444        -2.32583
LJ           1.72504       -0.416475        -1.33954
LJ         0.0307411        0.828048       -0.143098
LJ           1.43547         1.46268        -1.06985
LJ          -1.49953       -0.233222        -2.18522
LJ         -0.787826        -2.08004        0.264287
LJ          0.754768         2.25635       -0.907742
LJ          0.457376        -2.06583         1.71117
LJ            0.7974        -0.50936        -1.58205
LJ           2.04996         1.35296        0.840257
LJ           1.19745        0.497723        -1.68524
LJ           1.90437         2.00433         1.53836
LJ          -1.30113         1.94111        -1.48182
LJ          0.433538        -1.95346        -1.86484
LJ          0.156702        0.240012        -1.79461
LJ          -1.61028         1.13015          2.2647
LJ        -0.0278046        -0.74138       -0.925902
LJ          0.970693        -1.19589       -0.201474
LJ         -0.579489         -1.3611         1.69081
LJ          -1.87686        -1.12569          1.0264
LJ          -1.47708        -1.90159        -2.02196
LJ          0.133269         2.15298        0.675016
LJ           2.11237       -0.961064        0.452172
LJ          -1.01623        0.702315        0.235981
LJ         -0.592342        0.146362          1.0079
LJ          0.521507        0.237343        0.481649
LJ           2.09415         0.45897        -1.06302
LJ          0.605505         1.56092         1.55117
LJ           2.37235       -0.148933         0.96156
LJ         -0.293827         1.72164       -0.604123
LJ         0.0179093       -0.698628         1.16939
LJ           2.12369        0.181623        -2.14658
LJ           2.26926        0.107877       -0.110497
LJ          -1.15286         2.01252          2.1536
LJ           1.65745        0.354787        0.625148
LJ           1.33817         0.83999       -0.299955
LJ           1.92886         1.25549        -2.01467
LJ          -0.11776        -1.82734       -0.442839
LJ         -0.849979          0.8649        -1.88802
LJ          -2.20643         2.30764       -0.503863
LJ          -1.73894        0.762053        -1.51735
LJ          -1.54994        -1.83412          1.6533
LJ          -1.02103        -0.90617        -1.14451
LJ         -0.538551        -0.44003         2.02269
LJ           2.03746        -1.94923        0.178878
LJ          -1.55298       0.0914372         1.54507
LJ          0.587108          1.6543       -0.134362
LJ         -0.710813          1.7289        0.375769
LJ         -0.735523        -1.05693       -0.198374
LJ          -2.26125         2.22344        -2.36115
LJ         -0.587339      -0.0644075       -0.307388
LJ           1.86328       -0.958997         1.42472
