108
#Comment!
LJ           2.19512        -1.36782       -0.713994
LJ         -0.477396        -2.31045       0.0902245
LJ          -2.29864        0.786367        -2.34798
LJ         -0.962434       -0.931041        -2.13075
LJ           1.46941        0.343628        -1.76811
LJ          -1.83407        0.748009        -1.44132
LJ          -1.89831         1.68057        0.386392
LJ         -0.510306         0.40741         0.56703
LJ          -2.24884       -0.672438         1.24692
LJ          0.392061         -2.1176         1.59349
LJ          -1.00867         1.09808       0.0731016
LJ          0.524846         1.63476         1.58591
LJ           1.78935         1.75698        0.103392
LJ          0.210938       -0.982865       0.0965612
LJ         -0.425142          1.4374         2.18173
LJ           1.35144        0.125361        0.708369
LJ          -1.27385         2.01611       -0.244363
LJ           1.37693        -0.98816        -1.10797
LJ          0.607501         1.06222       -0.808279
LJ          -1.62854       -0.140436        -1.99978
LJ          -1.36995       -0.496024        0.642883
LJ          -1.50366        0.498249        0.821113
LJ           2.28276         0.69247        0.584032
LJ          0.435511        0.165196         -1.6886
LJ          -1.95993        -1.16772          2.3159
LJ           1.97494        0.963311        -1.17349
LJ          -1.02697           1.178       -0.870199
LJ          -1.38699        0.137571       -0.112511
LJ          -1.55695        -1.78985       -0.632214
LJ           2.34009        -2.31427        -1.05567
LJ           1.02341        -1.38932        0.804967
LJ         -0.388818        0.443338       -0.996417
LJ         -0.181593         1.57246       -0.469207
LJ           1.93237        -1.25064         0.41698
LJ           1.50362         1.49388         1.94765
LJ           1.95163       -0.367249            2.03
LJ           2.13381       -0.242643        0.166328
LJ          0.349087        -1.90639       -0.323837
LJ          -1.21975         1.97082        -2.23574
LJ         -0.185024        -2.14758        -1.87119
LJ         -0.265031       -0.618345        0.887444
LJ         -0.617222        -1.39797        -1.23646
LJ         -0.896402        -1.40288        0.316441
LJ         -0.579929       -0.437771         1.86972
LJ          -1.39467        -2.14751        0.645014
LJ           2.26683       -0.541828        -1.75377
LJ          0.666899        0.922608         2.24137
LJ          -1.00601       -0.840302       -0.487563
LJ            0.2792        0.822651         0.10104
LJ          0.721367       -0.162597       -0.663648
LJ         -0.101935       -0.485439        -1.18627
LJ           1.53958        -1.29198         1.71008
LJ          0.344051         0.61584         1.33504
LJ         -0.498544        -2.36143       -0.910456
LJ          0.821573         1.77688       -0.122466
LJ          0.246745      0.00587125         2.14972
LJ           1.80206      -0.0792622       -0.942659
LJ          -1.20131      -0.0872585        -1.14362
LJ           1.27776       -0.724241        -2.01661
LJ          0.466709      -0.0248032        0.487721
LJ           1.77505         2.14504        -2.00255
LJ           1.38836        0.647702       -0.219424
LJ          0.712081        -1.60766        -2.26319
LJ            1.1706        -1.97961        -1.46036
LJ           1.40418        -2.22954         1.79541
LJ          -2.08266         1.70249         2.01433
LJ          -1.41027        0.855306         2.01451
LJ         -0.554843        -2.35122         1.32439
LJ          -0.60978         0.58661         1.51404
LJ            2.0221         1.59402         1.16633
LJ          -2.36172        0.369372         1.49528
LJ          -1.57049       -0.983118        -1.34056
LJ           1.34045        -2.18518       -0.318242
LJ          -2.27961        0.552575       -0.407953
LJ          0.358027        -1.10093         1.64256
LJ          0.381917         2.08418         0.70313
LJ           0.44367        -1.33616        -1.22045
LJ           1.36239        -2.34498        0.713683
LJ           -1.4168          1.5452         1.24095
LJ         -0.266615       -0.117048       -0.245065
LJ          -1.36339         2.22904        -1.24074
LJ          -2.06661       -0.333665       -0.697753
LJ           1.13607         1.39129        -1.75514
LJ         -0.416416        -1.58693         2.08489
LJ          0.970097         1.17246        0.853276
LJ          -1.05272         1.05317        -1.83251
LJ         -0.399012         1.37914         0.86386
LJ           1.55948         1.81864       -0.932619
LJ          -1.51582        -2.26595         1.58357
LJ           2.37861        -2.08909         2.12625
LJ           2.36153        -2.12307        0.150332
LJ           1.35458        0.539166         1.68388
LJ           1.94881        -1.53377        -1.90137
LJ           1.20822       -0.865752      -0.0579612
LJ          -1.49874       -0.138786         1.63391
LJ          -2.27045        -1.63148         1.12575
LJ          -1.46165        -1.89403        -1.98229
LJ          -2.08789          1.5453       -0.580252
LJ           -1.8291        -1.23111        0.178307
LJ           -1.3522        -1.20308         1.48647
LJ          -0.19919         1.48037        -1.49043
LJ          0.079279        -0.84178        -2.10604
LJ          0.577507         2.03289        -1.17026
LJ         -0.568323        0.069186         -1.9619
LJ         0.0492728        -1.70253        0.764857
LJ          -2.19387         1.68163        -1.59285
LJ          0.582484         2.07897        -2.32691
LJ            1.0846       -0.407945         1.51184
