108
#Comment!
LJ           -1.2961         1.04624          1.5644
LJ         -0.190991        0.913141         1.91767
LJ          -1.97373      -0.0592831          1.0075
LJ          0.865738       -0.613133        0.381237
LJ          -1.93247        -2.27203       -0.846353
LJ         -0.608524         1.17669       0.0209622
LJ          -2.13001        0.378672         1.95803
LJ           1.64281        -2.16893        0.656118
LJ           1.24394         1.15073       -0.861582
LJ           1.83045        -1.96155       -0.712903
LJ         -0.158301        0.521634        0.995315
LJ          -1.36369         2.04868        -2.04524
LJ            -1.093         1.08669        -2.17503
LJ          -2.33622        0.683867       -0.974187
LJ           1.93772        0.993373      -0.0935879
LJ          0.840877        0.311336         1.10103
LJ          -2.37335         1.85277       -0.221145
LJ           1.87984         1.67238        -1.33284
LJ          -0.85479        -1.47666        0.770651
LJ         -0.924432        0.119067         1.49963
LJ         -0.369686        -1.97361       -0.303428
LJ           0.59205        0.816965        -2.02921
LJ          -2.35498         1.33822         1.66798
LJ            1.0859         2.15851         1.40483
LJ           1.77576        -1.10324          0.6745
LJ           1.33865       -0.534299        -1.41297
LJ         0.0853123         2.12653          1.7571
LJ          -1.09323       -0.358178        0.628028
LJ           2.21285       -0.312802        -2.26507
LJ            1.0872         2.27268        -1.32534
LJ          -1.08365        0.777145        -1.00604
LJ          0.421316         1.10903       0.0125935
LJ          -1.37426        0.639544        0.645238
LJ          0.480628         2.22285         0.49899
LJ           1.80865        0.168218         1.19401
LJ          0.296435       -0.994261         2.22662
LJ          0.061341         1.94924       -0.393585
LJ           0.72503        0.191869        -1.19965
LJ          -2.37441         -1.7014        0.196967
LJ          0.224365       -0.565599        -1.62166
LJ           1.21829        -1.10667        -2.25474
LJ          0.186538        -2.05367        -1.10692
LJ         -0.571734         1.60463        -1.09418
LJ          0.469121         1.53486          -1.298
LJ           1.62712        0.649904          2.0934
LJ         -0.321954        0.565474        -1.83778
LJ           1.95711        -1.58552        -1.66289
LJ           1.12354        0.422609       0.0375004
LJ         -0.396719         1.79238        -2.04351
LJ         -0.023726        0.719022       -0.889005
LJ           2.34685         1.90894        0.904797
LJ          0.893975      -0.0694998        -2.31588
LJ         -0.888874         1.92659         1.58565
LJ          -1.64879       -0.508111          1.8611
LJ          -1.30402        -1.78416      -0.0647408
LJ          -2.26064         2.30249        -1.86866
LJ          -1.65707          1.6032        -1.12233
LJ          0.229735        -1.49792        0.424895
LJ           1.11393        -0.67823         1.49721
LJ          -1.99331        -1.22921         1.00146
LJ           1.65501        -2.27658        -2.35955
LJ         -0.899774         0.10077        -0.20204
LJ           1.59157        0.640442        -1.67296
LJ          0.755293        -1.95144       -0.305311
LJ           -1.7616        -1.41993         2.28456
LJ          -1.76763        0.356681        -1.92118
LJ         -0.687539       -0.852167         1.69469
LJ          0.100996        0.134705       0.0973937
LJ          -1.68924         1.16025       -0.166426
LJ          -2.31362        -1.07215       -0.983576
LJ         -0.567228         2.34314        0.559511
LJ          -1.65992      -0.0764233       -0.927259
LJ         -0.678293       -0.263564         -2.2586
LJ          0.720835         2.31874        -2.29211
LJ          0.715054         1.31054          1.7651
LJ         -0.032039        -1.81007        -2.11195
LJ          -2.13737          1.3862        -2.15399
LJ           1.66263        -1.02307       -0.418859
LJ           1.00719        -1.48995        -1.37957
LJ          0.958818        -1.56903         1.25271
LJ         -0.539275       -0.940141      -0.0288523
LJ         -0.115179         1.52574         1.01724
LJ         0.0976494       -0.081107         1.85817
LJ           1.85883       -0.171656        0.255891
LJ           1.17937         1.74912       -0.050093
LJ          -1.89851          2.3464         1.93502
LJ          -1.11294          2.0196       -0.292592
LJ          -1.52882        -1.56673        -1.52177
LJ          -1.33614        -1.06638       -0.699511
LJ         -0.753236       -0.153788        -1.31284
LJ           2.19676       -0.700081         1.56925
LJ          -1.27846         1.58823        0.681181
LJ          -2.07593        0.217325       0.0309107
LJ         -0.369578        -1.06233       -0.998156
LJ         -0.800581        -2.19349        -1.35961
LJ            1.3838         1.20429          1.0403
LJ           2.12018        -1.75596         1.63146
LJ         -0.035086        -1.67429          1.4182
LJ         -0.815753        -1.21697        -2.11221
LJ          -1.77367        -0.63409        -1.87259
LJ         -0.957454        -1.81629         1.70838
LJ           1.35889         1.50216        -2.20377
LJ           1.77569     6.58273e-05       -0.694195
LJ          -1.75265        -2.16262        0.820299
LJ          0.475662       -0.796203       -0.718161
LJ          -2.30174        0.881582        0.771105
LJ          -2.06555       -0.764119       0.0978465
LJ        -0.0664709       -0.627852        0.858548
