108
#Comment!
LJ           2.36039          1.5305       -0.198321
LJ         -0.750902      -0.0683226        -1.29929
LJ          0.928138        0.842435         1.85393
LJ         -0.949386        -1.65879         1.21064
LJ         -0.184756       -0.377066        -2.09597
LJ          -1.86342         1.52802        -1.09785
LJ           1.81325         1.40843         1.17746
LJ          0.729497       -0.101759         1.08723
LJ        -0.0741566        -2.15149         1.87529
LJ          -0.13493      -0.0990418         1.66163
LJ           1.03738        -1.22196        -1.73039
LJ           2.13371       -0.563866        -1.01749
LJ           1.40521        -1.47475        0.709782
LJ           1.13531       -0.233035         -1.3759
LJ          0.685926         1.59074         1.20726
LJ         -0.167239        -1.20284         1.64776
LJ          -1.83545       -0.896293        0.289385
LJ          0.602196        -1.57651       -0.169921
LJ          -1.01107       -0.596542         1.78621
LJ          -0.47031        -1.32939       -0.561184
LJ         -0.106648       -0.819554         0.25901
LJ            1.8439        0.806291        0.349974
LJ          -0.30469         1.97576         1.02976
LJ           -1.9383        0.831619        0.236147
LJ         -0.773572         1.05415         1.82626
LJ        -0.0778239        0.220148         0.26485
LJ            -1.832        -2.12255         1.10095
LJ          -1.33788        0.721004        -1.10438
LJ           1.96483        -1.26435      -0.0777143
LJ           1.03831       -0.388058        0.224318
LJ          -1.35869         1.37115        -2.14449
LJ           0.17601         1.38078        -1.77394
LJ         -0.342741        -1.83847        0.354336
LJ          -1.08617         1.98927         1.75237
LJ           1.91122        -1.63059         1.64604
LJ         -0.502896          2.0446        -2.15202
LJ           -1.9652       -0.475397        -1.90856
LJ          -2.02686         1.63778         1.81301
LJ          -1.20477         1.09812        0.875225
LJ         -0.272364         0.71581        -1.00447
LJ          0.118636        0.526098        -2.30521
LJ          0.102763        -1.37457        -2.19127
LJ          -1.20269        -2.24617        -0.82943
LJ          -2.00534      -0.0828739         0.84116
LJ           1.63176        0.322873         1.21322
LJ          -0.59052        -1.80936        -1.46906
LJ           1.17097         1.38176      -0.0657408
LJ          -1.39756        -1.09511        -1.08146
LJ           2.36283        0.722479       -0.950471
LJ           1.16415       -0.830571        -0.60787
LJ           0.78279        0.778691        -1.15251
LJ         -0.453581         1.60902       0.0617101
LJ          0.562828        -2.02649        0.888188
LJ          -2.14758          1.7803        0.714183
LJ          0.749113        0.783283        0.631105
LJ         -0.877788        0.266319         -2.3426
LJ         -0.935599       -0.334855       -0.303469
LJ          0.225349       -0.916634        -1.21968
LJ           1.23139         1.13119          -1.948
LJ           1.75521        -2.34918        0.926953
LJ          0.381196        -2.37221         -2.0639
LJ           1.90306        0.105778        -1.74477
LJ          0.710913        -1.95563        -1.13216
LJ          0.887123        -2.34296         1.73396
LJ          0.753127         1.79465        -1.02258
LJ          -2.06632        -1.12778         1.22645
LJ         -0.981905        0.685171       -0.185717
LJ          -1.17084         0.20649         1.29147
LJ           1.69441         1.52684       -0.900105
LJ            2.1846        -2.23547       0.0237458
LJ          0.573086        -1.08196        0.962426
LJ          -2.00668        -0.11858         1.83295
LJ          0.164935       -0.222556        -0.60451
LJ          0.137466           1.601         2.02005
LJ            1.8884        -0.82154        -2.13865
LJ           1.28486         2.34645       -0.306751
LJ          -1.41758         1.55281       -0.252804
LJ          -1.89391        0.538745        -2.04653
LJ           -1.3284        -1.79769        0.293026
LJ          0.763721        -0.24575         2.25869
LJ           -2.0274        -1.37597         2.20869
LJ          -1.71542       -0.177057       -0.880238
LJ           1.98119        0.520778         2.10417
LJ           1.70268        -1.79122        -2.17378
LJ           2.31288         1.34986        -1.84242
LJ            1.6749        -1.63423        -0.98169
LJ          0.932919        -1.39408         2.00066
LJ           1.46042        0.176336       -0.464953
LJ         -0.179946          1.0568        0.908582
LJ          -1.01696       -0.863756        -1.96282
LJ         -0.243134         2.24316       -0.653396
LJ          -2.03678        -1.61556        -1.51376
LJ            1.2828         2.17735        -1.80604
LJ            1.5664       -0.683521         1.60478
LJ          0.411567          2.1428       0.0517775
LJ           2.13802          2.3173        -1.33221
LJ           1.59997          1.7181         2.07321
LJ          -2.14073        0.817642         1.34177
LJ          -1.96758        -1.69151       -0.486725
LJ         -0.672543         1.58799        -1.23508
LJ          0.322874         1.02043       -0.283632
LJ           2.34406      -0.0654997       -0.158873
LJ          -1.34024          2.2871        -1.81076
LJ           2.00866       -0.646866        0.622302
LJ          -2.21398         2.36131        -2.29784
LJ          -0.91526        -1.82088         2.16829
LJ         -0.930819       -0.695475        0.787012
LJ          -1.17418         2.05781        0.609075
