108
#Comment!
LJ          -2.06239         1.26428       -0.865886
LJ         -0.536496        0.324715         -1.0455
LJ         -0.080898        0.948424         2.06346
LJ          -1.27804        -1.20048         1.18739
LJ         0.0635156        -1.30984          2.0401
LJ          -1.86023         1.48953        -1.91057
LJ            2.0551         1.11279         1.45358
LJ          0.295895        0.290544        0.965605
LJ        -0.0286535        -1.57941        0.964842
LJ         -0.531886        0.176308         1.63699
LJ           1.00967        -1.06762        -2.33239
LJ          -2.03914       -0.452279        -1.09935
LJ           1.79524        -1.83259        0.266733
LJ          0.521849      -0.0502968        -1.76387
LJ          0.691698         1.50191         1.39264
LJ         -0.385345       -0.720048          1.2775
LJ          -1.52928       -0.842411       -0.331275
LJ          0.332101       -0.693355       -0.657066
LJ         -0.893318       -0.916818         2.14097
LJ         -0.943304        -1.37483        -1.00768
LJ         -0.102189       -0.749719        0.320449
LJ           1.81072        0.577594        0.505785
LJ          0.026216         2.32821       0.0124257
LJ          -1.32739        0.725335     -0.00759991
LJ          -1.04072        0.973903         1.75489
LJ         -0.656198        0.605368         0.79289
LJ          -2.34643         2.15856        0.612675
LJ          -1.53627        0.473037        -1.90787
LJ           1.28886        -1.06909       -0.301879
LJ           1.64904       -0.499056        0.483161
LJ         -0.900154          1.3294          -2.068
LJ         0.0112118         1.10655        -1.61571
LJ        -0.0588356        -1.53965       -0.298736
LJ           -1.1771         1.54584         0.94086
LJ           2.17154        -1.93365         1.29768
LJ         -0.440098         1.71507         1.54708
LJ          -1.85347       -0.456703        -2.28165
LJ          -1.51951        -2.22826         1.37929
LJ          -2.12111          1.1738        0.295315
LJ         -0.992055         1.25804       -0.940253
LJ          0.808466        0.540985         2.21472
LJ         -0.578937        -2.02924         1.66883
LJ         -0.932917        -2.22551       -0.410855
LJ           -2.0712       -0.149981        0.335677
LJ           1.12721        0.129891         1.38047
LJ         -0.597846        -1.97927        -2.10933
LJ          0.906827         1.81907        -0.19605
LJ          -2.01033        -1.72358       -0.801684
LJ           2.25064        0.352638        -1.48544
LJ          0.973473        -1.22723        -1.31732
LJ          0.507145        0.417324       -0.886899
LJ         0.0298165         1.39576       -0.621956
LJ           1.09351         2.34431         1.08174
LJ          -1.85677         1.63659         1.67187
LJ          0.854702        0.821695        0.355613
LJ         -0.473495         0.13179        -2.14409
LJ         -0.646244       -0.549732       -0.496175
LJ        -0.0463477        -1.03323        -1.66979
LJ           1.29164        0.707075        -1.57926
LJ           1.53159          1.5822        0.622676
LJ        -0.0633772         1.90207        -2.19279
LJ           1.41638       -0.264016        -1.06497
LJ          0.388996        -1.99482        -1.78434
LJ          0.459417        -2.18356         1.99381
LJ          0.732715         1.69574        -1.27849
LJ          -1.67088        -1.91325        0.224199
LJ         -0.801977         1.57341       0.0156344
LJ           -1.4782        -0.21302         1.51698
LJ             1.734         1.65477        -1.32985
LJ           1.93924         1.96303       -0.370226
LJ          0.717189       -0.637182        0.852922
LJ           2.36404       0.0899605         1.30509
LJ           1.01666      -0.0258939        -0.13083
LJ          0.947615         1.53322        -2.27661
LJ           1.93022       -0.873817        -2.07652
LJ          0.795034        -2.08114       -0.731478
LJ          -1.77142         1.94919       -0.203647
LJ          -2.10935        0.656348         2.07764
LJ         -0.806961        -1.44197        0.274832
LJ          0.317902       -0.349878         1.93343
LJ          -2.24179        -1.05079        0.979547
LJ          -1.57049        0.410672       -0.923707
LJ           1.77725         0.22611         2.22895
LJ           1.74266        -1.63907           2.122
LJ           1.89424         1.25626        -2.24363
LJ           2.29515        -1.73712        -1.78638
LJ          0.917033        -1.49836         1.41104
LJ           1.58922        0.978241       -0.611737
LJ         0.0500648         1.40409        0.639201
LJ          -1.06233       -0.513974        -1.52375
LJ         -0.112592         2.30115       -0.991018
LJ           -2.0839        -1.32537         1.95104
LJ            1.4023        -2.30019        -1.76482
LJ           1.69811       -0.704323         1.63541
LJ          0.752906        -1.69777        0.330431
LJ           -2.0938         2.22363        -1.30867
LJ            1.6062         2.09958         1.90427
LJ          -1.77569        0.775379         1.13812
LJ            1.8415        -1.75813       -0.870411
LJ          -1.13917         2.15596        -1.53367
LJ         -0.186329         0.56523      -0.0655383
LJ           2.14957        0.137469       -0.481904
LJ          -1.58144         -1.2798        -1.91334
LJ           2.27504        -1.02649       -0.111018
LJ          -2.24207        -2.37234         2.21387
LJ          -1.25601         2.15903         2.24988
LJ          -1.14113       -0.444522        0.546212
LJ         -0.797529        -2.37056        0.588622
