108
#Comment!
LJ          0.887756         2.28276       -0.192089
LJ         -0.722971        0.662916        -1.94779
LJ         -0.163924       -0.578046        0.360032
LJ          0.312384        0.233505       0.0939925
LJ          0.831317         1.00558       -0.276412
LJ           1.67877        -1.16829        -2.11973
LJ          0.899071          2.1797        -1.17461
LJ          0.534159        -1.63804        0.010316
LJ           1.92866       -0.697103       -0.876651
LJ         -0.991678        -1.03798        -1.15792
LJ           1.70131        -2.18166       -0.697723
LJ          0.821807         0.56864         0.95162
LJ            1.0407      -0.0715971        -2.20121
LJ           1.02402       -0.392499        -1.21964
LJ           1.41009           1.575        0.255591
LJ          -1.22027         1.22198        0.724224
LJ           1.95469       -0.218737        -1.80684
LJ           0.65291       -0.672095       -0.208086
LJ         -0.132562        -2.34989        0.136076
LJ         0.0921362          2.2292        -1.83697
LJ          -1.61332        -1.47828         2.18787
LJ           -1.2661         1.13132       -0.308044
LJ          0.888216         -2.0809        0.780101
LJ             1.541         1.42732       -0.823439
LJ         -0.288009         1.11765         1.26267
LJ         -0.802686        -1.76385         1.65533
LJ          -2.32879        -1.50526       -0.823374
LJ          -2.20776       0.0122792         1.91564
LJ         -0.398629       -0.116963         2.03563
LJ            1.1279        -1.35415       -0.866941
LJ          0.400604         2.19038         1.45807
LJ           1.45216        -1.05249       0.0707394
LJ           1.98982         1.65006         1.85474
LJ          0.732839        -1.66388         -1.8375
LJ          0.495027         0.48721         1.88041
LJ         -0.650156       -0.377005       -0.500018
LJ          0.130104       -0.973456        -1.15607
LJ          0.176993        -1.93818       -0.933892
LJ          -2.24141        -2.18917        -2.22307
LJ          -2.33598         1.16926       -0.480041
LJ          -1.24979       -0.129185        -1.44527
LJ         -0.737215         1.74965        -1.38926
LJ           1.06764         1.53107         1.54712
LJ          -2.37062         -1.9507         1.58552
LJ          -1.69496        0.532462        -2.07548
LJ          -1.23015        0.352948         1.33275
LJ          -1.72464        -1.22507         1.20373
LJ           2.30654       -0.110217        -0.12218
LJ           1.19325         1.74265        -2.00849
LJ           0.11021         1.70867        -0.71452
LJ           1.46038         -0.1656        0.816119
LJ          -2.34709       -0.937001         1.97427
LJ          -1.92339         2.28379       -0.463848
LJ          0.117719         1.06333        -1.67726
LJ           2.28042         2.00923        -1.24813
LJ          -1.40002        -1.57364        -0.24422
LJ           1.70904        -2.01933        -1.69589
LJ          -1.51469         1.84679         1.57709
LJ          -1.70027       -0.662503       -0.566069
LJ           1.57118         0.43364       -0.817728
LJ         -0.272218       -0.862734         -2.1039
LJ          -1.89289        0.939391         1.82239
LJ           1.79419        0.696102         1.24648
LJ         -0.449811         2.12813          1.8998
LJ           1.79985        -1.51578        0.903156
LJ          0.742926       -0.875036        0.786434
LJ         -0.237109         1.32551        0.139546
LJ           0.53765         1.41485        0.732262
LJ          -2.03117         1.63391        -2.06404
LJ          -1.57875         1.09569        -1.26663
LJ          -2.07506        0.469726        0.833866
LJ          -1.21891         1.97691         0.16545
LJ          -2.29276         1.72476        0.447377
LJ          0.135219      -0.0269898         -1.8404
LJ          -1.60866        -1.85015        -1.49863
LJ         -0.852835        -2.25222       -0.640196
LJ            1.6635        0.741122          2.2225
LJ          -1.97791       -0.900425        -1.54899
LJ           2.21671        -2.11139        0.310798
LJ          0.288033         1.42702         2.15381
LJ           2.16882         0.81956        -1.64158
LJ          -2.14039       0.0437382        -1.07629
LJ          0.117383        -1.84938           2.216
LJ          -2.24543        -1.17699        0.163159
LJ           1.75851         2.05129         1.03915
LJ         -0.767115         2.15005        0.986213
LJ           -1.1915         2.24617        -2.23662
LJ         0.0452827       0.0173569         1.13865
LJ          0.412133        0.320504       -0.955081
LJ         -0.399913        -1.45551       -0.270276
LJ         -0.517625        0.624212         -0.9215
LJ          -1.33216       -0.626488         0.28733
LJ          -1.35605       -0.420833         2.13624
LJ        -0.0143646        -1.26384         1.31136
LJ         -0.763785       -0.470723         1.10522
LJ           1.84545         0.68356        0.261264
LJ         -0.944626        -1.52993        0.619568
LJ          -2.35934       -0.510037         1.09066
LJ         -0.962566         1.19853         1.99073
LJ         -0.560568        -1.76903        -1.81492
LJ           1.08999        -1.35146         1.57169
LJ          -1.49694        0.207322      -0.0159524
LJ           1.28477        -2.23037         1.95634
LJ         -0.655019        0.457008         0.44838
LJ           1.16016        0.849395        -1.56925
LJ           1.54937       -0.512653         1.77481
LJ          -1.68743        -2.19364        0.834031
LJ          0.460478       -0.649338          1.9165
