108
#Comment!
LJ            2.2864       0.0938207         -1.0218
LJ          -2.27151       -0.374189       -0.166815
LJ          -2.29196        0.464891         1.78131
LJ           2.28747         1.80846        0.394537
LJ          -1.98632         1.43518        -1.35455
LJ           1.42468        -2.15119         1.38656
LJ           1.06206        -1.80145       -0.323255
LJ           1.56209        -0.66666       0.0475868
LJ          0.112817        -1.55205        -1.14211
LJ         -0.358069       -0.972788        -1.80049
LJ           1.90213       0.0228057         1.01992
LJ          -1.57912        -2.23547          1.8134
LJ           1.62027        0.745562        -1.45555
LJ          -2.17813        -1.60334          2.3029
LJ           -1.1227         1.00122       -0.646002
LJ          -1.79803        -1.36246       -0.710379
LJ          -1.16317        -1.32683         2.18906
LJ           1.13312         1.62059         2.24125
LJ           1.96473        -1.42561       -0.924589
LJ          -1.53627         -1.5727        -1.66157
LJ          -2.15559       0.0069041        -2.09469
LJ          0.527887         2.27993        0.742827
LJ           2.37435        -2.10658         1.21249
LJ          -2.34474        -2.19652        -1.59866
LJ           1.78322        -1.36157         1.78664
LJ          -1.74547         -1.3581         1.31682
LJ         -0.203852         1.06576       0.0830001
LJ           1.07861        -1.31199        0.738729
LJ          -1.54918         2.03641        0.833714
LJ           0.61094         2.03906        -1.37214
LJ          -1.94254       -0.406362        0.919337
LJ         -0.402662        -1.92403         1.78942
LJ          -1.38322         1.25614         1.55969
LJ          0.326776       -0.550444         1.06505
LJ          0.499726        0.286312       -0.356707
LJ          0.826095        -1.22762         1.70272
LJ         -0.716639        -2.20205        -1.78759
LJ          0.822212         1.30896       -0.743747
LJ           2.16907          1.1587        -2.24493
LJ           2.09389        -1.25869        0.736073
LJ          -1.51134         -1.9736         0.05641
LJ            1.4844         1.62383         1.18951
LJ           1.22991        -2.09732         -2.2933
LJ            1.8621         1.70199        -1.49451
LJ          -1.93995       -0.617514         1.94997
LJ           1.05676       0.0176401        0.463091
LJ          0.255826        -1.83523        -2.18133
LJ           1.75159        -1.25219        -1.99232
LJ            2.0036         1.32102        -0.51801
LJ           1.44794       -0.227149        -1.76166
LJ          0.689862       -0.271024         2.18985
LJ           1.17321         1.65467        0.100384
LJ         -0.100165         0.93152       -0.900805
LJ           1.12039        -1.83549        -1.27536
LJ          -1.54923        0.757089        -2.35463
LJ         -0.580437        0.122445       -0.664971
LJ           1.46741         2.12039       -0.704504
LJ          0.630979        -1.03311        -1.75203
LJ          0.663095           1.086         0.74417
LJ         0.0871966        -1.52421        0.937954
LJ         0.0821467         1.87608        -2.37299
LJ          0.489042        0.173715        -1.39308
LJ          0.504399        -2.25929         1.74839
LJ          -0.14268       0.0841108         1.62857
LJ         -0.903461       -0.766104         1.37907
LJ         -0.593666        0.380994        -1.65502
LJ             1.731        0.851149         0.42886
LJ          0.559166       -0.808475      0.00845827
LJ          -1.78885         1.72461        -2.25518
LJ          -1.27552        0.270289          1.3652
LJ          -1.67909        -1.03698        0.168344
LJ         -0.966409         1.33514        -1.69865
LJ          0.389969         2.12311        -0.36608
LJ         -0.754122         1.94734         1.74923
LJ          0.437324         1.02893         1.91267
LJ          0.959588        0.295733         1.46949
LJ        -0.0902862       -0.926477         2.04783
LJ          -2.16013        0.597454      -0.0587618
LJ         -0.789304       -0.660533      -0.0401592
LJ         -0.689685         1.94029       0.0960291
LJ          -2.33131         1.64468          1.3993
LJ          -1.39461       0.0863597        0.290357
LJ          -1.43807         2.30147        -1.13471
LJ           1.53878        0.419937       -0.444201
LJ          -0.45273        -2.33805        0.902307
LJ          -2.19851       -0.790108        -1.41126
LJ           1.46585        -2.15976        0.436327
LJ          -1.45021       -0.441108       -0.773145
LJ         -0.933457      0.00478845         2.20921
LJ           1.26293        0.601211         2.30744
LJ          0.582016         1.03101        -1.87963
LJ          -1.54498        0.433177        -1.37093
LJ          -2.31972         -2.1548       -0.427989
LJ          -1.12773         1.08958        0.533322
LJ        -0.0231029        -1.61279        -0.13223
LJ          -0.64991          1.0007         2.17231
LJ         -0.621745         1.81839       -0.875363
LJ          -2.07562         0.76958        0.888219
LJ        -0.0309628       -0.639935       -0.892535
LJ            1.8265       -0.210931         2.06353
LJ         -0.763976        -1.91205       -0.773335
LJ           1.12865       -0.433676       -0.851514
LJ          -1.78044         1.75693       -0.285048
LJ           2.00269         2.14959          2.2186
LJ         -0.923702        -1.51566        0.695803
LJ          -1.34272       -0.482734        -1.77644
LJ         -0.245084         1.26633          1.1787
LJ          -0.45173        0.164161        0.730573
