108
#Comment!
LJ         -0.611771        -1.65089         1.04401
LJ          0.950653       0.0275867         -1.4618
LJ           1.02974        0.722194         1.61543
LJ         -0.540499        0.944481       -0.892357
LJ          -1.18183       -0.190673        -1.74096
LJ          0.944934         2.19902        0.335204
LJ           2.19252        -2.13485        -1.28304
LJ          -2.34953        0.903887        -1.99344
LJ           1.81118         2.02287        0.729018
LJ          0.158711        -1.98516       -0.156043
LJ           1.38204         1.89517        -1.73279
LJ           2.15497         1.63967       -0.993975
LJ          0.471725       -0.243454        0.202121
LJ          -1.47424       -0.428793        0.341205
LJ         -0.932439        -1.23989       0.0470082
LJ         -0.922066         1.31894         1.05605
LJ          -1.83043         1.41362         1.81141
LJ          -2.25411         -1.2169         0.22499
LJ          -1.82776        -1.66719       -0.810155
LJ         -0.523365        -1.28675        -1.86922
LJ         -0.947205        0.273328        0.808499
LJ          -0.40621         1.93091       -0.438141
LJ           1.68746       -0.595812         1.21675
LJ          0.833271         1.51633         1.04613
LJ         -0.125822        -1.01426       -0.364833
LJ           -1.3147         1.65342       0.0813277
LJ          -1.95074         1.68584        0.845396
LJ          0.663256        -0.96277        -2.13179
LJ           -1.7031        -2.09804        0.149524
LJ           1.52606       -0.704912         0.16546
LJ          -1.45747         -2.2016         1.21362
LJ         -0.491532         1.00775          0.2026
LJ        0.00973744         1.31949         1.53616
LJ          -0.86074        -1.90453       -0.769405
LJ          -2.12549       -0.487432       -0.542845
LJ           1.38356         1.13584        0.130872
LJ         -0.575869         2.06593         1.65118
LJ           -1.3385         1.09631        -2.14138
LJ          0.620949        -1.20153        0.258828
LJ           0.10743         1.56535        -1.35454
LJ           1.91989        -2.17013        -2.21731
LJ             2.276         2.24407         1.56684
LJ          0.889387       -0.208322         1.98078
LJ          0.435395         1.43996      -0.0711183
LJ          -2.11905      -0.0776161        -1.71231
LJ          0.264205        -1.37868        -1.26763
LJ         -0.270098       -0.525917         0.80817
LJ           1.34198        0.285781       -0.475263
LJ           1.73631       -0.468563        -2.32201
LJ        -0.0617584        0.254668         1.43537
LJ          0.293335         0.65387        0.657141
LJ          0.571258         2.32526       -0.963488
LJ           1.76497       -0.392345        -1.15734
LJ         -0.909929         1.67278        -1.43645
LJ          -1.94604         1.84395        -1.89067
LJ         -0.175696         1.93628        0.780912
LJ          -1.01871        0.554218         1.83164
LJ          -1.15701       0.0785644       -0.786526
LJ          -1.51339        0.610675       0.0356902
LJ          -1.53487        -1.31081         -1.9342
LJ         -0.797343        -0.43398         2.11323
LJ         -0.872113        -1.79323         2.04375
LJ        -0.0310852       -0.390971        -1.15613
LJ           2.36586        -1.46166         1.37088
LJ           1.22824        0.202708        0.788768
LJ           1.31229         1.91292       -0.506807
LJ          0.708394       -0.684644         1.07128
LJ          0.497094        -1.60059         1.18135
LJ         -0.504307         1.51225        -2.32846
LJ           2.32111        0.649802       -0.521637
LJ          0.846423       -0.727415       -0.708779
LJ           1.34344        -1.43445         2.07807
LJ           2.34148         1.69348      -0.0224477
LJ          -1.32322         -2.1827        -1.61538
LJ           -1.9111         0.20983         2.12248
LJ         -0.122481        -1.05099         1.78416
LJ           1.71247        0.783513        -1.29216
LJ         -0.575522       -0.152629       -0.056393
LJ           2.34176        0.073921        0.250201
LJ          -0.76922        -2.20899        0.255863
LJ          0.286357        -2.13682         1.96374
LJ          0.760867        -1.98059        -1.92421
LJ         -0.472081        0.617736        -1.82102
LJ          -1.81436          1.0859        -1.13093
LJ           1.20547        -2.29599         1.69138
LJ          0.207815        0.401978        -0.48003
LJ           1.12051        -1.78971       -0.416989
LJ         0.0541994       -0.191445        -2.15381
LJ           -2.0751       -0.291294         1.15506
LJ         -0.394322        -2.26247        -1.86154
LJ           1.50482        -1.67505        0.685155
LJ           1.67477         1.46742         2.04166
LJ           1.87829         1.05603         0.97658
LJ          0.885699         1.07504       -0.827125
LJ          0.481609        0.708566        -2.27476
LJ          -1.80001        -2.17035          2.2142
LJ           1.42602        0.498943        -2.23059
LJ          -1.61131         2.08596       -0.779297
LJ           2.26976        -1.09884        -1.75889
LJ           -1.5102        -1.17712         1.01065
LJ          -1.88052        0.661341         1.01349
LJ          -1.73533       -0.825839         1.96882
LJ           2.02823        -2.13871       -0.184027
LJ            1.9668        0.361866          1.7031
LJ           1.95716        -1.18726       -0.578788
LJ          0.633896         1.70716         2.38094
LJ          -1.08003         -0.9942        -1.04755
LJ           1.32479        -1.35631        -1.39517
