108
#Comment!
LJ           2.09007         2.29275        -1.43724
LJ           -1.5054       -0.130353        -1.96769
LJ          0.154759        0.406027        -0.87129
LJ           1.33391         2.27094       -0.678268
LJ           1.85551        -1.35225        -2.36857
LJ           1.55256       -0.658415       0.0418797
LJ          -0.26077        0.293207        0.624544
LJ           1.68767         1.42478        -1.66484
LJ         0.0972023         1.77521        -2.06302
LJ          0.141681       -0.799573         1.07683
LJ           1.08594        -1.33536       -0.534243
LJ          -2.28297         1.98091         1.44102
LJ          0.836488          -2.254         0.21902
LJ          -2.27389       -0.249621       -0.351763
LJ           1.32855         1.41212         1.19308
LJ          -1.07859        -1.06982         -1.6708
LJ         -0.476807        0.981339         1.49818
LJ         -0.372046        -2.24089     -0.00239336
LJ        -0.0779555         1.21589      -0.0828656
LJ         -0.581969      -0.0465417        -1.36791
LJ         -0.811674         1.45243         2.29031
LJ          -1.44639        -0.94427        -0.75187
LJ          0.222811         1.69934         1.63106
LJ            1.0016         2.20874        -1.67559
LJ          -0.82795        -1.99522         0.98624
LJ           1.77579        0.153932        0.536411
LJ           1.05261        -2.31989         1.24658
LJ         -0.325281      -0.0679858         1.56345
LJ           2.20472        0.973413         1.11664
LJ          -2.07293         1.53658        -2.06111
LJ           1.58292       -0.594911        -1.12527
LJ          0.461619        0.827043         1.04468
LJ          0.579348        -2.21619         2.19586
LJ           1.00206        -1.21259         1.80588
LJ           1.78785       -0.647329          1.6453
LJ          0.203608        0.120651        -2.04429
LJ          -1.95726        -1.53259        -1.85163
LJ         -0.829698        0.429142         2.31307
LJ           1.90115         2.25254        0.569677
LJ          -2.18967       -0.583549        -1.38286
LJ           1.07756        0.249214       -0.281986
LJ          -1.46034         1.92174       -0.230569
LJ          -1.27163       -0.108234        0.848937
LJ          -1.74595         -2.0049        -0.89932
LJ          -2.06916       -0.861814          2.2334
LJ         -0.300168         0.93103        -1.76847
LJ          -1.87979        0.789186         2.14064
LJ          -1.14384         2.34131        -2.06513
LJ          -2.09249       -0.226094         1.45357
LJ          -2.14519        0.653874        0.292598
LJ           1.88383         1.34059        0.276635
LJ           1.86167        0.291304       -0.829472
LJ          0.258244        -1.39874       0.0951213
LJ          -2.26991        0.543655        -1.71295
LJ           2.11449         1.43293       -0.755043
LJ          0.584508       -0.590551       -0.966829
LJ           1.05297         1.62672         2.29358
LJ         -0.700541        -1.03561        0.439866
LJ           2.03156         -1.5334        0.308083
LJ          -1.91341        -2.09378        0.878486
LJ          0.122587         -1.8055         1.08649
LJ          0.623178       -0.253664         1.84229
LJ           -2.3396        -1.24922       -0.587319
LJ           1.11838         -1.2899        0.668249
LJ           0.90015         1.49113        0.159223
LJ          -1.62725       -0.874702        0.226913
LJ         -0.224455        -2.04183        -1.73942
LJ           0.35961        0.843719         2.09677
LJ          -1.82159          1.6033        0.668696
LJ          0.678604         1.06502        -1.67271
LJ          -1.65421        -1.71082         1.77508
LJ          -1.03799       -0.959946         1.37385
LJ          -1.01633         0.84845         0.27777
LJ         -0.715764        -1.92707       -0.864704
LJ         -0.814754       -0.553551         2.26904
LJ         -0.647713         1.78997       -0.765554
LJ          0.371093         1.69464       -0.954792
LJ          -1.72015         1.04389       -0.579937
LJ            2.1294       0.0305607         2.29101
LJ           0.77906        -1.45662        -1.77376
LJ          0.131839         1.85285        0.602142
LJ           0.81777       -0.067428        0.647495
LJ           -1.5072        0.111871       -0.949265
LJ           1.38777        0.322254         1.43901
LJ           1.75975        -1.51444        -1.40163
LJ            2.2265        -2.27473       -0.365886
LJ          -1.44214        -1.87651        0.014339
LJ           1.31472       -0.451227        -2.27095
LJ          0.346432        -1.95017       -0.725086
LJ         -0.799576        0.804819       -0.858618
LJ           1.51594        -2.31601         2.17109
LJ          -1.31073        0.986825        -1.68327
LJ            2.1621        -1.57359         1.36473
LJ          -1.28669          1.9746          1.5338
LJ         -0.521807         -2.3231         1.92217
LJ           1.33522        0.609104         -2.2776
LJ           1.15045         1.16547       -0.800711
LJ         -0.830742         1.80193        0.690372
LJ        -0.0221551       -0.868607        -1.63493
LJ          0.139107       -0.349616      -0.0940267
LJ          -1.51381         1.87055        -1.32633
LJ           2.28276       -0.695297        0.708399
LJ          -1.54198        0.848947         1.24471
LJ          -2.27174        -2.31498         2.31584
LJ         -0.168703        -1.39995         2.07119
LJ         -0.980423       -0.194368       -0.160049
LJ           1.92329         1.27265         2.02753
LJ         -0.451474       -0.960027       -0.795569
