108
#Comment!
LJ          -1.71555         1.39656         -2.2523
LJ           2.24185        0.104008        -1.98858
LJ        -0.0334079       -0.762273        0.657322
LJ            1.4519       -0.782256       -0.105068
LJ          -2.17718        -1.99771         1.32589
LJ           1.41471        -2.32838         1.38115
LJ           2.12219         1.00273       -0.640963
LJ          -1.45989         2.36896           1.878
LJ         -0.759217         1.67786         1.57615
LJ           1.69556        -2.06033        0.129296
LJ          0.195925       -0.732946        -2.32165
LJ         -0.236012         1.71189        -2.06539
LJ           2.27509        0.134815       -0.182422
LJ          -1.54913        0.314214        0.220978
LJ          -1.91276        0.193679         1.27867
LJ          0.233006         0.22425         1.68298
LJ            0.7924         1.37896        0.200314
LJ         -0.157408         1.95869       -0.163738
LJ           2.13819         1.04285        -2.27518
LJ            1.1015         1.39972       -0.926985
LJ          0.488254       -0.106162       -0.327554
LJ         -0.824846        0.886966         2.27605
LJ          -2.30667        -1.54524         2.22247
LJ         -0.229237        0.989922        -1.42237
LJ         -0.851172        -2.17941        -2.04813
LJ           2.23383         2.06319        0.701224
LJ           2.23604         2.09126         2.00651
LJ           1.93286        0.171204         1.79506
LJ          -2.22151       -0.570172        -1.09803
LJ          -1.94568         1.35655        -1.17892
LJ           1.40627         2.34893       -0.780219
LJ           1.95636         1.18393         1.55249
LJ           0.25992        0.208472        -2.04695
LJ           1.45929         -1.3203         1.63314
LJ          0.908329       -0.365826        0.675235
LJ         -0.209507        -1.73375        0.574391
LJ           0.66533        0.505614        -1.12238
LJ         -0.297768       0.0701775       -0.957846
LJ           1.96566        -1.19486        0.817586
LJ           1.25729       -0.279979        -1.98278
LJ          -1.46915       -0.565621        -1.93983
LJ          0.671911        -2.25428       0.0244736
LJ           1.16718        0.468532         1.37466
LJ            0.4767        -1.84395        -0.92891
LJ           1.64962        0.624168        -1.42044
LJ            1.9476        -1.10539        -1.71718
LJ           1.42834       -0.192063       -0.895355
LJ          -1.94935       -0.658865        0.827979
LJ          0.493009         1.20202         1.89409
LJ         -0.457167        0.216297        0.118174
LJ          -1.83867         1.48385         1.50598
LJ          -1.02204        0.617303       -0.634735
LJ          -0.60759       -0.176853         2.37371
LJ         -0.816072        -1.20092        -1.58431
LJ          -1.81741        -1.72292        0.402452
LJ             1.695         1.70395      -0.0859345
LJ           1.43649        -2.11227         2.35055
LJ         -0.597293        -2.08875         1.48104
LJ           1.13407        0.622989         2.35453
LJ          -1.02546        -1.21487        0.171381
LJ          0.412323         2.34485         2.09862
LJ          -1.19139         1.16529        0.690308
LJ          -1.91139        0.378204         -1.1957
LJ          0.703869        -1.46149        0.899704
LJ           1.86418       -0.123776        0.790368
LJ          -1.56199        -1.40586       -0.735005
LJ         -0.598351       -0.780657         1.58597
LJ           1.73044        0.804725        0.571489
LJ           2.13291        -2.02289        -1.36632
LJ          -1.91918         2.33205        -1.93684
LJ          -1.26408        -1.44822          1.2232
LJ          -1.77137       -0.609857       -0.144364
LJ          -1.00738       -0.321326        0.787939
LJ          0.391239       -0.874357        -1.26066
LJ          0.685875         1.27084        -1.80477
LJ         -0.439035        -1.21551       -0.635098
LJ          0.139398         1.88799        -1.10058
LJ            2.2344        -1.29627        -0.19856
LJ          -1.78636        -1.47138        -1.68479
LJ          0.859733       -0.547846         1.73963
LJ           1.21434        0.517862       -0.285476
LJ         -0.244554         1.48856        0.764991
LJ          -1.41197        -2.33467         -1.1194
LJ           1.10726         1.53757         1.07134
LJ           1.39651        -1.41011       -0.937282
LJ           0.43367         -1.2878      -0.0970684
LJ          -1.07426         1.54776        -1.54089
LJ            1.8659         1.83582        -1.67392
LJ           -1.4958       -0.466054         1.77779
LJ          0.513445        0.504827        0.605496
LJ           2.30996       -0.714752         1.72168
LJ          0.148126         1.05994       -0.494818
LJ           1.38083          1.6711         2.20809
LJ          -1.36247         2.21269        0.603284
LJ         -0.788001        -2.07989       -0.377244
LJ          0.898562          2.2038        -1.72114
LJ          -2.13787         2.08268       -0.419233
LJ          0.275923         2.30995         1.15762
LJ           0.16709        -1.44087           1.765
LJ          -1.07197       -0.469466       -0.825138
LJ         0.0416026        -1.75731         -1.8411
LJ           1.01497        -1.26571        -2.20852
LJ          -1.22274         1.51861       -0.264368
LJ          -1.01794        -1.38676         2.21099
LJ          -1.03478        0.313785        -1.59184
LJ         -0.643746        0.393072         1.32063
LJ          -1.70988        0.433754         2.25319
LJ          -2.07208           1.193         0.21406
