108
#Comment!
LJ          0.703773         2.18039      -0.0493112
LJ          0.377428        -1.82091        -2.33053
LJ          -2.19955         2.31297       -0.691508
LJ         -0.548047       -0.925579        0.771978
LJ            1.6141         1.67831          1.3497
LJ           1.49641        -1.79415       0.0664471
LJ           1.44765       -0.114885       -0.874632
LJ          -1.08868        -1.76565         1.16823
LJ           1.68034        -1.47723        -1.87825
LJ          -1.39545        -1.05732        -1.24547
LJ           -2.2773        -1.73355        0.053321
LJ          -2.02797        -0.26818        -2.10791
LJ          -2.32505        0.148732       -0.955633
LJ           1.65774        0.858735        -1.14144
LJ          -2.12387         1.91782         1.24746
LJ         -0.487929        0.395901       -0.493088
LJ           0.80451         1.70502        0.817431
LJ          0.910318      -0.0221542      -0.0261142
LJ          0.048079          1.2974       -0.401522
LJ         -0.199244         2.24736       -0.550265
LJ          0.443638        -1.57502       -0.450063
LJ         -0.507831       -0.444404        -1.11801
LJ           1.87013          1.3214        0.410081
LJ           1.69529          2.0333       -0.378057
LJ         -0.305381       -0.444787         1.86668
LJ          -2.06171         2.12885         2.29771
LJ          -1.43759         1.64635       -0.549395
LJ           -1.3898       -0.640196         1.68452
LJ          -1.05278       -0.685395        -2.12396
LJ          -2.32228         1.08171       -0.579511
LJ           1.06147        -1.57034           1.751
LJ         -0.112426         1.67804        0.504092
LJ          -1.17373         1.96315        0.603883
LJ         -0.814032         1.14707        0.125236
LJ           1.72016        0.616171         1.39167
LJ         -0.501299         -1.3547       -0.726879
LJ           1.34606        -2.07731        -1.04548
LJ           1.22359        -2.29847        -2.12809
LJ          -2.11847         2.05057        0.328975
LJ       -0.00579835        0.977488         -2.1773
LJ         -0.169311          -1.074        -1.95306
LJ         -0.083724         -1.7704        0.389668
LJ         -0.487296        -2.33163         2.34769
LJ          0.436491         1.81786        -2.03725
LJ         -0.923331       0.0344571        0.655025
LJ          0.360167        -2.18867        -1.30924
LJ          0.727262       -0.686401         2.25112
LJ           1.97403        -1.04571        0.657528
LJ         -0.723857        0.326762        -2.00254
LJ          -1.10009        -2.20826       -0.736146
LJ          -1.22185        -1.69014       0.0756551
LJ          -1.90923         1.55904        -1.47118
LJ         0.0133664         0.62175        0.381017
LJ          -1.39687      -0.0742141        -1.33014
LJ         -0.957768        0.924781        -1.22377
LJ          -1.88811         1.05881        0.443136
LJ         -0.235929         1.62796        -1.34108
LJ            1.7561       -0.165935         2.18328
LJ          -2.15471        -1.49593       -0.872924
LJ          0.943663          1.5661        -1.05744
LJ           0.58462         2.16438         1.75175
LJ         -0.577356        -1.41341         1.93498
LJ            2.2387         1.31048         2.04483
LJ          -1.21545         2.14025         1.61876
LJ            1.9535        -1.13892          1.9716
LJ          -0.24347         1.54195         1.83491
LJ         -0.104692       -0.424786     -0.00569189
LJ           2.13982        -2.30586         -1.6041
LJ          -1.49376        0.499974       -0.368336
LJ             1.611      -0.0773347        0.600521
LJ          -2.36738       -0.305038         1.36774
LJ           1.87438        0.443655       -0.172031
LJ         -0.970255          1.3104        -2.21607
LJ           1.12382       -0.708907         1.20804
LJ           1.91267        -2.17973         1.83506
LJ           1.78158         1.47087        -1.85728
LJ          -1.92705        0.815416         1.41717
LJ          0.747017        -1.27119        -1.56863
LJ          -1.75393        0.647104        -2.18991
LJ          0.942084        -2.08241        0.881886
LJ          -1.12988        0.306111         1.84047
LJ          0.836073         0.23516         1.89157
LJ           -1.5274        -1.81857         2.07202
LJ          0.883856        0.700421        -1.73851
LJ           1.11925         1.06752        -0.20915
LJ         -0.979399         1.13668         1.08813
LJ           1.92404        -2.24258        0.801254
LJ          0.840628         0.51166        0.951546
LJ           1.51123        -1.09483        -0.75714
LJ         -0.126979        -2.05237         1.37981
LJ          0.600951       -0.640574       -0.742255
LJ          -1.23528       -0.533462        -0.41172
LJ          -2.21897        -1.59981         1.27636
LJ          -1.75374       -0.927492        0.683718
LJ          -1.99891       0.0336694        0.353662
LJ           2.37327       -0.609985       -0.366747
LJ          -2.09198        -1.48133        -1.96716
LJ           1.00243       -0.954379        0.181146
LJ           1.24021        -0.28123         -1.7694
LJ          -1.41833        -2.30623        -1.69164
LJ        -0.0507288        0.517788         1.71631
LJ           2.12578         -0.7077        -1.35957
LJ          0.434643         0.48607       -0.814568
LJ          0.168031       -0.162529        0.995959
LJ          0.262583      -0.0515024        -1.89189
LJ           2.01488        0.512081        -2.01979
LJ           1.11328          1.2423         2.14319
LJ          0.293334        -1.22667         1.27085
