108
#Comment!
LJ           1.14147       -0.888967       -0.944665
LJ         -0.889028         1.38534         2.15422
LJ           0.42184         -1.8771        -2.14109
LJ         -0.258261       -0.908191        -2.24313
LJ           2.21372       -0.154516         1.00751
LJ          0.816699        -1.35949       -0.152731
LJ            2.1699        -2.14314        0.086333
LJ           2.10762        -2.29491         2.17243
LJ          0.833608         1.53087         2.25576
LJ           2.28077         1.20975        -1.36443
LJ          -1.09887        0.378569         1.39356
LJ           -1.7419         0.73368       -0.882479
LJ          -1.82504        -1.03444        0.484013
LJ           0.21681         2.33334        0.550129
LJ          -2.25185        -1.54636        -1.90949
LJ           1.12383        0.194053       -0.657525
LJ         -0.255241        0.423585        -2.06654
LJ           1.48061        -1.05847        -2.00938
LJ         -0.469795        -2.34036         1.30913
LJ          0.207665          1.1671        -1.06218
LJ         -0.406359        0.174572        0.682372
LJ           2.08076         -1.0539         1.65526
LJ          -1.02781      -0.0957523       -0.503758
LJ           1.63356         1.11243       -0.449822
LJ          0.265453        -1.45035        0.640701
LJ          -1.96462         1.23008         1.97248
LJ           2.36559        -0.80962        -1.13971
LJ           1.83759         1.05181         2.06965
LJ        -0.0534164       -0.437943         1.66954
LJ           1.85075        -1.09504        0.687644
LJ         -0.660886        -1.74659        0.499884
LJ          -1.44442        -2.10554         1.90354
LJ         -0.187931        0.570566         1.70624
LJ          -2.24319       -0.655119        -2.36781
LJ          0.727493         1.12154       -0.129937
LJ          0.990919        -2.29118        0.010502
LJ          0.228898        0.204977        -1.23965
LJ         -0.110587        -1.72781       -0.329098
LJ          0.020831         0.44133       -0.275785
LJ          0.500428       -0.731278        -1.65708
LJ         -0.833678         -1.4089         1.48636
LJ           1.91043         -1.1241       -0.294367
LJ           1.27967         2.05204       -0.931581
LJ            1.2484        0.784573         1.26994
LJ           1.14795        -1.32965         1.41405
LJ           1.79921         1.82304         1.34565
LJ          -0.15978         2.08596         2.24473
LJ         -0.594482       -0.287025        -1.41711
LJ          0.203734         1.91566       -0.436156
LJ           -1.0762         1.62861         1.23548
LJ           1.74095        0.525129         0.30473
LJ         -0.860456       -0.889694       0.0267111
LJ         -0.557197        -1.85138        -2.18938
LJ          -2.25477         1.16299        0.114982
LJ           -2.2498        -1.78778         1.08329
LJ          0.460623       -0.558918        0.338943
LJ          -1.11244        -1.80139       -0.637791
LJ           1.38051       -0.366783        0.150449
LJ           1.49598        -2.17468        0.881359
LJ         -0.737058         1.97727        0.415885
LJ           1.13111       -0.269322          1.1773
LJ           2.14592        0.189858       -0.980756
LJ          -1.26506        -1.07918         2.35259
LJ          0.880953         1.63758        0.883811
LJ          -1.62927        -2.01982        0.217869
LJ          -2.10466        -1.86597       -0.771508
LJ          -1.31238        -2.09826        -1.56425
LJ          -1.48186       -0.021336        0.399895
LJ         -0.729567         1.06811       -0.249557
LJ           1.72238        -1.65073        -1.05758
LJ          -1.36101        0.935646        0.591961
LJ          0.858404       -0.661584         2.15309
LJ          0.692458        0.430264        0.516874
LJ           1.72192      -0.0998208         1.97344
LJ          -1.07662      -0.0935332         2.31244
LJ         0.0501504          1.4836         1.48563
LJ           1.30064         1.20826        -1.68391
LJ           1.38253         2.21389        -1.87856
LJ            1.6554         1.79409        0.257665
LJ          -1.39514        -1.13195         -1.4207
LJ           -1.7469        -0.90742         1.46294
LJ         -0.941616       -0.633476        0.970056
LJ          -1.95058        0.151244         1.81723
LJ          -2.36298       -0.269895      -0.0371258
LJ         -0.484996        -1.38151        -1.32354
LJ          0.191052        -1.46114           1.655
LJ         -0.459614         1.58772        -1.68847
LJ          0.723647        -2.36859         1.46761
LJ           -1.5674         1.81207       -0.162186
LJ         -0.377056        -2.34463        -1.09856
LJ           2.30899         1.96402       -0.618044
LJ          0.449842        -1.69252        -1.15609
LJ           2.20208        0.412361        -2.09752
LJ          -1.72074       -0.905292        -0.47273
LJ          -1.61401       -0.175393        -1.29041
LJ            2.2905        0.898745         1.08632
LJ           -1.6026         1.87095        -2.15458
LJ         -0.731157        0.732359        -1.22772
LJ         0.0400928       -0.768355       -0.759847
LJ          -1.36924        0.679002        -2.00367
LJ           2.32111         2.16227        -1.61319
LJ          -1.24864         1.69607        -1.05868
LJ           1.27592        0.054637        -1.70894
LJ          0.466834         2.01374        -1.48407
LJ          0.687302        0.534866         2.21632
LJ         -0.122299         1.17282         0.52812
LJ          -1.96141         1.80628        0.808364
LJ           1.25856        -1.86642         2.22003
