108
#Comment!
LJ          -1.62484         1.87968        -2.25108
LJ          -0.81711         2.09241         1.93853
LJ           1.91843      -0.0764694         1.70385
LJ           1.74929       -0.719351       0.0823806
LJ          -2.27046        -1.54802       -0.627748
LJ         -0.200359         1.87026       -0.233805
LJ           2.27692       0.0436725        -2.15637
LJ          -1.89764        -2.11957         1.27043
LJ          -1.57149         1.57961        0.155231
LJ           1.63371        -2.01528       -0.589943
LJ          0.854039         1.38322         2.05994
LJ         -0.976527        -2.03789        -1.90352
LJ           2.05521        0.834758        0.863023
LJ          -1.80318          1.6893         -1.0463
LJ           2.06405         1.83809        0.538752
LJ          0.144498       -0.325484         1.33341
LJ           1.16014        -2.28728        0.294175
LJ          -2.08188        -2.38017       -0.105401
LJ          -1.80003       -0.533507         2.15698
LJ          -1.30349        0.929897         -1.8196
LJ         -0.175368        -1.17358       -0.361221
LJ        -0.0719773          1.1414        -2.13937
LJ           2.19444         2.09188         2.11947
LJ           1.05035         1.33765        -1.65035
LJ           1.79308       -0.877279         1.13674
LJ          -1.63852        0.604982         0.26415
LJ          0.784673         2.28802          1.2175
LJ          -1.55059       -0.496166        0.870876
LJ           2.10366       -0.864146        -1.79009
LJ           1.24136         1.32237       -0.603425
LJ         -0.925696         1.36782       -0.615133
LJ          0.494987         1.63086        0.427684
LJ         -0.204143        0.491641         1.75447
LJ            1.0542        -1.43564        0.879448
LJ           1.22579       -0.127777        0.993762
LJ         0.0569305        -1.32289          1.1265
LJ         -0.255273          2.3736          1.0394
LJ          0.457251       -0.667821        -1.25632
LJ           2.15028        -1.66987        0.372356
LJ         0.0533221       -0.647659         2.30858
LJ           1.05615        -1.07654         -1.9966
LJ          0.791774        -1.56248          -1.195
LJ         -0.707094         1.72741        -1.66233
LJ          0.241182         1.48788         -1.1888
LJ             1.419       -0.235897         -1.5119
LJ          -0.45487        0.635526        -1.26989
LJ           1.61656        -1.01021       -0.892915
LJ           2.03733        0.518902       -0.105157
LJ          0.685242        -2.30491        -1.83889
LJ           0.67169        0.538033        -1.18971
LJ          -1.98944         1.59487          1.3136
LJ          0.873474        0.425054         1.73967
LJ          -1.24006         1.09512         1.98781
LJ         -0.987742        -1.02613        -2.24116
LJ          -1.30997        -1.40814       -0.210187
LJ           1.83523         1.81191        -1.26629
LJ          -2.26442         1.27257        -1.84052
LJ          0.109725        -1.94356        0.097263
LJ           1.08249       -0.640642         1.82978
LJ         -0.713299       -0.762258         1.55274
LJ           1.29588        -2.30234         2.11982
LJ         -0.863488        0.347612       -0.276505
LJ           1.85879        0.616017        -1.16185
LJ          0.976292        -1.45893       -0.191967
LJ          -2.28284        0.771868         1.97077
LJ          -1.60058     -0.00696274        -1.72983
LJ          -1.14634         0.10693         1.79474
LJ          0.147286        0.315579        0.324561
LJ          -1.36435        -2.15104       -0.771666
LJ          -1.75513       -0.982426        -1.41316
LJ         -0.964817        -2.19563        0.180931
LJ           2.25733         1.48581       -0.379594
LJ          -1.74593        0.609606       -0.857337
LJ        -0.0848037        -1.43841         -1.8561
LJ           1.07128        0.859009        0.831781
LJ          0.118817          2.0818         2.29138
LJ           1.59809        0.848005        -2.32706
LJ          -1.97631       -0.816486      0.00993338
LJ           2.30111       -0.316255       -0.706761
LJ          0.642346        -1.49935         1.91585
LJ          0.514694       -0.678003        0.502114
LJ        -0.0241645         1.50689          1.4534
LJ         -0.577141        0.297249        -2.17522
LJ           1.03878        0.475025       -0.156914
LJ          0.713232         2.36844       -0.703946
LJ           1.56771        -2.02118        -1.63011
LJ         -0.144399        -2.21333        -1.18195
LJ          -2.08471        -2.08485        -1.59605
LJ         -0.777067       -0.709356        0.267888
LJ        -0.0127666      -0.0652229       -0.677791
LJ           1.92481        -1.43356         2.01762
LJ         -0.041661        0.902063       -0.463599
LJ         -0.538563          1.3827        0.515867
LJ         -0.498201       -0.392941        -1.48912
LJ         -0.763531        -1.31197        -1.17887
LJ           1.68647         1.39994         1.60462
LJ           1.86016        -2.08335         1.23265
LJ          -1.17141         1.97896        0.990049
LJ         -0.555973        -1.70252         1.85517
LJ          -1.25094       -0.544375       -0.648791
LJ          -1.53738        -1.77914         2.16029
LJ          0.406623        0.231723        -2.14011
LJ           2.34712      -0.0750083        0.682921
LJ          -1.14728        -1.48449         0.94611
LJ          0.958466       -0.433462       -0.471395
LJ          -1.65934        0.665214         1.19825
LJ          -2.02204        -1.19365         1.32889
LJ         -0.634848       0.0901018        0.885758
