108
#Comment!
LJ            1.0219        -1.28703         -0.8114
LJ          -1.42696         1.05594        -1.82568
LJ         -0.458916        -0.65841        -2.23878
LJ          -1.36508        0.440939         1.58821
LJ           1.08628      0.00832604         1.26878
LJ       -0.00454311        -1.30133       -0.590165
LJ          -1.78084        -1.80379      -0.0772611
LJ          -2.28143         2.35143         1.93575
LJ         -0.745967         1.22949         1.14255
LJ           1.99225         1.51562         2.20955
LJ          -1.53039         1.59631          2.1156
LJ          -2.04601        0.374132       -0.944196
LJ           2.30321        -1.15307        0.347855
LJ         -0.716727         2.36869        0.886629
LJ          -1.20033        -1.83513         1.60862
LJ          0.616035         1.38149        0.174495
LJ          0.578266        0.664961        -1.74908
LJ           2.01969         -1.1164           2.348
LJ         -0.101594        -1.98272         1.56586
LJ          0.348895         1.62547        -0.82787
LJ         -0.625281        0.433042        0.391492
LJ           1.82234       -0.979848         1.17791
LJ          -1.33787        0.230882       -0.186422
LJ           1.82302         2.28836       -0.259379
LJ          0.440648       -0.715059         1.20506
LJ           1.94278         1.75271         1.19516
LJ           1.70632        -1.04132        -1.48929
LJ           1.10511        0.934946         2.10374
LJ         -0.421865       -0.109557         1.53074
LJ           1.01689       -0.775495         0.40663
LJ          -1.02377        0.320823        -1.08567
LJ          -2.20838         1.93073        -1.88669
LJ          0.144198        0.556977        0.977743
LJ          -1.62357       0.0790513        -1.98921
LJ          0.691586        -2.24352      0.00628883
LJ          0.114287        -1.48392        0.493418
LJ         0.0811317       -0.148835        -1.37766
LJ          -1.16543        -1.68899         -1.1997
LJ         0.0692707       -0.254145        0.378086
LJ         -0.873273       -0.729181        -1.34038
LJ            -1.745         2.26336        0.947961
LJ           1.73232        -0.69542       -0.474897
LJ           1.29376         1.59943       -0.496821
LJ           1.03793         1.37633         1.28367
LJ           1.12987       -0.964112         1.91911
LJ           1.00122         2.18341         1.95044
LJ         -0.663187         2.06267         2.12157
LJ         -0.534997        0.251893        -2.04638
LJ           0.75574        -2.26512         -0.9933
LJ         -0.472509        -1.08123          1.2789
LJ           1.57914         1.02987        0.310582
LJ         -0.166858        0.634438       -0.550949
LJ        -0.0742125        -1.86591        -1.44626
LJ          -2.15968          1.7629        0.185541
LJ          -1.28845        -1.33031        0.719322
LJ          0.744277       -0.343931       -0.584955
LJ          -2.21019       -0.261348       -0.126605
LJ           1.80199       -0.211813        0.520367
LJ          0.858337        -1.60474         1.24341
LJ         -0.691147        -1.83597       0.0635711
LJ          0.434584       -0.233618         2.22719
LJ          0.788497        0.759693       -0.710564
LJ         -0.238655          2.3351        -0.59435
LJ           0.11899         1.84068        0.952807
LJ          -1.20032       -0.967775       -0.423915
LJ           2.00472        -1.65081       -0.789945
LJ          -1.84743        -2.32629       -0.935337
LJ          -2.06617         0.44371         0.82361
LJ         -0.395366       -0.348866       -0.509531
LJ           1.38133        -1.60161       0.0847426
LJ          -1.95235         1.38304         1.21335
LJ          0.805044       -0.717587        -1.72803
LJ          0.967616        0.312932        0.301848
LJ           1.44128       -0.146275         2.35059
LJ          -0.73223         1.03216         2.10857
LJ          -1.41224         1.14256        0.358153
LJ           1.30913        0.159206        -1.33928
LJ          0.554067         1.93175        -1.96907
LJ           1.14192          2.2723        0.842852
LJ          -2.12076        -1.49377         1.52882
LJ          -1.86966        -0.53035        0.761841
LJ          -0.86764       -0.469964        0.523717
LJ           -2.1543       -0.320066         1.73274
LJ           -2.2559        0.914714       -0.159115
LJ         -0.701773        -1.60282        -2.33265
LJ           -1.2493       -0.801104         1.71673
LJ          -1.15733         1.32552       -0.724633
LJ          0.286909         1.53374         1.86674
LJ          -1.17383          2.0671      -0.0372214
LJ          0.342854         -1.4489         2.32343
LJ           1.72888        -2.35218          -1.402
LJ           1.22903        -1.77012        -2.06095
LJ           1.78697         0.34931       -0.491831
LJ          -2.11491       -0.918874        -1.02535
LJ         -0.994482         2.08555        -1.35069
LJ           1.78998         0.68793         1.37115
LJ          -2.22248        0.691783          2.0185
LJ           1.31436         1.33811        -1.58097
LJ          -1.85638       -0.954558        -1.92422
LJ           2.18995       -0.177181        -1.61063
LJ           -2.2257        -1.85515        -1.73091
LJ           2.13246          1.5877        -1.01672
LJ           2.14891        0.811844        -1.78876
LJ         -0.315892         1.17471        -1.50556
LJ          -1.44182        -2.27156        -2.24681
LJ          -0.43502         1.38311        0.144454
LJ             2.075        -2.10548         0.89161
LJ            1.6809        -1.81202         1.77244
