108
#Comment!
LJ           1.78807         1.84391       -0.770717
LJ         -0.893085         1.80933       -0.550013
LJ           -2.0809         2.22023       -0.249456
LJ          -1.10831        -2.15048         1.60835
LJ          0.139941       -0.611853         1.92519
LJ          -1.71089        -2.33886        -1.30789
LJ           1.79937         1.43407         1.08986
LJ           1.52805         0.47424        0.609916
LJ          0.523541         -1.8184         1.73067
LJ          -0.74222        0.178645         1.95842
LJ           0.33213        0.488768         2.21447
LJ         -0.773314        0.685901       -0.930044
LJ           1.64282        -2.22905      -0.0265357
LJ          0.448483       -0.515946        -1.79312
LJ         -0.372859         2.30407         2.27639
LJ         -0.951741        -1.53068         0.73248
LJ           -1.3392       -0.529447       -0.942425
LJ           0.79667       -0.305829       -0.619461
LJ          0.269861         0.55239       -0.978942
LJ          -1.76425       -0.371407        -1.79002
LJ         -0.411691       -0.215781       -0.607927
LJ           1.54386       -0.423252       0.0507228
LJ          0.338051         1.68938       -0.259904
LJ          -1.44306        0.505345      -0.0662841
LJ          -1.82272        -0.38677        0.937526
LJ           -1.1964        0.399968         1.09337
LJ           2.02804        -1.29562       -0.297098
LJ          -2.12171         1.32073          -1.541
LJ           1.56823      -0.0900127        -1.38717
LJ          -2.35051        0.138365        0.277646
LJ         -0.635831        -1.93758        -1.39589
LJ          0.407154         1.40579        -1.95863
LJ         -0.390686       -0.951939        -1.29026
LJ         -0.678297         1.17737         1.13791
LJ           1.12429        -2.24444         1.02366
LJ          -1.37868        0.662759        -1.74115
LJ           2.30637        0.179287        -2.18062
LJ          -1.74899         1.55237         1.36599
LJ          -1.73129         1.32828       -0.638619
LJ          0.408452        -2.33433        -1.85419
LJ           1.70596        0.543334       -0.359793
LJ         -0.143276        -2.28989         1.24087
LJ          -1.75916        -1.31665       -0.205939
LJ          -1.55375        -1.29764         1.46792
LJ           -2.2469        -1.49545        0.634613
LJ         -0.383544        -1.36555         1.58298
LJ        -0.0110279        -1.01721        0.750505
LJ           2.02554       -0.968378        -1.50976
LJ           1.21696       -0.103882         2.35574
LJ          0.606348        -1.31939        -1.24426
LJ          0.739006        0.817736       -0.135554
LJ          -0.52535         1.95756        0.455016
LJ          0.176338          1.2399        0.631185
LJ            2.0222        0.222063          1.6228
LJ           0.63907      -0.0507869        0.409765
LJ         -0.933371         1.74342        -1.62696
LJ          -0.38663       0.0189747        0.485504
LJ         -0.825866       -0.759974         2.29449
LJ           1.49405        -1.80351        -1.92529
LJ          -1.31609        -0.47922       0.0582287
LJ          -1.27865        -1.83041        -2.20095
LJ          0.946486        0.570781        -1.76323
LJ         0.0374388        -1.29978        -2.14145
LJ          0.928591        -1.04358         2.21318
LJ          0.804192        -2.34008       -0.815931
LJ           2.09971         2.34141        0.836484
LJ          0.102567        0.351789         1.26049
LJ           -1.6012         2.34386        0.793437
LJ           1.74216        0.885786        -1.35241
LJ           1.18718         1.74612        0.187577
LJ           1.10245      -0.0111046         1.32201
LJ           1.83262       -0.593573         1.03405
LJ          0.160205       -0.997591       -0.296674
LJ          0.625094          1.9808         1.65492
LJ           2.04942       -0.634461         2.05142
LJ        -0.0041001         1.80282        -1.16594
LJ           2.22221         1.18261        0.159829
LJ          0.946371         1.06397         1.41821
LJ           -1.4709         1.40889        0.329712
LJ         -0.464185        0.805551        -2.02088
LJ          -2.11857        -2.30388         1.69385
LJ          -2.26377         0.47256       -0.900432
LJ          0.906018       -0.947382         1.24298
LJ           1.53002         -1.4026        0.612787
LJ           1.31562         1.79681        -1.80742
LJ           2.23196         2.15737        -1.92003
LJ         -0.818135        -1.22195       -0.387056
LJ          0.893947         1.33363        -1.08216
LJ         -0.127282         1.37039         1.94938
LJ          -2.28269         -1.4698        -2.24314
LJ          -1.10437        -2.15651      -0.0419538
LJ          -1.70812       -0.318757         1.92842
LJ           2.11389        -1.41345         1.48496
LJ            1.0152        -1.48802       -0.277555
LJ         -0.827997       -0.517479         1.24122
LJ         -0.112803        -1.99334       -0.573395
LJ           1.55799         2.29237         1.95651
LJ          -2.22034         1.01936         2.14948
LJ           1.99623        -2.02196        -1.07064
LJ          -1.84032        -1.35142        -1.33623
LJ         -0.462101        0.928405      -0.0263554
LJ           1.53344         1.05476         2.23809
LJ         -0.752161       -0.117035        -1.73855
LJ          -2.29439       -0.495123       -0.632857
LJ          -1.56988         1.99878        -2.35436
LJ          -1.15713         1.13893         2.10264
LJ          -2.15653        0.691186         1.02705
LJ          0.200935        -1.95079        0.375049
