108
#Comment!
LJ          -2.24553         2.01149        -1.88782
LJ          -1.40421         -0.8879         -1.3013
LJ        0.00234206        0.512824       -0.232682
LJ           1.56481         2.20636       -0.506607
LJ           1.67443        -1.44767        -2.30351
LJ          0.684253        -0.25562       -0.404345
LJ          0.469109       -0.526165         1.10463
LJ           2.27839         1.02333        -2.26679
LJ          0.331662         2.02394        -2.10048
LJ        -0.0698402        -1.33791        0.489395
LJ           1.11078         -1.0613       -0.817199
LJ          -2.34965         2.05087         1.79676
LJ          0.474581         1.99547        0.365621
LJ           2.16027       -0.651698        -0.28339
LJ           1.47305        0.525756         1.32895
LJ         -0.453304        -1.22713         -1.4094
LJ          -0.48261        0.380626         1.72189
LJ         -0.196267        -2.20935      -0.0677796
LJ          0.900028        0.840221       -0.623021
LJ         -0.532565       -0.337116        -1.09434
LJ         -0.891217         1.09781        -1.93431
LJ          -1.44975       -0.534162       -0.371768
LJ         -0.471791         2.11013        0.796191
LJ           1.06312         2.12608        -1.45018
LJ          -1.39683         2.28951        0.555106
LJ           1.84146        0.494469        0.323376
LJ          0.318385         1.92984         1.51982
LJ          0.298842        0.230683        -2.37477
LJ           2.11664         1.59129        0.584513
LJ          -1.55954         1.52766         2.22701
LJ           1.98569        0.299368        -1.62338
LJ           0.48581        0.468321         1.43043
LJ          0.885489        -1.90971          1.9789
LJ            1.2313        -1.22531         1.22704
LJ            1.3909       -0.316533        0.801547
LJ        -0.0268013         0.74249        -1.25776
LJ           -2.0194        -1.69567        -1.62643
LJ          -1.41373         0.47389         2.15767
LJ          0.872683        -1.00481        0.235413
LJ           2.36603       -0.853917        -1.25742
LJ           1.70693        0.163853       -0.680844
LJ          -1.01345         2.28867        -0.56575
LJ          -1.50966       -0.320805         1.60547
LJ          -1.15366        -1.47793       -0.548556
LJ          -1.92306       -0.883261        -2.33539
LJ         -0.412075         1.69953        -1.34706
LJ          -1.76399       0.0374097        -1.57418
LJ          -1.40017        -2.35085         1.78271
LJ           2.19843         1.11889          1.5355
LJ          -1.90439        0.867182        0.608493
LJ           1.39175        -2.18281        0.483827
LJ           2.08736         1.23305        -0.40257
LJ          0.776169        -1.89709       -0.189211
LJ          -1.72146         1.20389         -1.2684
LJ          -2.25266         2.27516       -0.956591
LJ          0.934794        0.149108        -1.47734
LJ            1.1459         1.49114         2.16597
LJ         -0.687611       -0.725948         1.17838
LJ           1.99792         -1.1242        0.605656
LJ          -2.00953        -1.72406         1.19046
LJ         -0.397602        -1.89807         1.47404
LJ           1.49589       -0.458137         1.77574
LJ           1.88193        -1.62287       -0.288803
LJ           0.51411        -1.97202        0.989821
LJ           1.21959         1.35708         0.21887
LJ          -1.55738       -0.429798        0.608146
LJ         -0.293858        -1.84797        -2.24422
LJ          0.124738         1.14717         2.19918
LJ          -2.34232        -2.27245          0.2501
LJ          0.772317          1.0915        -1.73093
LJ           -1.1968        -1.53946        -2.08881
LJ          -1.22624        -1.35472         1.69074
LJ          -1.23236         0.51384         1.16205
LJ          -0.12572        -2.07854        -1.14189
LJ           -0.6362       0.0834692        -2.06055
LJ         -0.450863          1.4858       -0.388422
LJ          0.417851         1.77867       -0.709041
LJ          -1.69366         1.45306       -0.211672
LJ           2.31373        0.108378         2.16587
LJ          0.808941       -0.937146         2.34938
LJ         0.0225809         1.15422         0.60634
LJ          0.847161        0.490795        0.524904
LJ          -2.07433        0.425673       -0.524322
LJ           2.37368     -0.00248964         1.04227
LJ           1.72966        -1.85273        -1.19953
LJ          -1.92841        -1.40831      0.00845204
LJ         -0.996787        -1.52668         0.63536
LJ           1.47811        -0.64176        -1.72752
LJ            0.7226        -1.69364         -1.7319
LJ         -0.180751        0.159435        0.811951
LJ           1.57988         2.34559        -2.31152
LJ         -0.916407        0.655509       -0.854529
LJ           1.73852        -2.02997         1.50333
LJ         -0.520233         1.31371         1.43915
LJ         -0.585172         1.98886         2.26589
LJ           1.36204         0.32134        -2.37138
LJ           1.86245         1.43036        -1.32502
LJ         -0.910398         1.22085        0.480634
LJ          0.378528       -0.675698        -1.39188
LJ         -0.561621       -0.447749       0.0452184
LJ          -1.28823         2.33762        -1.53547
LJ          -2.36043        -0.83351         1.56318
LJ          -1.51115         1.57092         1.24984
LJ          -2.25862        -1.85602         2.13396
LJ         -0.694838       -0.753304         2.32441
LJ          -1.20516         0.32423       0.0861979
LJ           1.23067         1.59813         1.21382
LJ         0.0645587        -1.02034        -0.52076
