108
#Comment!
LJ         0.0626802         2.09397       -0.450995
LJ          -1.27137        0.475821         2.12813
LJ         -0.167247       -0.872257        0.435716
LJ          0.256355      -0.0138658        0.143179
LJ          0.507995         1.37181       0.0706275
LJ           1.33367         -1.3846        -2.28967
LJ          0.542623        -2.27819        -1.24835
LJ          0.315673        -1.60893       0.0108981
LJ           1.20452       -0.280194       -0.684145
LJ          -1.17782        -1.29092       -0.491129
LJ           1.18214         2.01603       -0.627064
LJ           1.00873        0.511226         0.75164
LJ           1.44107        0.223849          2.0638
LJ          0.702214       -0.193505          -1.651
LJ           2.14102         2.07822      -0.0310347
LJ          -1.24196          1.1248         0.20148
LJ           1.65371        0.234326        -1.74272
LJ          0.251742         -0.7296       -0.647267
LJ         -0.505695         1.74605        0.353187
LJ         -0.506597         2.20261        -1.27176
LJ         -0.945826        -1.20805        -1.85282
LJ          -1.64359         2.00661      -0.0139043
LJ          0.984109        -2.20721        0.393792
LJ           1.84625        0.889426        -1.07772
LJ           -0.4253        0.811149        0.769182
LJ          -1.28272        -1.30532         1.92941
LJ           1.69156       -0.742163         -1.6175
LJ           1.85905       -0.697257         1.95668
LJ         -0.547026        0.153547          1.5218
LJ           1.23687        -1.59683       -0.367061
LJ         0.0961189         2.34249         1.03099
LJ           2.04279       -0.880627       -0.451869
LJ           2.06771         2.04921         1.71975
LJ           1.71524         2.36385        -2.18711
LJ          0.546032        0.497234         1.75949
LJ         -0.690811        -0.35704       -0.451344
LJ         -0.334473       -0.548646        -1.45238
LJ          0.694751        -1.30091        -1.43047
LJ          -2.13296        -1.92071        -1.61878
LJ          -1.98652         1.46773       -0.796683
LJ          -1.48904       -0.267345        -1.35639
LJ         -0.842779         1.36258        -2.34726
LJ           1.44585         1.15513         1.82976
LJ          -2.29817        -1.88922         2.10772
LJ          -2.22722      0.00089631        -2.11943
LJ          -1.56877        0.774308         1.16378
LJ          -1.75224       -0.447525         1.56598
LJ           1.70881       -0.174974         0.18528
LJ           1.96702         1.82519        -1.35663
LJ          0.673755         1.45054        -1.22045
LJ          0.842788       -0.792155        0.186511
LJ          -2.03828        -1.06958        -2.12552
LJ           2.16728        -1.96366       -0.769436
LJ         -0.286472         1.27245         -1.5225
LJ          -1.88241         1.83934        -1.74001
LJ          -2.15918        -1.52874       0.0725458
LJ           1.45642         -1.8912        -1.41381
LJ          -2.19466         1.50975        0.733404
LJ          -1.76597       -0.487087       -0.372123
LJ           1.14328        0.647286       -0.293144
LJ         -0.219805       -0.860372         2.10582
LJ           2.37047         0.69733         1.86034
LJ            2.0854        0.429344        0.950805
LJ         -0.333632         2.34275         1.92913
LJ           1.56578        -1.57404         1.57412
LJ          0.568177        -1.35293         1.01647
LJ         -0.504458        0.590603       -0.182493
LJ          0.691862         1.50453         1.08461
LJ          -1.83512         1.53745         1.99563
LJ          -1.44229        0.910424        -1.60532
LJ           2.24166        0.810457       -0.109058
LJ         -0.814647        -2.23324       -0.312031
LJ           -1.6305        -2.09581        0.726101
LJ         -0.305262        0.524575        -2.35099
LJ           -1.5635        -2.35272       -0.952124
LJ           -0.7974         1.43256       -0.664894
LJ           1.21729         1.57399        -2.06608
LJ          -1.99188        -1.05287         -1.1283
LJ            1.6085        -1.31177        0.626669
LJ        -0.0176859         1.34684         1.80018
LJ           2.31569         1.02643        -1.99478
LJ           2.30333      -0.0746739        -1.09752
LJ          0.238967         1.92349        -2.13142
LJ           2.11753       -0.589675        0.979729
LJ           2.20297        -2.24046        0.871672
LJ          -1.46824        -2.35696         1.69463
LJ          -1.18525        -2.23551        -2.08598
LJ          0.172132       -0.392798         1.21259
LJ          0.341254        0.574054       -0.958589
LJ         -0.288106        -1.52044       -0.959636
LJ         -0.707654        0.349286        -1.18175
LJ          -1.66566       -0.789128        0.571324
LJ          -1.28575       -0.448871         -2.2964
LJ         -0.310029        -1.61838         1.40647
LJ         -0.794939       -0.757462         1.25037
LJ            1.5008         1.41381        0.521939
LJ         -0.675925         -1.7963         0.57746
LJ          -1.91422         0.15207        0.379668
LJ         -0.984768         1.62478         1.25672
LJ         -0.193177         -1.8592        -1.91177
LJ          0.605594        -1.66314         1.95665
LJ          -1.52859        0.474472       -0.555149
LJ           0.91081         2.09189         1.90786
LJ          -0.88638      -0.0153416        0.519327
LJ          0.644462        0.747256        -2.03598
LJ           1.15167       -0.310635         1.27416
LJ          -2.13708        -1.34449         1.33133
LJ          0.719449       -0.590624         2.18801
