108
#Comment!
LJ          -2.29027        0.192649        -1.35925
LJ          -1.52597        -0.24106        -1.74173
LJ            1.2432       -0.411212        -0.96971
LJ             0.748        0.528615       -0.359532
LJ           1.98912        0.533358         1.61048
LJ          -1.09289        -1.46374        -1.88779
LJ          -1.92699         -2.3311        -1.32486
LJ         -0.701308        0.306859       -0.371053
LJ           1.15421        -0.38203        0.063006
LJ          0.850308         2.31264       -0.118357
LJ          -1.16796        0.667027        -2.16874
LJ           0.23885        0.657114        0.707203
LJ           -1.0187         2.30166        -1.84295
LJ         -0.730115        0.266798        0.641121
LJ          -1.65766         1.42086        -1.54151
LJ           2.25262         2.27895        0.802752
LJ         -0.121446          2.1271       -0.249436
LJ          -1.74584         1.69788         1.08569
LJ          -1.32228        0.537255        -1.13001
LJ           1.51326        -1.70108         1.50654
LJ           2.35983       -0.914648          2.2184
LJ          -0.84841        -1.90259        0.139153
LJ          0.698944       -0.655479         1.41527
LJ         -0.202362       -0.839399        -2.10886
LJ          -1.25213       0.0737666         1.51014
LJ          -1.25552       -0.887324         0.89171
LJ           1.49763        -1.24979        -0.31128
LJ           2.31533        0.982315        -2.02582
LJ          -1.53503       -0.295538       -0.656815
LJ         -0.855862         1.85134        0.399824
LJ          0.666847        -1.19464         0.33366
LJ          -1.38793        0.954838        0.303066
LJ           1.49832        -1.86431        -1.11957
LJ           2.28545         1.50837        0.168961
LJ         -0.625267         2.36576          1.2025
LJ           2.28572        -1.47684        0.508722
LJ          0.682636        -2.18796        -2.19142
LJ           1.10848         1.52569       -0.795572
LJ          0.114616         1.69302        0.772379
LJ         -0.815329       -0.819041        -0.19276
LJ          0.879103         1.32662        0.221682
LJ           2.14921         1.47257       -0.963653
LJ          0.985006         1.17032         1.28995
LJ          0.737869        0.358748         1.75392
LJ          -1.67793          1.5063       -0.483042
LJ          0.391954        -1.85909         1.65589
LJ           2.36172        -2.30812         1.77169
LJ            1.8194         2.34313       -0.291426
LJ           1.79887        -1.75007        -2.17274
LJ           -1.9165        -2.35746      -0.0711764
LJ          0.123542        -2.08438        0.558698
LJ          -2.25483        0.708307        0.844241
LJ          0.688015        -1.47379        -1.53572
LJ          0.276155         1.02512        -1.06143
LJ          0.321073         1.94954         1.79614
LJ           1.43308         1.04828         2.22736
LJ          0.601599       -0.470915        -1.68727
LJ         0.0994673       -0.190001       0.0965674
LJ          -2.05628       0.0336411         2.22587
LJ           1.99823         1.57203         1.48056
LJ          -1.87517        -1.33674         1.55036
LJ          -1.95858        -1.82081        -2.28023
LJ         -0.361976        -1.21744         1.70514
LJ           2.07159       -0.208635        0.342994
LJ           -1.1286        -1.97874         1.96974
LJ           1.29426         0.24396        0.866103
LJ          -2.20974        -0.22823         1.21935
LJ         -0.134682       0.0253485          1.3889
LJ          -1.81011         1.25827         1.95436
LJ        -0.0626081         1.03535         1.75849
LJ         -0.845208          1.1627         1.09507
LJ          -1.41732        -1.56081       -0.886677
LJ          -2.09301        0.565717       -0.480873
LJ           1.67854        0.171748        -2.12397
LJ           1.56308         2.01125        -1.64578
LJ           1.54874       -0.597195         1.90811
LJ          0.936765         2.20713         1.03555
LJ         -0.258161        -1.81969         -2.2582
LJ          -2.37311        -1.55719       -0.563796
LJ           1.27566         2.03438         2.00141
LJ           -1.1751       -0.744929          2.1002
LJ         -0.919622           1.742         1.94172
LJ         -0.722602         1.36837        -1.23059
LJ          0.466586        0.489383        -1.96774
LJ         -0.332122        -1.19729         0.67749
LJ           1.41857        -1.89171        0.471837
LJ         -0.269877        0.177664        -1.37365
LJ         -0.425192        -1.94283        -1.20791
LJ          -1.06256         2.23748       -0.755712
LJ          0.421451       -0.942212       -0.726581
LJ          -2.25793         1.98364         -2.1495
LJ         -0.113814         1.80518        -2.03039
LJ            2.1604       -0.590255       -0.686571
LJ        -0.0333444        -1.62418       -0.272158
LJ          0.784392        -1.11846         2.31969
LJ          -1.63106        -1.96351        0.819801
LJ         -0.436713       0.0308929         2.33995
LJ           -2.0721        -1.15264        -1.46014
LJ          -1.65206      -0.0326567        0.279794
LJ          0.771369         1.44647        -1.89497
LJ           1.50493       -0.857108         0.93129
LJ           1.75385        0.634791       -0.200183
LJ           1.58196       -0.770316        -1.79885
LJ         -0.555182       -0.889123        -1.18999
LJ          -1.68256         -1.1892       0.0485214
LJ          0.537317         2.28755        -1.19279
LJ         -0.222257         1.15029      -0.0313964
LJ           1.34091        0.503148        -1.21944
