108
#Comment!
LJ          -2.15521        -1.99785        -1.07969
LJ         -0.430141         2.28233         1.24191
LJ          -2.20769        0.901528        -2.16637
LJ          -1.36097        -1.32847        -1.20946
LJ          0.678401      -0.0731531        -1.57027
LJ          -1.95069        0.768111       -0.968705
LJ          -2.28075         1.83154         0.45382
LJ          -1.04939        0.280888         1.19838
LJ            2.1306       -0.581072         1.37267
LJ         -0.241339        -1.14867         1.65234
LJ          -1.22393        -2.23976       -0.471047
LJ         -0.379676        0.793816         1.84077
LJ            1.4913         2.17329       -0.103547
LJ        -0.0482242       -0.813446       -0.707187
LJ          -1.06101         1.27617        -1.98079
LJ          0.838656       -0.300281        0.967169
LJ          -2.09158        -2.05842      0.00915409
LJ            1.2653       -0.872306       -0.553575
LJ          0.863111        0.958528        -1.31804
LJ            -1.571       -0.423902        -1.95943
LJ          -1.33462        0.142693       0.0511919
LJ          -1.89839       -0.261778        0.786838
LJ          0.821838         1.19786        0.683957
LJ         -0.328493        0.375762        -1.99454
LJ            -1.958        -1.21995          1.7049
LJ           1.86701        0.942062        -1.24793
LJ         -0.460074         1.16994       -0.955588
LJ         -0.486397         1.86449       0.0950133
LJ           2.29343       -0.591794         2.37003
LJ         -0.878889        -1.31777       -0.299635
LJ           0.73914        -1.25544         1.39676
LJ         -0.525854       0.0533391       -0.727232
LJ         -0.173801        -2.06663       -0.295455
LJ           2.15877        -0.85113        0.300883
LJ          -2.16261         1.70681         1.42924
LJ           2.23873         0.12048        -1.71555
LJ           2.22325       -0.663731       -0.928609
LJ           0.74123        -1.95517       -0.684402
LJ         -0.933997          2.0948         2.10372
LJ          0.668774        -1.99349        -1.73209
LJ         -0.473292        -0.50911         0.29624
LJ         -0.786274          2.1166         -1.4828
LJ         -0.752423        -1.86435        0.526346
LJ          -1.06965        -1.35231         2.32777
LJ          -2.28571        -2.01626         2.14885
LJ           1.46269        0.115706       -0.925351
LJ          0.744469        0.621327        -2.28208
LJ          -2.13234        0.949569        0.013876
LJ          0.316899         1.20004       -0.361447
LJ          0.321645        0.298164        0.293255
LJ            1.3061      0.00655069        0.121596
LJ           1.76032        -1.55761         1.47253
LJ          0.288641       -0.241702         2.25206
LJ         -0.263386        -1.67725        -1.40033
LJ          0.550739         2.01161        0.193836
LJ         -0.689658       -0.624144        -1.46642
LJ           1.76456         1.23667        0.405484
LJ          -1.46059       -0.399053       -0.775132
LJ           1.41445       -0.719176        -1.87865
LJ        -0.0958911        -0.28647         1.31135
LJ           1.96463         1.91161        -1.43262
LJ            1.2498        0.868333       -0.348179
LJ          0.671582        -1.10853        -1.32348
LJ           1.82153         2.09611         1.92442
LJ           1.01139        -2.14386         2.07632
LJ          -1.93178         1.85218        -2.33219
LJ          -1.42388         1.20323         1.88387
LJ          -1.17075        -1.88002         1.52632
LJ          -1.86423        0.772769        0.962568
LJ           1.49074           2.107        0.904059
LJ          -1.89033        0.112075           1.883
LJ           2.38003       0.0611921       -0.354876
LJ           1.83155        -1.62537       -0.164063
LJ           2.01066        0.254583        0.749218
LJ          0.542317        -1.18437        -2.34394
LJ         -0.108242         1.19642         0.99939
LJ           1.62316        -1.70463        -1.13857
LJ          0.612264         2.23929         1.22186
LJ          -1.43176         2.27297        0.774943
LJ         -0.548912          0.7862       0.0939405
LJ        -0.0102645         1.45325        -1.89211
LJ          -1.35008         1.57262       -0.271464
LJ           1.50443         1.14263        -2.15418
LJ       -0.00388266         1.69016         1.93826
LJ          0.462096        0.528172         1.40583
LJ          -1.21852        0.426702        -1.44808
LJ          -1.08799         1.35411        0.739493
LJ           1.04812         1.92654       -0.979507
LJ         -0.108896        -2.01468        -2.37081
LJ          -2.15964        -1.26866        -1.74452
LJ          -2.22655        -2.09276         1.01677
LJ           1.99772        0.583614         1.82115
LJ           1.65955        -1.60916        -2.20738
LJ          0.582153        -0.79749        0.150522
LJ          -1.17401       -0.723389          1.4029
LJ           1.27075        -1.32538         0.61473
LJ          -1.50491        -2.06474        -1.98597
LJ           2.35069         1.73455       -0.509543
LJ          -1.84569        -1.14458       -0.283882
LJ          -1.61597        -1.30943        0.741953
LJ          0.100591         2.17982        -1.09176
LJ          0.489955        0.025539       -0.643408
LJ          0.895559         1.87146        -1.94425
LJ         -0.860822       -0.226982         2.19083
LJ           0.26381        -1.85265        0.595358
LJ          -1.74061         1.67174        -1.24895
LJ           1.34852          1.2889         1.59388
LJ           1.24555       -0.503416           1.829
