108
#Comment!
LJ         0.0822251        -1.24063         1.27106
LJ          0.869649        0.388679        -2.10044
LJ          0.511588        0.903821         1.73652
LJ         -0.439258         1.03041       -0.614988
LJ         -0.887199        -0.78918        -1.85797
LJ         -0.013225         2.37105         1.26167
LJ           1.27835         2.11919        -1.14743
LJ          -2.13039         1.89616         2.29083
LJ           1.78298         2.32148        0.662474
LJ          0.108067        -1.92089        0.191245
LJ           1.51447         2.11702        -2.22831
LJ           2.17444         1.80016        -1.60099
LJ          0.566672      -0.0971652       -0.367615
LJ          -1.26604       -0.157554       -0.110143
LJ          -0.53812        -1.17268      -0.0120456
LJ          -1.19243         2.10936         1.68461
LJ          -1.42464        0.616059         1.27714
LJ           1.87435        -0.58704        0.596475
LJ           2.37993        -2.11419       -0.809638
LJ          0.351211        -1.05347        -1.63161
LJ         -0.757024        -0.69411         1.11338
LJ         -0.348197         1.96252        -0.17468
LJ           2.06667       -0.559109         1.57551
LJ           1.84834         1.33726        0.518234
LJ         -0.399896       -0.949639       -0.934863
LJ         -0.578442         1.45042        0.641881
LJ          -2.29421          1.6302         1.25149
LJ           1.48434       -0.303351         2.29019
LJ           -1.9413        -1.91373        0.231275
LJ          0.585042       -0.872643        0.394531
LJ          -1.89009        -2.05533         1.24713
LJ         -0.708614        0.563261        0.296864
LJ          0.879853         1.19054        0.767428
LJ          -0.82432        -1.96027       -0.506706
LJ          -2.23552       -0.408432       -0.327769
LJ           1.21078         1.28138       -0.387549
LJ        -0.0807926        -1.91349         2.16624
LJ          -1.16762         1.22486         2.24527
LJ          0.496072        -1.13209       -0.563565
LJ           0.35492         1.26246        -1.95374
LJ           2.26104        -2.01514        -1.85058
LJ            -1.307         2.17977        -2.06327
LJ           1.43506        0.640407         1.52495
LJ          0.583697         1.97281        0.134905
LJ          -1.60908        -0.15432        -2.32904
LJ          0.159808        -2.02403       -0.816852
LJ         -0.111362       -0.224789        0.506401
LJ           1.55442        0.399922       -0.639423
LJ          -2.05255        0.695687         2.06582
LJ         -0.270951        0.542604         1.17014
LJ          0.362836        0.887833    -0.000398129
LJ          0.358464         1.68444       -0.807018
LJ           2.05947       -0.239885        -1.41798
LJ         -0.563207         1.19631        -1.59274
LJ          -1.36118         2.37458        -1.13194
LJ         -0.958305        -2.18033        0.473741
LJ         -0.361274         1.36201         1.65455
LJ            -1.398       -0.380418        -1.09835
LJ          -1.63815         0.51852       -0.760206
LJ           2.35447       -0.725001        -2.21144
LJ         -0.498346        -0.98779         2.02868
LJ         -0.581898         -1.7384        -1.58293
LJ         0.0803923      -0.0564257        -1.52629
LJ            2.1221        -1.45798        0.903451
LJ          0.685243        0.143761        0.922938
LJ           1.83815         2.06019       -0.236255
LJ          0.398099       -0.116719         1.99686
LJ          0.851681        -1.96616         1.74853
LJ         -0.394435         1.94821        -2.28153
LJ          -2.35382         1.30409        -0.71659
LJ           1.03149       -0.314509        -1.33965
LJ          0.944221       -0.742602         1.32986
LJ          -1.88035         1.91296       0.0389694
LJ          -1.53951        -1.46059          -1.531
LJ         -0.843121      -0.0593622         1.82784
LJ           0.44174         -1.0708         2.14846
LJ           2.17023        0.742286        -1.55159
LJ         -0.430191       0.0257973       -0.632522
LJ           1.45803        0.278184        0.276103
LJ          -0.77784        -1.72171         1.32562
LJ          0.731348        -1.92938        -1.84311
LJ           1.37542         -1.3009         2.28804
LJ         -0.832427        0.236224        -1.62301
LJ          -1.64772         1.20181        -1.65447
LJ           2.28588        -1.46964          1.9056
LJ          0.513916        0.714124        -1.08324
LJ           1.17856        -1.93751       -0.346992
LJ         -0.269368        0.646996         2.33379
LJ          -1.95371       -0.235018        0.654991
LJ         -0.431643         2.13345        -1.27231
LJ          0.983894         -1.8268        0.768555
LJ            2.0019        -2.33663         1.64769
LJ          -2.35246        0.481999        0.129258
LJ           1.33763          1.2347        -1.52096
LJ          0.414135          1.9208         2.02228
LJ          -1.42814        -1.49788         2.10661
LJ            1.7452         1.00136         2.37352
LJ          -1.24581         1.49639        -0.62354
LJ           2.34515        -1.13169        -1.11241
LJ          -1.64413        -1.20301         0.83587
LJ          -1.50466         1.10352          0.4218
LJ          -1.68529       -0.587564         1.55333
LJ           2.11956        -1.34628       -0.187121
LJ           2.32886        0.517169         1.14496
LJ           1.52497       -0.636701       -0.512849
LJ           1.25551         1.74924         1.56489
LJ          -1.46134        -1.14995       -0.371012
LJ           1.38391        -1.24364        -1.37625
