108
#Comment!
LJ           1.99045        0.725928        0.607005
LJ           -1.0747       -0.206361       -0.647274
LJ           1.91475       -0.521636        -2.28865
LJ          -1.94473       -0.974987         1.74567
LJ          0.742381       -0.474995        -1.90148
LJ          -1.24775         1.57643        -1.21219
LJ          -2.21051         1.85347         1.28148
LJ           1.77032         2.11948        0.776742
LJ           0.81999        -2.27952         1.65036
LJ           -1.2353       0.0696555        -2.20587
LJ          0.590388         1.67454         2.33873
LJ          -2.18759        0.295537        -2.23998
LJ          -2.23812        -2.03879        0.278397
LJ          0.485553       -0.888344         1.79782
LJ          0.469862         1.03167         1.61729
LJ           1.14077       -0.754136        0.402708
LJ         -0.444943        -1.73021        -1.70704
LJ           1.56629         1.29017        -2.18012
LJ        0.00283939        -1.85149         1.23621
LJ           1.24112       -0.427725        -0.71915
LJ          0.113852       -0.438923        -1.01218
LJ           1.48522         1.42946         1.53734
LJ         -0.775341        0.844091        0.185716
LJ         -0.619142         1.43636        0.955176
LJ         -0.145987      -0.0254646         1.96518
LJ          0.201053        0.152873         1.03969
LJ           -1.3453         2.27961        0.541614
LJ        -0.0871057        0.120049        -1.78014
LJ           2.00161          -1.089       -0.336011
LJ            1.8942       -0.174262         0.23359
LJ         -0.850075        0.898218         2.15196
LJ           1.50067        0.221043        -1.57453
LJ          0.882464        -2.31581       -0.662071
LJ          -2.10361        0.301891         1.35392
LJ           1.41571        -2.13369        -2.33631
LJ         -0.895284        -2.26339         1.54327
LJ          -1.90809       -0.659959         -2.0645
LJ          -1.61974         1.05887        -1.97323
LJ         -0.973713        -0.13077        0.347171
LJ         -0.933755        0.668184        -1.43556
LJ         -0.290415         1.74978         1.78429
LJ          0.549526        -2.21053        0.452533
LJ          -1.80609        0.211392        -1.24558
LJ          -1.73979       -0.578961        0.861781
LJ           1.81396         0.39749         1.90598
LJ          -0.24361         2.14316        0.229084
LJ           1.12273          1.4917        -1.17969
LJ          -1.39011        -2.28352       -0.813305
LJ          -2.21855         1.73829        0.230475
LJ            1.4114        -1.70712        0.126509
LJ          0.645282        0.418802        -1.23789
LJ          0.247333         1.21498       0.0303628
LJ            1.8297         2.31884       -0.360526
LJ          -1.37169         1.70612         1.96549
LJ           2.03986       -0.535673         1.37123
LJ           -1.7881       -0.996728       -0.936745
LJ          -2.36123        0.465061       -0.465762
LJ          0.725119        -1.42352         -2.1394
LJ          0.772019        0.316433         2.27524
LJ           2.22372        -1.11046         0.60056
LJ         0.0225516        -2.19049         2.28982
LJ           1.35297        -1.41758         -1.2676
LJ          0.320246        -1.44689        -1.18699
LJ           2.15494        -1.84705         1.32051
LJ           0.91797        0.664181        0.565126
LJ          -1.58611        -1.59666        0.956829
LJ          0.362203       -0.183595        0.136124
LJ         -0.765317       -0.796412         1.14279
LJ           1.13652      -0.0925927         1.24042
LJ          -2.10603         1.82541         -0.8025
LJ          0.139878       -0.910803        0.750005
LJ           1.44981         -1.2856         1.95981
LJ           2.11862        -0.77997        -1.31024
LJ         -0.836897       -0.709647        -1.48171
LJ          0.544416        -2.36945        -1.61383
LJ          -1.03304         1.74624         -0.2821
LJ         -0.217801        0.419176       -0.631714
LJ          -2.30003         1.19059         2.04778
LJ          -1.58158          1.1035         1.08159
LJ          0.404485        -1.42084       -0.168565
LJ          -1.41213        -1.50203        -1.71332
LJ         -0.720082        -1.48034       -0.755476
LJ         -0.234445        -0.87388        -2.23303
LJ           -2.0332         2.32397        -1.67716
LJ           2.27347         2.20263         2.19211
LJ           1.73919        -2.34889        -1.42798
LJ         -0.347749         2.01462        -1.73237
LJ            2.2653        0.905891        -1.43248
LJ          0.351221         1.76975        0.942182
LJ          -1.07381        -1.25046         2.11975
LJ          -1.44562        0.817012       -0.579642
LJ          -1.95204       -0.411632        -0.10936
LJ        -0.0321001         1.07431        -1.91041
LJ           1.14286         1.60225        0.192424
LJ         -0.147455         1.48242       -0.996418
LJ           1.85199         1.35352       -0.464624
LJ           2.34174        -1.52267        -2.10629
LJ         -0.753173        0.471803         1.17215
LJ          -1.38694        -1.14186      -0.0448366
LJ          -1.15626        -2.33784         -2.1419
LJ           1.27421         0.59002       -0.423681
LJ          -1.76472        0.472831        0.321726
LJ          -2.25903        -1.86799       -0.748553
LJ          0.963527        -1.46559         1.08799
LJ          -1.78297        -1.97513         1.89114
LJ         -0.736673        -1.70462         0.39415
LJ         -0.409204       -0.897248      -0.0544818
LJ         -0.135899        -2.26447       -0.676465
