108
#Comment!
LJ         -0.179434         2.37575        0.151898
LJ          0.460499       -0.277637         1.06066
LJ          0.221428         1.55896        0.765499
LJ       -0.00506382        0.363686          -1.751
LJ          0.880399        -1.55534         1.78636
LJ          -2.07757         2.34662       -0.448465
LJ         -0.244112           2.237          1.3326
LJ         -0.819281        -1.39954         -1.1893
LJ          0.894077      -0.0182023         0.01088
LJ          -2.06198         0.46811        0.185272
LJ           2.04871        0.618891        -1.55523
LJ           2.18761         1.40726        -0.94736
LJ        -0.0945441         -1.4825          1.6255
LJ          -2.09932        -0.67496         1.63208
LJ          -1.35724        -2.30893        -1.11455
LJ          -1.87173        -1.78167         1.87855
LJ          0.307662        0.718408        0.186945
LJ          -2.18584           1.441         1.14406
LJ          -1.38932       0.0193627         2.14599
LJ          0.303847        -1.88063        0.816518
LJ           2.11434        -1.85013        -2.06739
LJ           -1.1733        -1.10197         1.54442
LJ          -1.59202         -1.9114        -1.98186
LJ           1.20567         1.80632        -1.26351
LJ          0.849482          2.0849        0.284003
LJ          0.481556        -2.16911        -1.52906
LJ           1.14662         2.29179        -2.27732
LJ         -0.928313        -1.17921        -2.22025
LJ          -1.44494        0.616337         1.09653
LJ           2.27943       0.0967554       -0.736058
LJ           1.33595        -1.78341        0.462856
LJ          0.475704         1.53787         1.72381
LJ          -2.14089         2.20017        -1.55908
LJ         -0.335012        -2.27097        -0.83296
LJ          -0.90598        0.567367        0.135079
LJ         -0.946616        -1.96484         1.98011
LJ          0.989955        0.340001        -1.79166
LJ           1.42868        -1.64583       -0.977709
LJ           1.05045         2.28613         1.21884
LJ           1.82065       -0.234834        -2.32208
LJ          -1.39168        -1.67741        -0.35984
LJ          0.160015        -2.35811         2.20663
LJ            1.3326        0.560651         1.83644
LJ          0.435489         1.13671        -1.30401
LJ          -1.56817        -2.31961         1.11348
LJ         -0.777738        -1.77658        0.837463
LJ            -2.343        -1.56212       -0.955078
LJ          0.509319        0.708859         1.16246
LJ          -0.36595        0.590063       -0.795431
LJ           -0.4254       -0.333941         2.22477
LJ         -0.857042         1.54113        0.754762
LJ           1.31183       -0.865361         0.93853
LJ         -0.511976        -2.05907        -1.88837
LJ          0.531104         2.00978       -0.668442
LJ           1.14941       -0.643712        -1.00394
LJ          0.657292        -1.74951       -0.323441
LJ         -0.904261       -0.312156        -1.59291
LJ          0.448168       0.0125598        -0.86832
LJ          -1.63851       -0.918535        -1.26896
LJ          -1.85554      -0.0274858        -1.72547
LJ         -0.474863       -0.734916         1.00151
LJ          -1.68089         1.08269       -0.536075
LJ          -1.69275         1.22965        -1.64062
LJ           1.07962         1.23732       -0.177154
LJ         -0.385484        0.942284         1.84283
LJ           2.26254        0.251147         1.36823
LJ          -1.58359        -1.34294          0.5509
LJ          0.978352       -0.572693         1.96142
LJ           1.38919       0.0843435         1.00245
LJ         -0.383249       -0.597266       -0.772235
LJ           2.26301        -1.37757         1.05303
LJ        -0.0446175       -0.204389        0.171148
LJ           1.63112         2.31492       -0.266803
LJ           1.77679         1.55174         1.78097
LJ           2.01509         1.54346        -1.99321
LJ           1.94296        -1.23889         1.97866
LJ           1.03725         1.28625        -2.22364
LJ          -1.42759         1.33138         1.86835
LJ           1.56476       -0.950732       -0.155918
LJ           1.39451         1.40069        0.849725
LJ          -2.13069         2.04009         2.06845
LJ         -0.930912        0.708743        -1.95361
LJ           2.33055         1.53414        0.113908
LJ          0.588761        -0.53795        -1.79697
LJ          -0.56698         1.42511        -1.31799
LJ          -1.21571         2.07038       -0.034352
LJ          -1.37587      -0.0069347       -0.784049
LJ          0.324715         -1.1892        -1.10518
LJ          0.265562        -1.42148        -2.19549
LJ        -0.0169631         1.45905        -2.16144
LJ         -0.900208         1.88751        -2.23867
LJ           1.32581        0.630098       -0.865984
LJ           2.16397       -0.451093        0.594162
LJ          -1.29051       -0.278589        0.522057
LJ           2.16894         2.26126        0.742363
LJ          -1.93232       -0.734525        -0.35398
LJ           0.49773         -1.0214        0.385763
LJ         -0.414749         1.33424       -0.186597
LJ          -1.90428        -1.00196        -2.20803
LJ          -2.18878        0.757937         2.25406
LJ           2.16467       -0.591602        -1.43635
LJ            1.7088        0.561789        0.175299
LJ           0.40703        0.325229          2.0887
LJ         -0.509669        0.258568         1.01722
LJ             1.422        -1.09196        -1.99895
LJ            1.7984        -2.16884         1.74012
LJ         -0.429039        -1.31143       -0.114867
LJ           2.20836        -1.67181       0.0369694
