108
#Comment!
LJ           1.36551         1.92542        0.913988
LJ         -0.492269         0.23785        -2.37194
LJ         -0.245063        -1.85691        -1.95362
LJ           1.14852        0.623635         2.17682
LJ         -0.874718       -0.534224        -1.15329
LJ           1.38716         2.24293        -2.27486
LJ           2.19956      -0.0664869        -1.43295
LJ           1.67841       -0.996691        -1.63391
LJ          0.661974        -2.17678       -0.526764
LJ           1.98447        0.797698        -1.92786
LJ         -0.818695        0.564624          1.4476
LJ          0.485938       -0.415971       -0.101373
LJ         -0.800669        -1.72361        0.538951
LJ           1.81334         1.42078         1.94887
LJ          -1.22028         1.56381       -0.927602
LJ           1.29123       -0.964875         1.65243
LJ          -1.14429          1.5855         2.15177
LJ           1.31728       -0.429976        -0.87938
LJ           1.75988        -1.92914         1.34087
LJ          0.526676         1.46595        0.884221
LJ           1.63569       -0.188473        -2.29115
LJ          -1.97974        -1.61559         1.87513
LJ           -1.7718         -1.7939        0.839543
LJ         -0.945032        0.922517         -1.8871
LJ        -0.0217501         2.06248        0.208051
LJ           2.35866         2.20901         2.01508
LJ          -1.22926        -1.19453         -1.8966
LJ           1.07722         1.37614        -1.86113
LJ         -0.181692       -0.847427        -1.98599
LJ          0.445778       -0.553073        -1.28968
LJ          0.095227        -1.30028          1.6634
LJ         -0.865835        -1.61577         2.05153
LJ         -0.333322       0.0903346       -0.436309
LJ          0.997042        -1.35089       -0.116604
LJ          -1.23545        -0.63315         2.05185
LJ           2.32118       -0.844119         1.43673
LJ          0.179853        0.919904        -1.97172
LJ           2.33118         2.18047        0.876934
LJ           1.17625       -0.150905        0.586956
LJ          0.596958       -0.121823        -2.23152
LJ          0.176338       -0.014492        0.770473
LJ          0.192878        -1.01345            0.73
LJ          -2.12706        0.809578       -0.341415
LJ           1.61016        -1.01429        0.648971
LJ           1.84452        -1.36024        -0.65647
LJ          0.559662         1.54085         1.95273
LJ          0.596811        -2.23505         1.71543
LJ         -0.183613        0.198271        -1.39544
LJ          0.591457        0.467972        -0.73383
LJ          -2.07815         -1.8768        -1.90523
LJ          -1.92862         1.59616        0.274129
LJ           0.52029         1.45464        -1.03074
LJ          -2.06781        -1.03094        -1.37692
LJ          -1.31774         2.32821         1.47587
LJ          -1.86614         1.55541         1.45984
LJ          0.618691        -2.34511        -1.58836
LJ         -0.479162          -1.455        -1.03022
LJ          0.874182        -1.47764        -1.22347
LJ           1.48124         2.09031       -0.797407
LJ          -1.27543         2.37371       -0.301975
LJ           1.14521         0.83278         1.29978
LJ          -2.37869         -2.0134       -0.011407
LJ         -0.269464        -2.23602         1.18914
LJ           1.18962        0.333973         -1.5377
LJ          -1.19735        -2.26784        -1.48407
LJ           1.43119        -2.17567        0.178935
LJ           2.02523         1.71813        -1.76207
LJ         -0.271973        0.890321        0.608539
LJ           1.74177         1.00491       -0.965448
LJ          -2.01577        -1.92853       -0.920564
LJ          -2.22134         1.90793       -0.752977
LJ         0.0241025        -1.47443       -0.180635
LJ          0.844436      -0.0634085         1.50161
LJ           2.37146        0.187696        0.368875
LJ           1.99904        0.432826         1.74598
LJ           2.25905       -0.450423       -0.383176
LJ          0.757234        0.803393        0.175346
LJ          -2.17854       -0.503318        -2.25944
LJ           2.13468         1.07945          1.0114
LJ          -2.18812       -0.853059        0.405327
LJ          0.654705        -1.53208        -2.22018
LJ          -1.24551       -0.939283        0.812932
LJ           1.56173        0.351298       -0.238825
LJ          -1.75113     -0.00206459         1.42046
LJ          -1.00542        0.587917        -1.00987
LJ         -0.299163         2.18563         2.18243
LJ          -1.46588      0.00708217        -1.79464
LJ          0.608998        -2.13521        0.683156
LJ         -0.352869         2.26411        -0.70489
LJ          -1.51866        -1.35067       -0.277919
LJ          0.856796         1.72707       -0.139566
LJ           1.67777        -1.96617        -1.48058
LJ          -1.01293       0.0334746         0.56059
LJ          -0.54608       -0.730189        0.149827
LJ          -1.50766       -0.112003       -0.347198
LJ          -1.71173        0.759016        0.824011
LJ         -0.434293         1.50076         1.41862
LJ          0.172737        0.675209         1.61037
LJ         -0.483184       -0.468929         1.43208
LJ         -0.224936         1.30809       -0.396185
LJ          -1.70177        0.692579         2.25481
LJ          -1.04553        0.824011      -0.0760685
LJ          -2.02838        0.872906        -1.30883
LJ          -1.73377         1.68305        -1.82228
LJ           1.90079        -1.62951         2.30364
LJ           1.86546         1.32393      -0.0328978
LJ         -0.992443         1.85376        0.483602
LJ         -0.452551         1.81053          -1.628
