108
#Comment!
LJ           -2.1349         2.08422        -1.89153
LJ          -1.94109       -0.995133        -1.67204
LJ        -0.0736742        0.611634       -0.910961
LJ           1.78316        -1.97558       -0.458176
LJ           2.00109        -2.09443         1.43834
LJ          0.097095        -1.42883       -0.641904
LJ        -0.0737392        0.391459         2.31455
LJ          -2.12579         1.07772         2.32966
LJ          0.566354         1.94794        -1.97341
LJ          0.791139        -2.13873       -0.566271
LJ          0.466629       -0.282233       -0.668497
LJ          -2.18024         1.97752         1.89628
LJ           1.14217         1.90317       0.0586185
LJ          -2.28679       -0.969342        0.341052
LJ           1.87464        0.905603          1.6661
LJ          0.732122        -1.69604        -2.03131
LJ         -0.254787        0.770249         1.40333
LJ         -0.323524         2.13942        -0.45351
LJ            1.1463        0.248918         -1.2585
LJ         -0.124432        -1.27925        -1.70383
LJ         -0.425792         1.41623        -1.41244
LJ         -0.672311        -0.80392       -0.816517
LJ         -0.354866       -0.786381         1.58641
LJ           1.38224          2.0005        -1.11163
LJ         -0.763492         -1.6812         1.26399
LJ           1.82529         1.07069        0.633517
LJ         -0.236865         2.20926         1.50056
LJ         0.0592231         1.37172         2.08815
LJ          -2.02564         1.39731         1.00938
LJ          -1.29011         1.61644        -2.26733
LJ           2.35544        0.544664        -1.02575
LJ          0.884738        0.272138         2.18437
LJ          0.812968         2.36006         1.83728
LJ          0.104294        -1.36981        0.906006
LJ             1.538       -0.689313        0.347339
LJ       -0.00169025        -0.15958        -1.56697
LJ          -2.05123        -1.85006        -1.16705
LJ         -0.962643        0.691186        -1.91651
LJ          0.795348        -1.38577        0.134471
LJ          -1.69403        -1.11413       -0.490217
LJ           1.52992        0.060111       -0.337523
LJ           -1.0854         2.11093        -1.13763
LJ          -2.07294        0.211338         1.75348
LJ         -0.875291        -1.80381       -0.312267
LJ           1.94332       -0.333806        -1.40014
LJ        -0.0839781        -2.27092        -1.33796
LJ          -1.85211       0.0896415        -1.78555
LJ          -1.79843        -1.84945         1.45744
LJ          -1.24788        0.997401         1.57345
LJ           -2.2352        0.141345        0.148237
LJ          0.722037        -2.35111        0.851031
LJ          -2.14745         1.23526       0.0375936
LJ           0.94546        -1.30189        -1.11336
LJ          -1.71384         1.21212         -1.0389
LJ          -1.90937         -2.0657       -0.233492
LJ          0.721341         0.68978       -0.375385
LJ            1.4956         2.23367        -2.05591
LJ          -1.12069     0.000967174         1.95435
LJ           1.11314        -1.50289         1.14783
LJ           -1.5782         2.21776        0.648787
LJ          0.418394       0.0117573         1.27646
LJ           2.21362       -0.529228        -2.31332
LJ           1.99086       -0.910851       -0.572986
LJ         -0.237842        -2.19565        0.419805
LJ           1.69578         1.08699       -0.336048
LJ          -1.40613       -0.408346        0.187574
LJ          0.307902        -1.50096         1.91123
LJ          0.782073        0.997826         1.19138
LJ           2.06629         2.01104         0.39018
LJ          0.515989        0.983131        -1.65993
LJ         -0.663277        -1.41405         2.27797
LJ           -1.5285       -0.669228         1.14067
LJ           -1.5596        0.435754        0.877492
LJ          -1.04076        -1.69653        -1.28472
LJ          -1.07027        0.261328       -0.944456
LJ         -0.329308         1.23552      -0.0849634
LJ          0.435053         1.51305       -0.797253
LJ          -1.33259         1.80945       -0.202949
LJ           1.83211        0.387052        -2.19823
LJ           1.26575       -0.476832         1.48783
LJ          0.230944        0.615359        0.525431
LJ           1.20099        0.180857        0.736995
LJ          -1.91946       -0.257576       -0.900117
LJ           2.14761       -0.215093           1.048
LJ           1.89594        -1.36883         -1.5649
LJ           1.87207        -1.73201        0.487447
LJ          -1.47015        -1.49193        0.478914
LJ           1.23619       -0.646217        -2.11437
LJ           1.40294        -1.51063          2.0579
LJ          0.479352       -0.366721        0.344102
LJ           2.34924        -1.92634         2.37161
LJ           -1.2466        0.742673      -0.0123824
LJ           1.08826         1.37084         2.11218
LJ          -1.20866         1.99832         1.59433
LJ         -0.382623         2.25032        -2.24336
LJ           1.81815         1.27854        -1.68824
LJ           2.29921         1.79001       -0.698414
LJ          0.101502         1.62733        0.731273
LJ          0.253716       -0.659749        -2.36184
LJ          -0.50486       -0.904053        0.327954
LJ          -1.38723        -2.11905         2.37503
LJ           2.19996        -1.06052         1.49117
LJ         -0.949309         1.42744          0.6985
LJ          -1.77547         -1.0725         2.12522
LJ         -0.923537       -0.576655        -1.94469
LJ         -0.636095      -0.0196073        0.901914
LJ           1.44816         1.79856         1.30041
LJ         -0.426475      -0.0545951       -0.177139
