108
#Comment!
LJ           1.32512         2.06805        0.636298
LJ         -0.302662        0.551778          -2.342
LJ         -0.530854        -1.85833         -2.0589
LJ           1.31618        0.487209         1.76976
LJ          -1.06693       -0.581924        -1.15908
LJ           1.44734         -1.8234        -2.16926
LJ           2.09026       -0.187003        -1.31244
LJ           1.40951       -0.897586         -1.6342
LJ          0.580964         2.25528       -0.564506
LJ           2.27473        0.791036         1.99664
LJ         -0.631467        0.566989         1.45003
LJ          0.194603       -0.651268      -0.0378967
LJ          -0.70706        -1.68753        0.457206
LJ           1.41667         1.43776         1.46231
LJ         -0.784891         1.75702        -1.14688
LJ           1.28183       -0.980896         1.96702
LJ         -0.975809         1.92732         2.26774
LJ          0.996078       -0.400874       -0.743208
LJ            1.8247         -1.6286         1.51879
LJ          0.453489         1.68637         1.05385
LJ           1.56399       -0.127285         -2.2236
LJ           -1.5354        -1.92244         1.95323
LJ           -1.7013        -1.78094        0.754968
LJ          -1.14314        0.949446        -1.59258
LJ         -0.424819         2.00544        0.476819
LJ           1.68573         2.13669         2.14291
LJ          -1.31345        -1.12899        -2.14669
LJ           1.55293         1.31693        -2.04149
LJ         -0.482469       -0.423549        -1.94334
LJ          0.441234       -0.199372        -1.51787
LJ           0.26067        -1.26402         1.81247
LJ         -0.706712        -1.39985         1.84523
LJ         -0.410454      -0.0937641       -0.522582
LJ           1.33178        -1.58953        0.185084
LJ           -1.1037       -0.125902         2.07056
LJ          -1.80016       -0.995918          1.7578
LJ          0.644605        0.758679        -2.10844
LJ           2.15851         2.20649         1.27519
LJ           1.09435       -0.195543        0.211439
LJ          0.604465       -0.242667          2.1354
LJ         -0.160258     -0.00671452        0.685061
LJ        -0.0301741        -1.00374          0.8414
LJ          -2.26341         0.73249       -0.655481
LJ           1.81656       -0.854363        0.726524
LJ           1.85857        -1.57832       -0.813748
LJ          0.692565         1.59771         2.08714
LJ          0.972284        -2.18985         1.61368
LJ         -0.346484        0.460057        -1.36322
LJ          0.509953         0.50278       -0.700437
LJ          -2.21205        -1.97427        -2.02532
LJ          -2.10611         1.79343      -0.0253484
LJ          0.536535          1.3667        -1.26034
LJ          -2.12148        -1.16125        -1.27323
LJ         -0.869906        -2.23591         1.26654
LJ          -1.77511         1.66451         1.72749
LJ          0.346878        -2.32046        -1.79434
LJ         -0.274103        -1.26197        -1.08181
LJ          0.740183        -1.46783       -0.753062
LJ           1.59534         2.29168       -0.301997
LJ          -1.05669         2.21422       -0.304439
LJ           1.59361        0.576263        0.586194
LJ          -2.16995        -1.31284       -0.175985
LJ         0.0688898        -2.09233         1.04684
LJ           1.26908        0.425016        -1.43053
LJ          -1.53397        -2.37965        -1.47913
LJ           2.20384        -2.06072         0.34117
LJ           2.14139         2.13453        -1.41377
LJ         -0.445944         1.05671        0.377336
LJ           1.50856         1.34189        -1.00971
LJ          -2.04622        -2.18223       -0.666656
LJ          -1.71724         1.54459       -0.950169
LJ          0.243299        -1.70202       0.0931037
LJ           0.67823       -0.238799          1.1821
LJ          -2.11855        0.351352        0.196057
LJ           1.95635       -0.192801         1.41827
LJ           1.89336       -0.578745       -0.416111
LJ          0.565545        0.698575        0.692464
LJ          -2.16556       -0.122633         2.24698
LJ            2.3678         1.27455        0.786405
LJ          -1.90416       -0.594467        0.599152
LJ          0.308103        -1.06693        -1.98226
LJ          -1.02534        -0.47136         1.02006
LJ           1.51222        0.418007       -0.480811
LJ          -1.78082       0.0459707         1.39273
LJ          -1.19211         0.40742       -0.834144
LJ         0.0156677         2.36835          2.0233
LJ          -1.68893      -0.0151657        -1.70948
LJ          0.949072        -1.30455        0.992615
LJ         -0.280486        -2.20531       -0.870947
LJ           -1.3093        -1.53398       -0.910163
LJ          0.496516         1.46938        0.066532
LJ           1.24852         2.35985        -1.38631
LJ          -1.15917        0.156872        0.242464
LJ          -1.02527       -0.789897        -0.18826
LJ          -1.94888       -0.291039       -0.644724
LJ          -1.49134        0.899201        0.947416
LJ         -0.495924         1.54555         1.41218
LJ          0.367841        0.656295         1.65373
LJ         -0.241503       -0.330506         1.67362
LJ         -0.335268         1.06033        -0.55681
LJ          -1.37902        0.775454         2.19765
LJ          -1.31041         1.13117       -0.120593
LJ          -2.37232        0.828279        -1.69067
LJ          -1.77196         1.58855        -2.03156
LJ            2.2558        -1.03575        -2.24453
LJ           1.79257         1.28411     -0.00493767
LJ            -1.486         1.97453         0.75905
LJ         -0.113775         1.47207        -2.10481
