108
#Comment!
LJ          -2.22613        0.650875        -1.15144
LJ         -0.684271        0.015966       -0.349384
LJ         -0.727329        -1.19863      -0.0303119
LJ          0.237945     -0.00364803       -0.734915
LJ           1.48963        0.672339        0.924119
LJ         -0.967857        -1.12449        -2.21027
LJ           1.76429         1.77271        0.372601
LJ          -1.25036        0.346141         -1.1724
LJ          0.952711        -1.86315        0.328992
LJ          0.112696        -1.04615       -0.610377
LJ          -1.47887        0.801603          2.3569
LJ          0.234392        0.923864       -0.193523
LJ         -0.931578        -2.26764        -1.99025
LJ           -1.5971        0.315246         1.06465
LJ           1.87289       -0.859693        -1.82276
LJ           2.34644         2.14071         1.89346
LJ           1.21661       -0.146603       -0.239109
LJ          -1.26794          1.2262            1.49
LJ            -1.568         1.56168       -0.572521
LJ          0.786082        -1.40497         1.28874
LJ           1.16308        -2.22034       -0.778406
LJ            -0.621       -0.998801         1.20883
LJ         -0.599984       -0.159538        0.645839
LJ          0.103283        -2.18313         2.32079
LJ          -2.32135       -0.517767         1.14489
LJ           -1.3814        -1.58089         1.65365
LJ          0.969806        -1.39882        -2.02208
LJ          -2.25479         1.64839        -1.35849
LJ          -1.75752        0.677625       0.0330177
LJ        -0.0902339         2.06193        0.582691
LJ          0.697864       -0.859183        0.275629
LJ          -0.57194         1.56506       -0.193937
LJ           2.12069        -1.31619       -0.927846
LJ          -1.67395        -2.37418        -1.11922
LJ          -1.64925         1.80892        -2.25968
LJ           1.97463        -2.28476         1.02283
LJ          0.440233         1.30542        0.712391
LJ          0.956543         1.80424       -0.119298
LJ          -1.16202         1.69979        0.610197
LJ         -0.626139       -0.494878         -1.2074
LJ            2.1046         1.33485       -0.462597
LJ           1.11766         1.14483         2.24435
LJ           1.53634        0.263505         1.99263
LJ          0.444297        0.856839        -1.33259
LJ            2.1309         2.35094       -0.795368
LJ         0.0881601        -2.16269         1.42475
LJ          -1.05765       -0.126146         -2.2022
LJ           1.59534         1.48677         1.46675
LJ          0.389671         1.83254        -0.90678
LJ          -1.06311        -2.29761       -0.119851
LJ         -0.700956         2.17822        -0.96124
LJ           2.09721       -0.767122      -0.0874939
LJ        -0.0744573        -1.25076         2.07247
LJ           1.01696        -0.56495        -1.19195
LJ          0.660479         0.23608        0.496403
LJ         0.0779758       -0.254157        -1.82827
LJ          0.835964       -0.454926         1.92054
LJ           1.24924       -0.309467         1.02916
LJ          -1.96832       -0.933405        -2.31607
LJ          -2.20353        0.151933         2.00203
LJ           1.22661        -2.00631         1.99482
LJ           -1.6944        -1.15197        -1.34214
LJ          0.239282       -0.468214         1.05064
LJ            2.1224         0.21223        0.252316
LJ          -1.10067        -1.78677        0.721319
LJ           1.84647        0.672193        -1.89911
LJ          -2.03607        -1.94858        -2.04499
LJ         -0.291919         1.01591         1.38505
LJ            1.8566         1.70414        -2.12614
LJ         -0.653308         1.59785            2.18
LJ          -2.21748         1.15125         1.77557
LJ          -1.99177         2.21431        0.194426
LJ          -2.35668        0.995197        0.842884
LJ           0.94533        0.194118        -1.93432
LJ           1.48212          1.6303        -1.19434
LJ            1.7083        -1.21752        0.912997
LJ       -0.00970615        -1.57905          0.6714
LJ          -0.85138         2.37354         1.58613
LJ          -1.81515       -0.559053       -0.602809
LJ          0.381523         1.69243         1.70414
LJ          -2.16996       -0.189313        -1.68532
LJ            1.7742        -2.08152        -1.87736
LJ          -0.45587        0.774207       -0.837441
LJ          0.166196        0.845767           2.262
LJ          -2.05606        -1.46254        0.823464
LJ          0.988923         2.10644        0.926796
LJ         -0.541896        0.611574        -1.82416
LJ           0.11102        -1.16972        -1.59792
LJ        -0.0322136        -2.21993       -0.316832
LJ         -0.841004        -1.54255        -1.02391
LJ          0.963705         2.01595        -1.98018
LJ          -1.07561         1.40848         -1.4931
LJ           1.54876        0.684434       -0.921741
LJ           1.26472        -1.16467       -0.443873
LJ          0.651348        0.447537         1.49357
LJ           -1.7624         2.27314         1.11847
LJ          -1.41946       -0.548218         1.59715
LJ          -1.81833        -1.65629        -0.34253
LJ          -1.43442       -0.567897        0.502361
LJ        -0.0420402         1.58383        -1.84897
LJ           2.25627        -1.62742          1.8801
LJ           1.20723        0.916608      -0.0209579
LJ           1.76818       -0.781443         1.87102
LJ         -0.368229       -0.232651         1.85705
LJ           2.01544        -1.78964        0.169189
LJ          0.414326        -2.05642        -1.36513
LJ         -0.836648        0.748717        0.424454
LJ           1.94188       -0.211365       -0.929435
