108
#Comment!
LJ          0.446498        -1.41832        0.922038
LJ          0.703408        0.523296        -1.47412
LJ          0.881982        0.836493         1.58771
LJ         -0.626038        0.977928       -0.558575
LJ         -0.829335      -0.0845825        -2.10021
LJ            0.8694        -2.26215        0.546133
LJ           1.55909        -1.94669        -1.23799
LJ           2.29952         1.44472        -2.15677
LJ           1.68911         2.25524          1.1618
LJ          0.171352        -2.10322       -0.141609
LJ          0.995709         2.30372        -1.95565
LJ           2.08389         1.91946         -1.0923
LJ          0.539195       -0.108278        0.325116
LJ          -1.70586       -0.199704      -0.0653829
LJ          -1.03811       -0.875031         0.23544
LJ          -1.17913         1.88952         1.31098
LJ          -1.93088         1.04591         1.62619
LJ           2.36274       -0.831618        0.298708
LJ          -2.05022        -2.04124        -1.32995
LJ         -0.380684       -0.915378        -1.84378
LJ         -0.987186       0.0807331         1.07064
LJ          -0.44019         1.99271       -0.505575
LJ           2.03658       -0.449918         1.53738
LJ           1.00952         1.55491        0.885892
LJ         -0.742647       -0.721792       -0.858219
LJ          -1.18639         1.83498        0.129272
LJ          -1.97239          1.9253        0.764721
LJ          0.511741       -0.554472         -2.2293
LJ          -1.37293        -2.00614         0.44334
LJ            1.2622       -0.888378        0.472918
LJ          -1.40529         -1.9141         1.44222
LJ         -0.656247        0.968141        0.542071
LJ        0.00705563         1.45391         1.10579
LJ         -0.861763        -1.66758       -0.335215
LJ          -2.20938       -0.168953       -0.908924
LJ           1.41519         1.26528       0.0206396
LJ         -0.226612         2.27257         1.63792
LJ           -1.4357         1.01458        -2.25347
LJ       -0.00385279        -1.10577       0.0810896
LJ          0.178208         1.45046        -1.08552
LJ           2.13008        -2.37232        -2.06316
LJ          -2.17115         2.01483         1.75686
LJ           1.13578       0.0440551         2.08649
LJ          0.581034          1.7619       -0.166648
LJ          -2.07627        0.141225        -1.87892
LJ        -0.0496371        -1.56051        -1.03345
LJ         -0.177582       -0.573783        0.949106
LJ           1.35291        0.403432       -0.475665
LJ           2.28143       -0.763347        -2.18212
LJ        -0.0022462        0.411886         1.08749
LJ          0.440517        0.913322        0.395957
LJ          0.593085        -2.26039        -1.07497
LJ            1.3863       -0.395629         -1.6409
LJ         -0.868566         1.52007        -1.35725
LJ          -1.65276         1.94633        -1.85548
LJ         -0.309615         2.33741        0.619316
LJ         -0.753252        0.974124         1.54068
LJ          -1.32298        0.295812        -0.96612
LJ          -1.59959        0.962106        -0.32984
LJ          -1.69669       -0.998462        -1.63049
LJ         -0.762798       -0.704974         1.79047
LJ         -0.663155        -1.77504         2.21193
LJ         -0.137668        -0.10125        -1.34211
LJ           -2.3402        -1.86432        0.838916
LJ           1.33631        0.321902        0.655433
LJ           1.73659         2.25113        0.101447
LJ          0.773235       -0.459403         1.23504
LJ          0.960106        -1.96059         1.80678
LJ         -0.621345         1.59405         2.32366
LJ           2.26101        0.887392       -0.492006
LJ          0.723161        -0.57122       -0.460882
LJ           1.20883       -0.950213          1.9799
LJ          -2.21751         1.77207         -0.2184
LJ          -0.95418        -1.60379         -1.5029
LJ          -1.49117        0.117616         1.97949
LJ          0.175499        -1.03209         1.78559
LJ           1.87056        0.633799        -1.38483
LJ         -0.522764       0.0641242        0.158167
LJ           2.24539        0.334972        0.329181
LJ         -0.584243        -1.51791        0.898458
LJ          0.304376        -1.79093        -2.21811
LJ           1.41879        -1.61431        -2.09872
LJ         -0.448555        0.753725        -1.82707
LJ          -1.85812         1.07404        -1.38644
LJ           2.37183        -1.57731         1.87424
LJ          0.164919        0.426025       -0.428931
LJ           1.14444        -1.60009        -0.40475
LJ         0.0454311        0.352462         2.10575
LJ          -1.91353      -0.0558756         1.12884
LJ         -0.122987         2.21555        -1.65357
LJ           1.58461        -1.45951         1.22595
LJ           1.61641          1.4812          1.9112
LJ           1.98586         1.07494         1.06882
LJ            1.1545          1.2536        -1.05217
LJ          0.367857         1.19671         -2.2056
LJ          -1.62289        -1.83958         -2.2432
LJ           1.33549        0.944876        -2.14212
LJ           -1.3697         2.17764       -0.773339
LJ           2.15276        -1.18177        -1.25983
LJ          -1.69185        -1.08586        0.986526
LJ          -1.70404        0.860649        0.632577
LJ          -1.70267       -0.848554         1.96267
LJ           2.22499        -1.70636       -0.304839
LJ           2.23196        0.433054         2.03757
LJ           1.74619       -0.600121       -0.440401
LJ          0.570775         1.73225         1.81613
LJ          -1.76069         -1.1183       -0.639287
LJ           0.71367        -1.14001        -1.32858
