108
#Comment!
LJ           2.37969         1.03102       -0.234794
LJ         -0.495885        -0.20137        -1.13158
LJ             0.346        0.860575         1.55309
LJ          -1.02872        -1.84925         1.11415
LJ         -0.174242         -0.6155         2.24648
LJ          -1.47254         1.49157        -1.49376
LJ           1.84267         1.06181         1.97588
LJ          0.280989       -0.178511        0.706298
LJ          0.096458        -1.72832         1.30564
LJ         -0.417081        0.233224         1.61533
LJ          0.909763       -0.760625        -2.11056
LJ           2.22361       -0.831884       -0.979873
LJ           1.95262        -1.87501        0.325092
LJ          0.558123      -0.0450361        -1.44899
LJ          0.976066         1.56741          1.2663
LJ         -0.264371       -0.824587         1.24872
LJ          -2.15521       -0.835019      -0.0633648
LJ          0.199086       -0.842384       -0.585687
LJ          -1.02367        -1.13978           1.797
LJ         -0.710694        -1.11323       -0.657878
LJ         -0.416138       -0.868599        0.281044
LJ            1.9025        0.812085        0.775347
LJ          0.373996         1.95723        0.441398
LJ          -1.55548        0.421541       -0.236632
LJ          -1.13178        0.911124         1.76525
LJ         -0.686716        0.216052        0.590444
LJ           -1.9137        -2.34428        0.950517
LJ          -1.31447        0.598683        -1.93457
LJ           1.59434       -0.892649       -0.229134
LJ           1.47689       -0.173234        0.664944
LJ         -0.158155         1.27951         2.31535
LJ          0.153821        0.888465          -1.492
LJ        -0.0877415        -1.83761        0.307471
LJ          -1.00323         1.88478         1.41809
LJ           2.09126        -1.91968         1.49444
LJ       -0.00522059         1.82364         1.48881
LJ          -1.98849       -0.257489        -2.14309
LJ          -1.78072        -1.89808         1.96603
LJ          -1.77834         1.52369        0.418609
LJ         -0.760972        0.689363        -1.04999
LJ          0.573876        0.561338        -2.33927
LJ        -0.0996781        -1.62969         2.28406
LJ         -0.946337        -2.35281       -0.717615
LJ          -2.08389       -0.137284        0.716865
LJ           1.26201        0.474181         1.50845
LJ         -0.470228        -1.89506        -1.59573
LJ           1.25093         1.50901        -0.22487
LJ          -1.55746        -1.10017          -1.052
LJ           2.36585        0.301739        -1.45243
LJ           1.14273        -1.13043        -1.10929
LJ          0.784193        0.809445       -0.673828
LJ         -0.185647         1.85351        -0.46129
LJ           1.21249        -2.29325        0.986681
LJ          -2.11492         1.63074         1.78612
LJ          0.804362        0.791282        0.502771
LJ         -0.395826        0.274251        -2.03267
LJ          -1.19977       -0.479827       -0.106332
LJ         0.0172925        -1.01469        -1.62645
LJ           1.15967        0.806579        -1.60594
LJ           2.00193         1.77321        0.770432
LJ          0.111355         2.17184        -2.07022
LJ           1.46399       0.0497603       -0.957229
LJ          0.626349        -1.82058        -1.64505
LJ          0.656224        -2.35198         1.91586
LJ          0.538358         1.81214         -1.1203
LJ          -2.07144        -1.27368        0.865495
LJ         -0.938822         1.16735       0.0183511
LJ          -1.35942       -0.148856         1.87342
LJ           1.86793         1.34044        -1.03265
LJ           2.11061          2.0607       -0.194105
LJ          0.655938        -1.06261        0.774626
LJ           2.16625       0.0628164         1.55259
LJ          0.816409       -0.190928       -0.175906
LJ          0.832609         1.48414        -2.33867
LJ           1.94893       -0.796847        -1.95133
LJ           1.47269        -2.13425       -0.888653
LJ          -1.69345         1.76896       -0.549413
LJ          -2.00969        0.668319         2.18172
LJ          -1.23977        -1.50492       0.0862718
LJ          0.555304       -0.279164         1.64221
LJ          -2.18705       -0.796091         1.85645
LJ          -1.50098     -0.00721816         -1.1513
LJ           1.48147        0.225335        -2.29993
LJ           1.39232        -1.82189        -2.27119
LJ           2.25483         1.27855        -1.95023
LJ           2.12834        -1.77528        -1.61215
LJ          0.788978        -1.32664         1.89146
LJ           1.57054        0.569683       -0.115564
LJ         -0.143545         1.14786        0.735284
LJ         -0.965435       -0.827865        -1.81236
LJ          0.224792        -1.80115         -0.6521
LJ          -1.82917        -1.27725        -2.02237
LJ           1.45653         1.92726        -1.68528
LJ           1.55983       -0.630993         1.89555
LJ          0.970412         -1.6887       -0.018853
LJ           2.36116         2.18678         -1.1353
LJ           1.73168         2.01318         2.06124
LJ           -1.8935        0.799409         1.12021
LJ          -2.18669        -1.64246       -0.565513
LJ         -0.548542          1.8425        -1.40817
LJ        -0.0963866        0.306662       -0.325511
LJ           2.24554       0.0129229       -0.435762
LJ          -1.51233        -2.10768        -1.48538
LJ           1.65888        -1.14244        0.891556
LJ           -2.2207         2.28069        -2.11329
LJ         -0.936209        -2.19529         2.28171
LJ          -1.24366       -0.588339        0.925102
LJ          -0.94138         2.26656        0.257278
