108
#Comment!
LJ           0.63755        -1.03612        -1.66302
LJ          -2.23539        -0.85625         -2.2118
LJ         -0.732513       -0.785243        -1.51294
LJ           1.48867         1.13256       0.0666458
LJ           1.58128         1.74743           1.303
LJ          -1.76435       -0.743894        0.515619
LJ           1.83296         2.24207          -2.212
LJ          -1.21238        -2.22147         2.18138
LJ           1.47432          -0.562       -0.397669
LJ           1.69734         -1.5406         -2.1573
LJ           2.09207        0.689966        -2.11659
LJ         -0.146955         1.16952        0.850442
LJ          -1.51217         2.05901         -1.6072
LJ          -1.44623        -1.05255         1.86695
LJ          -1.67887        0.883379        -1.96501
LJ          -1.92288        -1.74605        0.161093
LJ         -0.639266         2.13729       -0.944675
LJ            1.2282        0.919086         1.06356
LJ          -2.23605        0.696137        -1.13677
LJ          -2.31267         2.28539         1.23191
LJ          -2.19328        -1.82878         2.15993
LJ         -0.353558         2.30482        0.721355
LJ          0.549268        0.264902        0.959631
LJ         -0.906594       -0.296456         1.31135
LJ          -1.80795        0.226351         1.81746
LJ          -1.05613        -1.49377        0.486624
LJ           1.40447        -1.41845        -1.03091
LJ           1.93212        0.346617         1.56122
LJ          -1.35789       -0.085985        -2.07698
LJ          -2.02785        0.732527        -0.18566
LJ          0.783218        -2.27779       0.0562873
LJ          -1.59651         1.32947         1.28289
LJ           2.33963         -1.1693       -0.556492
LJ           1.84133         2.31548       -0.208268
LJ          0.673877          2.2344         1.10195
LJ          -1.26181        -1.61833       -0.718609
LJ          0.589277         -1.9997         -1.9551
LJ          0.536684         1.78475        -1.93578
LJ         0.0203443         1.39175        -1.19277
LJ       0.000697029       -0.862626          1.5623
LJ           1.53669          1.2587        -1.22335
LJ           1.59108        0.392332       -0.602107
LJ          0.453331         1.35497         1.66762
LJ          0.406984       -0.205091        -2.17078
LJ          -1.38713         1.44843       -0.607434
LJ         -0.539264       -0.356719          2.2266
LJ          -1.31141        -2.36179        0.940957
LJ           -2.0997        -2.24318       -0.719814
LJ           1.08717         2.35864         1.98927
LJ          -2.02273         1.80587        0.193551
LJ           1.65801         2.27597        -1.27367
LJ           2.30837        0.984497        0.823388
LJ         -0.317159        -1.73189        -1.29513
LJ         -0.318043         1.15274        -2.33445
LJ         -0.658268         1.73054         1.55299
LJ          0.629957        0.666512      -0.0805745
LJ          -1.26631        0.201939        -1.06225
LJ           0.15637       -0.197586       -0.177143
LJ           1.65623        -1.35485         1.69062
LJ          -2.32721         -1.6778        -1.53453
LJ          -2.07642        -1.46975         1.07589
LJ           1.91833       -0.501519        -1.23334
LJ          0.603659        -2.20657        -1.00204
LJ           1.53734        0.178174        0.407463
LJ         -0.725208        -1.62294         1.41444
LJ         0.0804174        0.444529         1.81103
LJ           1.90735       -0.755453        0.577208
LJ         -0.171759        -2.04543       -0.159117
LJ           1.34514        0.146676        -1.83967
LJ        -0.0800117        -2.28796         1.85118
LJ          -1.34888        0.426376        0.895778
LJ          -2.25967       -0.222444       -0.510715
LJ           2.33822         1.55557       -0.738081
LJ            1.0895        0.356517         2.01182
LJ           1.43228       -0.626733         2.29096
LJ           2.27085       -0.562893         1.58696
LJ          0.576435         1.61957        0.420466
LJ         -0.428238           2.271        -1.99533
LJ          -1.79981       -0.771836         -1.3039
LJ            2.3644         1.45224         1.89624
LJ         -0.380115        0.217559          0.5541
LJ          -1.39778         1.56863         2.20619
LJ         -0.886791         1.28894        -1.45068
LJ          0.562683         0.79181        -1.97096
LJ         -0.330287         1.59552       -0.101536
LJ           1.47339        -1.46577       -0.042756
LJ          -1.34226        -1.51062        -1.88573
LJ          0.464052        -1.21875       -0.445312
LJ          -2.37219         1.55973        -1.74877
LJ         -0.295497       -0.755567        0.601227
LJ          -1.14576         1.26742        0.352772
LJ         -0.924927        0.707308         1.79996
LJ          -1.27077       -0.105406      -0.0433114
LJ          0.288493        -1.64157        0.736331
LJ            1.2006       -0.558528         1.37361
LJ           -1.2077         2.33225       -0.159725
LJ         -0.519295        0.233268        -1.65603
LJ          0.574708        -1.52902          1.8437
LJ         -0.684873        0.753727       -0.443989
LJ           1.31576         1.40101         2.18312
LJ          0.810828        -0.73458        0.360572
LJ          0.411846       -0.270691         -1.1291
LJ           1.51871        -2.12586        0.734847
LJ         -0.288238        -1.30182        -2.31542
LJ          -2.29245       0.0372086        0.726636
LJ          0.834728         1.67577       -0.529467
LJ         -0.517029        -1.00974       -0.576576
LJ          0.667572        0.697905        -1.01492
