108
#Comment!
LJ         -0.505698        -1.12612        -2.04743
LJ         -0.164094       -0.545968         1.70845
LJ           1.35526       -0.253256        0.133162
LJ        0.00636096       -0.521318      -0.0564472
LJ         -0.449385        -1.06633        0.949661
LJ          -0.67869          1.6829        -1.05262
LJ           1.71077         1.61542      -0.0181616
LJ         -0.735798         1.76556         1.78428
LJ           1.51559        -1.74077        0.748029
LJ          0.109259        -1.49278         1.82642
LJ          -1.13568        -1.24045       0.0790586
LJ           2.07449       -0.430161         2.36678
LJ         -0.306106        -0.35059        -1.38525
LJ            1.2519        -1.36542        -1.04448
LJ          -2.04454         1.61951        0.184059
LJ           1.73135        -1.19056       -0.127124
LJ          -1.19783        -0.19025        0.386951
LJ           1.67424        0.417094        0.791421
LJ           2.36876        0.974742       -0.654488
LJ          -1.47859        -1.55864        -1.75194
LJ          0.948348        0.632833         1.51905
LJ          0.551393        -1.32469        0.924693
LJ          0.868448        0.584475       -0.997063
LJ          0.539141         2.30815         2.34503
LJ          -1.10691        0.801929         1.99909
LJ           1.06222        -2.29432        -1.37164
LJ         -0.826308        0.879114        0.927041
LJ          -1.64835       -0.700828       -0.575255
LJ           2.04822         1.38509         1.07635
LJ          -1.95634         1.77532         1.79247
LJ           1.46592        -1.38331        -2.10999
LJ          -1.72865        0.637959        0.325976
LJ          0.628901         2.24652        0.340429
LJ          0.458181         1.54128         1.78409
LJ          -1.58825        0.327762       -0.736726
LJ           2.16467       0.0141323       -0.912689
LJ         -0.803289       -0.180907        -2.31417
LJ          -2.12369         1.21236        -2.17049
LJ           1.22791        -2.35709       -0.356175
LJ         -0.280275        -2.35856        -1.67352
LJ           1.10884        -1.79572         1.81315
LJ          -2.06359         2.29717        -2.09441
LJ          0.854474         1.16827        -2.01836
LJ          -1.01475        -2.26442        -2.27814
LJ           2.07938        -2.01729        -1.44168
LJ          -1.37957          2.2247       -0.238801
LJ          -2.35851        -1.55585        -2.30719
LJ          0.422826         1.78189        -1.31283
LJ           1.44945       -0.904873         1.77806
LJ        -0.0377294         0.58128         1.79415
LJ           1.80382        0.812633        -1.85107
LJ           -1.4341        -1.99481        0.642811
LJ          -2.20366       -0.881826         1.61677
LJ          -1.17322         1.13585       -0.359472
LJ          -1.84593        0.909835         1.37594
LJ         0.0966458         1.52893        0.749905
LJ          0.819034       -0.187399         2.18364
LJ           2.18802       -0.917039        -1.47613
LJ        -0.0681015        0.703366        -0.88852
LJ          -2.13461         1.99535       -0.904933
LJ          -1.29987       -0.358916          -1.455
LJ         -0.695981        -2.23182         1.19673
LJ          0.513239        -1.62658         -1.8519
LJ           1.27401         2.03503          1.1591
LJ          0.965367       -0.446938       -0.779113
LJ           1.90304        0.370595         1.81253
LJ           1.46322      -0.0611905        -1.58173
LJ           1.50523         1.33709         2.03988
LJ          -1.41239          2.3334        -1.37165
LJ          0.631817       -0.681377         -1.7026
LJ          0.181638        0.334399        -1.99307
LJ          -1.84859        0.112682         1.96445
LJ          0.126472        -1.30692       -0.976428
LJ          0.672354        -1.53065       -0.132735
LJ          -1.00828        -1.05191         1.89832
LJ           -1.4155         -1.0616          1.0174
LJ          -1.90726        -1.77212       -0.767487
LJ          0.370882        -2.29968         1.30515
LJ          -2.14323        -1.28146        0.245026
LJ         -0.415364        0.603695       0.0886853
LJ          0.125925        0.279576        0.817535
LJ           0.52647        0.288994      -0.0691561
LJ          -1.59268         1.14088        -1.27122
LJ           1.09476         1.22282         0.66885
LJ          -2.15479       0.0391231         1.00055
LJ         -0.355674         1.97864      -0.0922237
LJ          0.906955       -0.318027          1.1605
LJ          -2.03707        0.344294        -1.69829
LJ            2.3743       -0.278341       0.0405719
LJ           -1.1898         1.55953        -2.06855
LJ             1.485        0.669611       -0.273706
LJ           1.74547         1.75695        -1.20714
LJ           1.52457         2.13185        -2.10717
LJ          0.176624        -2.21113        -0.77529
LJ         -0.275849         1.28301        -2.10657
LJ             2.134        -2.11715       -0.147109
LJ         -0.744181        0.548602        -1.61663
LJ          -1.55115        -1.93747         1.62222
LJ         -0.845918        -1.79449        -0.84182
LJ          -1.77447       -0.766099        -2.24495
LJ           2.14996         2.31801        0.768175
LJ          -1.01766      -0.0489396         1.35323
LJ           0.62946         1.33557       -0.285685
LJ          -1.26341         1.80253        0.751647
LJ         -0.299677        -1.84952        0.295744
LJ           1.97347         -2.3292         1.74028
LJ         -0.782454       -0.224827       -0.531766
LJ           1.90381       -0.836767        0.850685
