108
#Comment!
LJ           -1.3178        -1.02415         1.31146
LJ         0.0421556         2.23384        -1.40915
LJ          0.600298        -1.93863         1.90172
LJ           1.35037        0.887454         2.15415
LJ         -0.349614       -0.482368         1.17651
LJ           1.22661         2.30024         1.33448
LJ         -0.605302        -1.95012       -0.845328
LJ          -1.87106         1.72131         -1.6742
LJ           2.15406         1.05314        -1.67516
LJ          0.320924        -1.48004        -1.85664
LJ          -1.98528       -0.184662         1.26818
LJ           1.46933       -0.498082        -1.10715
LJ         -0.749299        -1.00579        0.449634
LJ         -0.677412        0.526195         1.70116
LJ          -1.94385         1.54503        0.160706
LJ          -1.56461        -2.01903         1.94398
LJ          0.725943         1.42132        0.673895
LJ           2.05826         1.00107        0.269347
LJ           2.10422        0.310444         1.82771
LJ            1.5676        -1.70886        0.670454
LJ           0.78381        -1.11881       0.0658206
LJ          -1.29137         1.91692         1.06925
LJ          -2.36158         2.35962        -2.30165
LJ        -0.0567372         1.25884        -1.44967
LJ         -0.299657         1.68132       -0.554878
LJ         -0.794381         1.59348        -2.04246
LJ           1.33984        0.400915        -1.70355
LJ          -2.17458         2.07618         1.46785
LJ          0.872725       -0.572563        -1.90879
LJ          -2.22464         -1.1668        -1.56706
LJ           1.95301        -1.77463         1.55016
LJ          0.623724         1.46576         1.67695
LJ         -0.334185        0.391434        0.291949
LJ           -2.2467        -1.71746       0.0563072
LJ         -0.845389        -1.94996         1.21325
LJ         -0.991075        -0.36525         2.01164
LJ          0.384246        0.397468        -1.71849
LJ          -2.12987        0.955508       -0.806613
LJ           1.36478        0.280551         1.15181
LJ          0.539911       -0.800485         1.68806
LJ          0.428721        -1.91621       -0.723537
LJ           1.79715       -0.963457       -0.286995
LJ           0.51173      -0.0921316        0.764335
LJ          0.167871         2.25594         1.12762
LJ          -1.25705        -1.77685        0.169308
LJ        -0.0717686       -0.529731       -0.285176
LJ         -0.400638        -1.10778          2.0781
LJ         -0.997512         2.02463       0.0793547
LJ         -0.910321        -1.04751       -0.612104
LJ            1.8014       -0.345118        -2.18758
LJ          -1.02951        0.989936       -0.341057
LJ           2.02578        -1.95686        -1.05291
LJ         -0.180197       -0.416202        -1.47696
LJ         0.0919037        0.832798         2.24592
LJ           -2.0917         0.84522         1.22125
LJ           1.37247         1.95133           2.255
LJ          -1.60322        -2.15882         -1.6842
LJ          -1.98699       -0.598738        -0.77358
LJ          -1.78253       -0.820477        0.151388
LJ          -1.12276       -0.100262        0.743597
LJ          0.730652        0.126807       -0.729056
LJ           -1.7123        0.359134       0.0356984
LJ          -2.11341         2.12946       -0.705189
LJ           1.59099        0.946021       -0.659559
LJ          0.227217         2.03793         -2.3476
LJ          0.233407        0.735253          1.1752
LJ          -1.27998        0.975838        -1.30683
LJ            1.4079       -0.529267        0.607204
LJ           2.24568      -0.0565913        0.412768
LJ          -1.60588        -1.74174       -0.776699
LJ           2.29244          1.3841         2.06916
LJ           1.14644        0.549433        0.171605
LJ             0.822         1.43781        -1.89331
LJ          -1.45209          1.7195         2.02742
LJ          -1.95177       -0.154286         2.35658
LJ           2.31254        -1.09578         0.81748
LJ           0.29687         1.02692       -0.108532
LJ         -0.669668        -1.31623        -1.63323
LJ            1.7031        -1.33121        -2.13893
LJ          -1.85364        -1.85041         1.05756
LJ           1.05818         2.35313        -1.69594
LJ        -0.0336441       -0.173665          2.3225
LJ         -0.251704        -1.98466        0.131485
LJ            2.2541         2.17428        0.547105
LJ          -1.15468         1.97658        -1.03654
LJ         -0.437507         1.58787         1.77498
LJ          -1.71892        0.913914        -2.23077
LJ           0.76007         1.76201       -0.661685
LJ            1.2247        -1.48952        -1.34546
LJ         -0.617688         -2.0651         2.28595
LJ           1.50071         1.79333       0.0206446
LJ            1.9212         1.99019        -1.53997
LJ          -1.13038      -0.0425827       -0.747771
LJ          0.120758        -1.46586         1.07937
LJ           2.12001        0.148449       -0.512769
LJ          0.529011       -0.964065       -0.896261
LJ         -0.388692         1.53913         0.70225
LJ         -0.294263        0.465965       -0.831613
LJ            1.5844       -0.874095          1.5879
LJ           1.01139      -0.0568642         2.04057
LJ          -1.39868       -0.700931        -1.74066
LJ          -2.29384      -0.0055876        -1.46851
LJ          -1.26428        0.907464        0.718605
LJ         -0.806974        0.485958        -2.12034
LJ          -2.19892        -1.06892         1.89199
LJ           1.71704          1.2779          1.2778
LJ          0.671533        -2.03628        0.474382
LJ           1.34691        -2.05417       -0.344977
