108
#Comment!
LJ           0.14905        -1.25951        -2.34083
LJ           2.18623        0.283329        -2.10868
LJ          0.758474       -0.719865         0.57021
LJ         0.0837124        0.412218      -0.0164221
LJ         -0.224518        -0.61489       0.0185638
LJ         -0.599509        0.220209        -1.86513
LJ           1.42655         1.86334        0.414094
LJ          0.797207        -2.36656        -1.90664
LJ           1.52113        -1.75766        0.280752
LJ          0.624568        -1.78455         1.25282
LJ          -2.04533       -0.652506       -0.476139
LJ          -2.27785       0.0795213        0.568501
LJ          -1.05438        0.833624        -1.12573
LJ           1.42332       -0.725563        -1.32663
LJ           -2.2636        -2.03241       -0.262152
LJ           2.32877       -0.298878        -1.27016
LJ          -1.41787       -0.599409        0.199023
LJ            1.2806         0.45362         1.92379
LJ          -2.01008         1.73517        0.126499
LJ           2.08795         -1.1334        -2.04026
LJ          0.463697         0.75828        -2.22841
LJ          0.109683       -0.941501         1.40684
LJ           1.13549        0.102156        0.120261
LJ         -0.158063        -2.05882        -1.89503
LJ          -1.53757        0.186556         1.22714
LJ           1.07999        -1.45148       -0.565745
LJ         -0.861923         1.78325         1.46558
LJ          -1.67239         0.25238       -0.569208
LJ            1.5976        -2.23067         1.17496
LJ          -0.37581        -1.68947         1.59989
LJ           2.06862          -1.354       -0.892868
LJ           2.17363         1.59095         1.13655
LJ          0.371133         2.25946       0.0730682
LJ            1.3091         1.72967         1.98736
LJ          -1.77749          1.4939       -0.822341
LJ           1.47498       -0.103286         1.08788
LJ         -0.700384        0.538826         1.95413
LJ          -1.72791         1.82534        -2.07609
LJ           1.72142       -0.762803       -0.114261
LJ          -0.46513        -2.05298       -0.123228
LJ           2.17087         1.31432         2.16143
LJ          -1.37805        -2.06078        0.848993
LJ          0.993932         1.50826        -1.26533
LJ           -1.0275        -1.92373        -1.15048
LJ          -2.05012        -2.30825        -1.26021
LJ          -1.29007        -1.49163       -0.106845
LJ          -1.93506        -1.82709        -2.15316
LJ         -0.965339         1.81773         -1.3256
LJ           1.63113        -1.93847        -1.64782
LJ          0.219166         1.86891         2.28621
LJ           2.22922       -0.513148         1.87782
LJ         -0.655612        -1.20548         0.74659
LJ          -1.74544        -0.85449        -2.36332
LJ         0.0509786          1.4311        -1.58593
LJ          -1.64319          1.0724         1.86387
LJ         -0.141407          1.7892       -0.658499
LJ           1.35942        -1.79427         2.10536
LJ           2.00763        0.354347       -0.332219
LJ         -0.884307        0.912133        0.908491
LJ           1.59615         -2.3556       -0.560916
LJ          -1.54823       0.0858376         2.21801
LJ          0.180346        -1.45506        0.310637
LJ          0.594223        -2.33496       -0.865209
LJ          0.605458         2.00182         1.29649
LJ           1.29574      -0.0417288        -2.03014
LJ           1.19413         1.20765          1.1336
LJ           1.45868         1.01168        -1.94324
LJ           2.08411         2.30472          2.2427
LJ         -0.773752         1.23447       -0.177371
LJ          0.687666        -1.36745        -1.51276
LJ          0.434285       -0.271351        -1.55069
LJ          -1.87306         2.11241         1.58039
LJ         0.0293336        0.568893        -1.09347
LJ          0.636901       -0.470862       -0.418268
LJ         -0.965438        -1.43475        -2.11624
LJ           2.27644        -1.52017         1.83454
LJ          -1.64264        -1.16707        -1.42859
LJ           0.18773         1.34893        0.599578
LJ          -2.30239        -1.23036        0.477881
LJ          -1.76093        0.828953        0.249917
LJ         -0.629498      -0.0533868        0.889557
LJ          0.546596        0.157082         1.42627
LJ           1.92051         1.50372       -0.550177
LJ          0.157522         1.07819         1.54469
LJ          -1.60594       -0.810305         1.23291
LJ         -0.299991          2.3067        0.851239
LJ            1.0327       -0.727665         1.90277
LJ          -1.49466       -0.179822        -1.53765
LJ           1.94681        0.996159        0.363025
LJ         -0.923683         2.29787        -2.37983
LJ           2.28006        0.559001         1.44921
LJ          0.855941         1.13376       -0.337754
LJ           2.17555        0.810679        -1.25648
LJ         -0.274771        -1.31902       -0.867353
LJ         -0.911835         1.27074         -2.1235
LJ          -1.27012         2.24912       -0.385894
LJ          -1.81427        0.815161        -1.90045
LJ           -1.4652        -1.68141         1.75717
LJ         -0.590448       -0.742345        -1.56457
LJ         0.0190989       -0.283453         2.29882
LJ          -2.31943        -2.26407        0.700213
LJ         -0.891103       -0.605669         1.96899
LJ            1.0553        0.409829       -0.946365
LJ          -1.08104         1.78483         0.48086
LJ           -1.0423       -0.659782       -0.691663
LJ           1.91209         1.80405        -1.62305
LJ         -0.908375         0.27832       0.0261041
LJ           1.52277        -1.13964         1.07684
