108
#Comment!
LJ          -2.18123         1.77698         -1.7462
LJ          -2.18747        -1.27094        -1.61961
LJ         0.0154189        0.276587        -1.16423
LJ            1.7735        -2.09355       -0.472347
LJ           1.96336         2.27731         1.19218
LJ        -0.0474946        -1.60216       -0.474317
LJ         -0.381299         0.82808        -2.23279
LJ          -2.07518         0.74527         2.29919
LJ          0.654785         2.09965        -2.11403
LJ           0.84366        -2.20167       -0.109331
LJ          0.243746       -0.644231       -0.644017
LJ          -1.74276         2.09765         2.00903
LJ          0.594001         1.43422        0.143199
LJ           2.27122       -0.840216        0.315138
LJ           1.58419        0.689314         1.70629
LJ          0.512722        -1.70127        -2.27189
LJ         -0.136821        0.831011         1.40904
LJ        -0.0413607          2.1336       -0.381437
LJ           1.22515        0.433985        -1.19913
LJ        0.00850072        -1.23217        -1.38296
LJ         -0.610426         1.17485        -1.35699
LJ         -0.941459       -0.779687       -0.814206
LJ         -0.266074       -0.786188         1.09501
LJ           1.24028         2.14426        -1.13346
LJ         -0.966328        -1.69785         1.56404
LJ           1.92169          1.2027        0.824583
LJ        -0.0596453        -2.04218          1.7255
LJ          0.140652         1.74838         1.76858
LJ          -1.98995         1.69584         1.15042
LJ           -1.3252         1.26519        -2.10014
LJ           2.09871        0.550811       -0.768353
LJ          0.645603        0.603857         1.96531
LJ           1.11875        -2.19351         1.82428
LJ          0.354435        -1.39402         0.53481
LJ           1.43024       -0.793801         0.79972
LJ         -0.313808       -0.381712        -1.83139
LJ          -2.20049        -2.16704        -1.13239
LJ          -1.22309        0.283391        -2.02666
LJ           1.10461        -1.11484      -0.0725627
LJ           -1.7532        -1.39223       -0.642095
LJ           1.58059       -0.192067       -0.231992
LJ          -1.20735          2.1307        -1.42488
LJ          -1.66439       -0.115678         1.93644
LJ          -0.83204         -1.9839       -0.228484
LJ           1.73629       -0.384003        -1.35611
LJ          0.278005        -2.20719        -1.25256
LJ          -2.28546        0.295072        -1.63565
LJ          -1.84287        -1.99958         1.15479
LJ          -1.05163        0.775706         1.73111
LJ          -2.27353        0.349616        0.225656
LJ          0.624637         2.28263        0.878565
LJ          -2.19847         1.43997        0.128142
LJ          0.960232        -1.35576        -1.08566
LJ          -1.57766        0.981319       -0.960897
LJ          -1.90428         2.31434       -0.206649
LJ          0.811887         0.51285       -0.287002
LJ           1.66291         2.09104        -2.08361
LJ         -0.611495      -0.0648794         1.97007
LJ           1.36765        -1.78728        0.863996
LJ          -1.31478         2.14934        0.489601
LJ          0.646675       -0.274648         1.23273
LJ           2.36061       -0.578872        -2.31385
LJ            2.0048        -1.20622       -0.838487
LJ         -0.442809        -2.04364        0.764062
LJ           1.49386         1.19026       -0.298415
LJ          -1.43342       -0.500815       0.0776787
LJ          0.727614        -1.24439         1.55735
LJ           0.93695         1.19619         1.11226
LJ           1.46214         1.99879        0.312159
LJ          0.577428         0.85781        -1.83427
LJ          -0.24994        -1.14912         2.14646
LJ          -1.70212        -0.84734         1.15762
LJ          -1.52166        0.223541        0.968359
LJ         -0.958467        -1.58602        -1.42334
LJ         -0.951132        0.222658        -1.02099
LJ         -0.168161         1.15036       -0.433571
LJ          0.712262         1.34745       -0.920868
LJ          -1.00133         1.79336       -0.480069
LJ           1.34167        0.124297        -2.11738
LJ           1.54576       -0.344497         1.88303
LJ          0.233952         0.54988        0.560331
LJ           1.51076        0.294948        0.686972
LJ           -2.0167       -0.327304       -0.702456
LJ           2.32688       -0.158153         1.05705
LJ           1.67866        -1.76579        -1.62744
LJ            2.2336         -1.8938        0.337303
LJ           -1.3193        -1.42724        0.419232
LJ          0.736121       -0.489632        -1.60057
LJ           1.37845        -1.25362         2.29183
LJ          0.497767       -0.356786        0.223045
LJ          -2.34924        -1.96014         2.27008
LJ          -1.32781        0.583276        -0.13511
LJ           1.15358         1.48923         2.06263
LJ         -0.829349         1.75121         1.52783
LJ         -0.405071         1.88965        -2.06426
LJ           1.85909         1.11423        -1.79357
LJ           2.20261         1.70682       -0.761161
LJ         -0.184521         1.72821        0.669008
LJ          0.422244       -0.367947         2.25013
LJ         -0.450796       -0.945862        0.143376
LJ          -1.03338          -2.145        -2.25717
LJ           2.14134        -1.09637         1.52683
LJ          -1.22106          1.1716        0.645192
LJ           -1.2544        -1.08897         2.23049
LJ          -1.44771       -0.587936        -1.57493
LJ         -0.624071       0.0948313        0.751209
LJ           2.16703         1.46722         1.90433
LJ           -0.3573        0.111456       -0.144831
