108
#Comment!
LJ           1.58283       -0.689528        0.187691
LJ           -1.4251         1.10464         2.36013
LJ          -1.72397       -0.897583       -0.241097
LJ           2.01655        0.409463         1.02294
LJ         -0.717351        0.681809        -1.41796
LJ           1.03071         2.24371        -1.71851
LJ          -1.03024         1.72032          -1.718
LJ          -1.66088        -1.18899        -1.17034
LJ          -1.36298        0.741478        0.813225
LJ           2.10624       -0.695603        -2.25728
LJ         -0.539628        -1.92824        -2.12571
LJ          0.468988        0.769628       -0.360076
LJ           2.25604         2.26818        0.102042
LJ          -1.40176         1.12014       -0.738259
LJ          -2.07183        -1.63609         2.34247
LJ         -0.585398         1.12059         1.60271
LJ           2.22235       -0.457293       -0.571843
LJ           -2.0788        0.184067         2.37912
LJ          -1.66856         1.68667         0.08248
LJ         -0.184111        -1.10961          1.9433
LJ           1.74303        -1.53324         1.97767
LJ          -0.84495         2.00834         2.09298
LJ           2.09507        -1.48148        0.708466
LJ         -0.800217       -0.171526        -2.25742
LJ           2.09872          1.5522        0.757325
LJ           2.02898         2.31015          1.5965
LJ         -0.421706         1.85398        0.820243
LJ          0.332654        -2.22478        0.585836
LJ         -0.707419       -0.744938       -0.449162
LJ          0.945103        0.343052         -2.2014
LJ          -1.06943        -1.07009        0.481226
LJ         0.0161691         2.26177        -1.52486
LJ           1.30092         2.03496        0.846106
LJ          -1.93118         1.97096         2.09318
LJ          0.407847        -1.96425        -2.34007
LJ            1.0693       -0.563466         -1.6716
LJ          0.629681          1.7309       -0.972592
LJ           1.36373        -1.03677       -0.711387
LJ           2.10573        0.561904       -0.820503
LJ         -0.514814        -1.71314        -1.05431
LJ          -2.25578         1.56113        -0.67548
LJ          -1.56372        -1.86308       0.0511567
LJ           1.31184      -0.0231003       -0.871469
LJ           1.04564       -0.698243         2.06221
LJ         -0.950493      -0.0346932        0.203068
LJ           1.05175       0.0309782        0.812941
LJ            1.2181        0.951908        0.695983
LJ          0.854711         1.32265        -2.11897
LJ          0.298962         1.70482       0.0077631
LJ          0.153403       -0.284448         1.35945
LJ          0.230495       -0.240598         2.33964
LJ          -2.09725       -0.276052        -1.46791
LJ           1.68503        0.309131       0.0625985
LJ          0.675363        -0.17254       -0.129796
LJ          -1.99827         1.70953        -1.67775
LJ           1.14994        0.896896        -1.25714
LJ          -1.96212       -0.122972        0.327392
LJ          -1.73571        -0.69008         2.12486
LJ           -1.8695        -2.33436        0.851981
LJ           1.75002        0.256289         1.99417
LJ          0.996292          2.1872         1.87833
LJ           1.11413        -2.09057       -0.112273
LJ           1.52343         1.30807          1.7215
LJ            2.0727        -1.63313       -0.364007
LJ           2.15084        -1.21288        -1.37936
LJ           -2.0868       -0.299818         1.23406
LJ           1.81344         0.28658        -1.76535
LJ         -0.910078       -0.686429         1.41068
LJ           0.58785         0.59064         1.54251
LJ           1.17404        -1.53779         -1.8649
LJ         -0.311245        0.193729       -0.534995
LJ         -0.220244         -2.1023         1.60527
LJ         -0.414671        -2.32355      -0.0926654
LJ           2.21632         1.08588        -2.22468
LJ           -1.3789          1.6879         1.30998
LJ         -0.833366        -1.93695         0.73091
LJ           1.39583         1.33095       -0.357305
LJ           2.03467          2.3461        -2.15754
LJ           1.72948         1.62584        -1.39496
LJ          -1.06067       -0.405817        -1.28895
LJ          -1.66333        0.141997       -0.629239
LJ          -2.21777        0.807009       0.0729034
LJ         0.0927053         -1.4608       -0.113695
LJ          -0.79082         1.06235       0.0668222
LJ           1.60109        -2.26562       -0.942479
LJ         -0.413944         1.62916       -0.698141
LJ        -0.0531411         1.31268         -1.6703
LJ          -1.23036         2.18209       -0.664414
LJ          -1.44697        -2.01115         1.68015
LJ          0.685559        -1.67009         1.44882
LJ          -2.19875        -2.21768         -1.1593
LJ          0.206773        0.325187        -1.51144
LJ           -1.8142        -1.26559         1.19672
LJ           1.70692         -0.7286         1.32708
LJ          0.482549         1.52271          1.2008
LJ          0.995815         -1.3501          0.5598
LJ        -0.0813309        0.700782         2.26548
LJ        -0.0666093        0.422825        0.403405
LJ          0.306618       -0.738123       -0.924174
LJ         -0.129829        -1.22138        0.904998
LJ         0.0960466        -1.03295        -1.90115
LJ          -1.47548        -2.11413         -1.7338
LJ          -1.72529        0.640125        -1.56708
LJ          -1.13567        -1.15698        -1.97153
LJ         0.0873705         1.64795         2.08228
LJ          -2.04212        0.811235         1.57284
LJ          -1.15886         0.33206         1.75437
LJ          0.628234          -1.924        -1.01809
