108
#Comment!
LJ          0.734072        -1.26907       -0.160094
LJ           1.27569        -0.88294         2.25054
LJ          -1.18078       -0.617929       -0.187592
LJ         -0.842461       -0.258037         0.65158
LJ         -0.718358        0.710152         0.46091
LJ         -0.803475        0.717251         2.23841
LJ           1.45055         1.58096       -0.838074
LJ           1.17852         -2.0436         2.30468
LJ           1.00366        -2.32044       -0.332516
LJ         -0.048664        0.711098       -0.290665
LJ          -1.76189        -1.28931       -0.906194
LJ           1.04501        0.332747        0.964448
LJ         -0.411698         1.52336       -0.857167
LJ          0.548645       0.0940082       -0.883569
LJ          -2.30294         2.28127         2.33771
LJ          -2.29738        0.494655        -1.31516
LJ           2.29038       -0.492522         1.67087
LJ          0.916809       -0.436245        0.246804
LJ          -2.17316       -0.289945        -0.62363
LJ           1.94156       0.0245056        -2.15669
LJ           -2.1325         1.46824        -0.99635
LJ            0.6977        -2.38001         0.91723
LJ          0.489022         1.34688        0.703502
LJ        -0.0113404         -2.3675         2.04507
LJ          -1.73404      -0.0489587         1.13891
LJ           1.70329        -1.09414        0.167711
LJ          -1.06236         2.25347        -1.04175
LJ          -1.52126       -0.457176         2.13766
LJ         0.0539774        0.378522        -2.03325
LJ          -1.60924        -1.52373        -2.03202
LJ           2.24666         1.83381        0.626851
LJ           1.29918         1.77404        0.324796
LJ          -2.08232       -0.615567        0.387374
LJ         0.0840277        -1.78697        0.401576
LJ          -1.80814        0.506944        0.192048
LJ           1.74599        0.346853         1.58853
LJ         -0.558284       0.0206818          1.6136
LJ           1.97066         2.08204        -1.44675
LJ           1.52945         0.29644       -0.814169
LJ        -0.0961349        -2.34086       -0.376766
LJ           1.57691         0.86074        -1.65524
LJ          -1.74239        -1.05523          1.1582
LJ           1.14263         1.81944        -2.09905
LJ          0.279695        -1.64788        -2.09351
LJ          -1.45626       -0.288124        -1.52546
LJ          -0.84598         2.12321        -2.02693
LJ          -1.95857        -2.19118        -1.24866
LJ          -1.14017         1.13207       -0.381991
LJ           1.20699        -1.05794        -1.56634
LJ            -1.377        0.262558       -0.710805
LJ          -2.29956        0.881623        0.988447
LJ          -0.24074         1.98032         1.22724
LJ          -0.70173         -1.5345        -1.55527
LJ          -1.17621         1.64175         1.87813
LJ           1.92543         1.10263         2.20458
LJ          0.565727         1.50757       -0.316644
LJ          0.246261       -0.645618        -1.48383
LJ           1.55005        -1.44888         1.55735
LJ          -1.25113        0.800107         1.33387
LJ           2.06779        -1.76747        -1.79378
LJ          -1.64905        -2.18454            0.75
LJ         -0.505811         0.36489        -1.24808
LJ         0.0995505         2.22152        -1.38969
LJ           -1.1747         1.69873         0.59513
LJ          0.205399        0.125302        0.655561
LJ        0.00023324        0.879068         1.44787
LJ          -2.02422        0.565896         2.06926
LJ            2.2511       -0.781874        -1.57505
LJ         -0.345673         1.58736        0.106689
LJ          0.106065        -1.45438       -0.936014
LJ         -0.813274        -1.56915       -0.563206
LJ           1.86073         1.06593       0.0788916
LJ           0.59587         1.05924        -1.25735
LJ          0.987152       -0.127825        -1.77592
LJ          -2.36022        -1.44867         2.12898
LJ         -0.846684       -0.919089         1.54536
LJ           1.90715        -1.49684       -0.770658
LJ           1.24869       -0.607533       -0.667513
LJ           1.50012       -0.557716          1.0367
LJ          -2.19869         1.66929         1.56409
LJ         -0.814443        -2.18556        0.208242
LJ         -0.579204        -1.86431          1.2224
LJ           -1.1753         1.10494        -1.69269
LJ           1.63554         2.26264         1.48556
LJ           1.98115       0.0721649        0.247944
LJ           0.53833        -1.65091          1.6642
LJ          0.843766        -1.26972        0.797956
LJ        -0.0526982       -0.865979        0.885957
LJ           1.52813         1.27356         1.26437
LJ          -2.36247        -1.82146         1.24696
LJ          0.666439         1.68555         1.67035
LJ          0.109582         1.30024        -2.32493
LJ          0.951979         0.53126      -0.0334293
LJ        -0.0529165       -0.415227       -0.173322
LJ          -2.05027         1.38085        -2.02699
LJ           2.05796         2.31637       -0.506778
LJ         -0.770425        -1.71835         2.22944
LJ         -0.668499       -0.406878        -2.10654
LJ         -0.610643       -0.651415        -1.01332
LJ          0.837365        0.806909         2.00295
LJ           -1.4822        -2.17209         1.72108
LJ         -0.029728       -0.928669         2.03422
LJ          0.530522       -0.211644         1.61951
LJ          -1.70855          2.1538        -0.23466
LJ          -2.25195        -1.75365       0.0129398
LJ            1.1704        -2.04158        -1.32974
LJ         -0.921624        -1.22627        0.530161
LJ           1.51457        -1.99988        0.436827
