108
#Comment!
LJ         -0.831411        -2.09248       0.0887357
LJ         -0.065668        -1.41064       -0.155489
LJ         -0.580768         1.83502         1.23542
LJ          -0.17513        0.984113        -1.35724
LJ          0.169585       -0.915779         1.69611
LJ           2.24761         2.11873        -1.55554
LJ          -1.42085         2.25897         1.30608
LJ          -1.58287           1.717        -1.48798
LJ         -0.742576         0.90782      -0.0352259
LJ           -1.6518         2.11706       0.0303641
LJ          -1.94601        0.087617         1.41886
LJ           1.28723        0.167799       -0.285744
LJ         -0.871154        -0.99626         2.18487
LJ          -1.08484         0.85682         1.47527
LJ          -1.66796         1.23429       -0.579621
LJ          -1.50453        -1.77817         1.92317
LJ          0.410915        0.254919        0.329258
LJ           -2.2588        0.683803         2.14264
LJ           1.12619       -0.434263        -2.26212
LJ          0.789535          2.3177        0.423945
LJ           1.34163        -1.05179         1.67581
LJ           -1.2858      -0.0587719         2.17026
LJ          -1.86035       -0.967494         -2.2531
LJ           1.16206        -2.31966        -1.54929
LJ          0.674167        -1.64418       -0.949241
LJ          0.160607         2.37887         -1.9555
LJ           1.73875         1.28728        -1.46645
LJ           0.88419        -1.42816        -2.06768
LJ          0.845588       -0.680557        -1.32752
LJ           2.21424       -0.533494       -0.705135
LJ           1.62865        -1.61451        0.918401
LJ          0.492112         2.05417         1.33607
LJ         -0.645822         1.82138        -1.58892
LJ           0.73924        -1.31383        0.385673
LJ          -1.64286         0.45723          0.4004
LJ         -0.723391        -1.47364         1.26172
LJ          0.460084        0.229229        -1.08567
LJ             2.007         1.87054       -0.407114
LJ           1.68717         2.27465         1.42779
LJ          0.500062        0.436997        -2.06366
LJ           1.86367         -1.9372      0.00479643
LJ         0.0524371       -0.729439        0.640643
LJ           1.41623        0.219314         1.69117
LJ          0.257626         1.00979       -0.317234
LJ          -2.11906        -2.03458       -0.664988
LJ          -1.08117        -1.01864        0.265033
LJ          -1.22894        -2.23143        -1.10194
LJ           2.33348         1.16831        0.378229
LJ          -1.24119       -0.520465         -1.4004
LJ          0.369219       0.0657138         1.47361
LJ          -1.27975         1.39397        0.626891
LJ           -1.7294        -1.53675        0.814797
LJ          -0.26016        -1.87599        -1.26131
LJ         -0.399739     -0.00641757        -1.50051
LJ           1.56632       0.0906443        -1.27174
LJ            1.2035         2.34784       -0.623496
LJ         -0.160174        -1.51246        -2.19811
LJ          0.438491       -0.588173        -0.38226
LJ          -1.52282       -0.230071       -0.493433
LJ          -1.53255       -0.892086          1.5084
LJ         -0.751951      -0.0211699        0.429772
LJ           2.12979        0.887753       -0.655258
LJ          -1.82858        -2.09522        -2.00015
LJ           1.19659         1.18307       -0.210241
LJ          -2.09318         1.62929         -2.3037
LJ         -0.227257         1.49939         2.23194
LJ           1.47143       -0.773214      -0.0604815
LJ           1.03647       -0.354092        0.807951
LJ           2.00088       -0.521632         1.02746
LJ         -0.918881        -1.35469       -0.712699
LJ          -2.28506         2.34963        0.757238
LJ          0.341359         1.79294       -0.889922
LJ        -0.0321862         1.83962         0.14402
LJ          -1.97876         1.38671         1.40982
LJ           1.59474        0.601003         -2.1973
LJ          -1.86252       -0.548138        0.615564
LJ          0.629324          1.4937        -1.81529
LJ          -1.10065        -1.44951        -1.65087
LJ           1.85233        -0.88146        -1.63778
LJ           2.37077        -1.48191         1.58891
LJ          0.910864         2.17195         2.21232
LJ           -1.1613        0.977785         -2.1673
LJ        -0.0525456         -2.0453        0.787271
LJ           1.44737         1.17127         1.27874
LJ         -0.783967         1.82126       -0.459581
LJ           -1.0958         2.08662         2.31321
LJ          -2.19074       -0.179261        -1.80684
LJ         -0.203137       -0.856824        -1.10511
LJ          0.592345        -1.81883         1.72049
LJ         -0.344543         -2.1534         1.85901
LJ          0.608817        0.997044         1.79331
LJ           -1.9807        0.732914        -1.44476
LJ          -1.97592        -1.21407       -0.155751
LJ         0.0953962       -0.497313        -2.11362
LJ           1.42713        0.503746        0.575397
LJ         -0.330923        0.105068       -0.456356
LJ          0.600216         1.18112        0.690076
LJ          -1.09382        0.512418        -1.10476
LJ           2.07776       -0.336014         2.07436
LJ         -0.329087        0.502375         2.16666
LJ          -2.04486        -1.31205        -1.32858
LJ           2.20974        0.163322        0.106489
LJ         -0.230649        0.859429        0.995968
LJ         -0.600701       -0.233903         1.39601
LJ           1.93542        -1.92885        -2.19167
LJ           1.73381         1.45251         2.21062
LJ           1.62834         1.84778        0.540935
LJ           1.68526        -1.51003       -0.873333
