108
#Comment!
LJ           1.28141        0.281116       -0.531727
LJ          0.949754       -0.625176         -2.0158
LJ         -0.549602         2.13037        -1.33257
LJ          0.691733        -1.65917        -1.55708
LJ            2.0461       -0.246758       -0.891171
LJ          -1.00299        0.390612        -1.20371
LJ         -0.532388        0.231861         1.27902
LJ          -1.71615       -0.534147       -0.424926
LJ          0.951753        -1.35204       -0.624875
LJ         -0.429504        -1.76357       -0.369788
LJ          0.803656         1.78001       -0.129779
LJ          0.411673        -2.07486        0.101811
LJ           2.12138         2.01825        0.736612
LJ          -0.88528        0.156526       -0.231504
LJ          -1.08897         1.03316       0.0638785
LJ            1.2635       -0.292804         1.27806
LJ          -2.13573         1.29928         1.26662
LJ          -2.00303        0.137925        -1.37449
LJ          0.465965        0.838214       -0.451989
LJ          -1.68122        -1.78554       -0.790139
LJ         -0.965679       -0.452683        -1.83993
LJ           1.68476        -1.19653        -1.73537
LJ          -1.42112       -0.264667         1.89249
LJ           1.62097        0.277974        -1.64434
LJ          -2.03202       -0.896932        -2.32837
LJ          -1.68399         1.87139        0.382536
LJ            2.0148        -1.08494           1.204
LJ          0.172073         1.46804        -1.20596
LJ           2.35296         -2.2681       -0.267414
LJ            2.2284          1.8338         2.34911
LJ           1.01541         -1.4975        0.983438
LJ         -0.194494        0.670058        -1.80092
LJ            1.8024        -2.24076         1.56456
LJ           1.38021       -0.661806       -0.151721
LJ          -1.81307         1.14679        -1.73961
LJ          -0.15161         0.85718         1.94297
LJ          -1.59599        0.216823        0.507433
LJ           1.18355         1.47693       -0.960979
LJ           2.31223        -2.01863        -1.48566
LJ          -1.06399        -1.90043          1.1414
LJ          -2.31995      -0.0736966         1.21797
LJ        -0.0191419       -0.885818        -2.11814
LJ          -1.13279         2.23226       -0.413626
LJ          0.937748       -0.501476        -1.07506
LJ          0.664034        0.684288         1.27794
LJ           1.29124         1.58019         1.93616
LJ           1.70779        0.650908         1.51982
LJ           2.05774       0.0230855        0.116801
LJ          0.070472       -0.130712        -1.33858
LJ          0.399736        -2.33053       -0.866377
LJ         0.0264063        -1.04381        -1.01344
LJ          0.429681       -0.441976         1.84797
LJ        -0.0310833       -0.559439        0.973029
LJ          -1.72184         2.13358        -1.64989
LJ           2.10828        0.866812        -1.03969
LJ          -1.39163        -1.63212        0.206669
LJ         -0.807345        -1.19463         2.18233
LJ           1.85512       -0.438066         2.35179
LJ           1.09803        0.221702         2.24544
LJ          0.157362       -0.128816       -0.348259
LJ           1.59521         1.24618        -1.80403
LJ          0.453076       -0.955925        0.128948
LJ          -2.20779         -0.8039        0.354779
LJ           1.37318        -2.22435       -0.960683
LJ           1.07081         1.95394         0.81955
LJ           2.14858         1.83499        -1.19797
LJ         -0.593042         2.36662        0.362631
LJ          0.817055        -2.14667         1.79154
LJ          -1.39678        0.672226         1.39156
LJ          -1.51941         1.73015         2.21853
LJ           1.93506         1.61384       -0.221019
LJ           2.13182        -1.72392         2.33345
LJ         -0.540119         1.53987        -2.09214
LJ         -0.961444        -1.07817       -0.903253
LJ         -0.311984        -1.41618        0.709014
LJ          0.290384         2.18662        -1.87998
LJ          0.765049        0.547393         -1.3732
LJ           1.25413        -1.04587         1.83384
LJ         -0.952672       -0.712175        0.962392
LJ            1.1743        0.798939        0.304603
LJ          -1.07834        0.700484        -2.31122
LJ           2.32719        0.509993        -2.32256
LJ          0.556291         1.21848        -2.11253
LJ         -0.859848         1.59993         1.40488
LJ         -0.189182         1.61081       -0.267965
LJ          0.252225         1.69955         1.73421
LJ        -0.0823148         1.56016        0.669573
LJ         -0.469195      -0.0987069         2.15126
LJ           1.50871        -1.88288         0.11618
LJ          -1.89075         2.24351         1.33873
LJ         -0.155462        0.599617        0.300156
LJ          -2.23898        -1.82926         0.71346
LJ         -0.306571        -1.72764        -1.67416
LJ         0.0779342        -1.37925         1.77756
LJ           0.25219        -2.20372         1.01292
LJ           0.66478      -0.0216186        0.532602
LJ           -2.1912        0.957676        0.352205
LJ         -0.927542         1.32051       -0.903724
LJ          -1.84601        0.494891       -0.456867
LJ         -0.845119       -0.876973      0.00909323
LJ          -1.96228         1.51912       -0.528802
LJ          -1.38511        -1.59645         -1.7296
LJ            1.9414        -1.28394       -0.657636
LJ          -1.67874        -1.78181         2.05541
LJ         -0.910309         -2.2512        -2.33415
LJ          -1.78348        -1.02449         1.38624
LJ           1.29898         2.21242        -2.05135
LJ          -2.14316       -0.984774        -1.31896
