108
#Comment!
LJ           2.26071       -0.273718       -0.346001
LJ          -2.06432       -0.676353        0.626394
LJ          -2.35749       -0.182384        -1.94707
LJ           2.36555         1.54914         0.18999
LJ          -2.19534        0.892442       -0.828313
LJ           1.71219        -1.90999         1.34659
LJ           1.30858         -1.9718        0.393337
LJ            1.1534       -0.522704        0.178008
LJ        -0.0304318        -1.52904        -1.59631
LJ          -1.03653        -1.73597        -1.72323
LJ           1.96207        0.353733         1.95751
LJ          -1.21075         -2.1158          2.0062
LJ           1.95036       0.0792444          -1.163
LJ          -2.28096        -1.77102         2.00118
LJ          -1.33431        0.972387        -1.40008
LJ          -2.18176        -1.96408       -0.807575
LJ         -0.439712        -1.41237         1.96467
LJ           1.06089         1.29659         2.01965
LJ           1.94904        -1.38006       -0.175607
LJ          -1.95968        -1.48268        -1.86307
LJ           2.34359        -1.08534        -1.04804
LJ          0.722393        -1.84405         1.27117
LJ          -1.94953         1.94462         1.67202
LJ            2.1772         1.87668        -1.19637
LJ           2.19968       -0.785794         1.64428
LJ          -1.28612        -1.38159         1.17098
LJ          0.437121         1.12367        0.937123
LJ           1.35885        -1.11091        0.936224
LJ          -1.45806          1.5802        0.473792
LJ           0.80098        -2.33625         -1.3228
LJ          -1.90422       0.0404788         1.45592
LJ          -1.23315        -2.34625        0.975633
LJ         -0.581051         1.66993         1.08348
LJ           1.23134       -0.232519         1.42934
LJ          0.119425        0.634141       -0.811815
LJ           1.27858        -1.26589         1.99864
LJ         -0.446792         2.34613        -2.18387
LJ           1.34501         1.36268       -0.683763
LJ          -2.25852         1.13208        -1.99462
LJ          -2.31373        -1.68899        0.668313
LJ          -1.85095        -2.34953       0.0355621
LJ           2.34996         0.96868         1.21273
LJ         0.0338695         2.29653         1.66779
LJ           1.29146         1.69746        -1.76501
LJ            -1.794        -0.75212         2.30994
LJ          0.324731       -0.222925        0.829372
LJ          0.452321        -1.83923         2.33862
LJ           1.32429         2.37699         2.22417
LJ           1.11232         1.55356        0.304803
LJ           1.37176       -0.706179       -0.970571
LJ          0.415524       -0.123491         -1.3769
LJ         0.0586501         1.20368       0.0406502
LJ          0.406225         1.49248        -1.20239
LJ          0.964302        -1.47233       -0.478378
LJ          -1.41286        0.366572        -2.27317
LJ          -1.28354        0.846821       -0.294747
LJ           1.74082         2.16812       -0.290081
LJ           1.01595        -1.23811        -1.70153
LJ            1.3821        0.756529         1.01125
LJ           0.48318       -0.769332         1.75724
LJ          0.366461         1.83606        -2.19438
LJ           1.10862        0.362619       -0.850486
LJ           1.06507         1.97451         1.38506
LJ         -0.496596        0.415706          1.3816
LJ         -0.340233       -0.806016         1.18711
LJ          -0.70516        0.226961        -1.44701
LJ           1.99354      -0.0438356        0.804535
LJ          0.571011        -1.31664        0.426335
LJ          -2.31892          2.1539        -2.09627
LJ          -1.06402        -0.20609        0.644568
LJ          -1.32378        -1.58654        0.041941
LJ         -0.369642         1.16432        -1.67002
LJ        -0.0383993         -1.6137       -0.478541
LJ          -1.06407         1.22404         2.10048
LJ          0.468236        0.263239         1.85155
LJ           1.55679        0.691003        -1.90586
LJ          0.048966       -0.607798        -2.12978
LJ           1.81943        0.602666       0.0832098
LJ          -0.42389        -1.03559         0.18361
LJ         -0.582714         1.40535        -0.74408
LJ          -1.34637        0.940197         1.25069
LJ          -1.48339        -0.50636       -0.323796
LJ           -1.3612         1.95859        -1.74367
LJ          0.853558        0.438894        0.214066
LJ          0.312673         2.14215        0.633332
LJ            1.7802        -1.90981        -1.66622
LJ          0.647389         2.31582       -0.285001
LJ          -1.29767        -1.23658       -0.953749
LJ         -0.989629       -0.348426         1.75659
LJ           1.27731       -0.300769         -1.9522
LJ          0.559055        0.846879        -1.90542
LJ            -1.722       -0.128794        -1.25172
LJ            2.0987         1.90607          1.0264
LJ         -0.728452        0.838107        0.528286
LJ         -0.502923         2.08724        0.119114
LJ         -0.337206        0.364639        -2.36272
LJ         -0.174598          2.2846        -1.20989
LJ          -1.86615        0.366152         0.47727
LJ         -0.484564       -0.713909        -1.10427
LJ           1.94733        -1.05079        -2.13834
LJ          -1.15897        -2.19976       -0.785928
LJ          0.374584       -0.501548       -0.514279
LJ          -1.67495         1.70868       -0.766654
LJ           2.00761         1.43316         1.94951
LJ         -0.290383        -1.84568        0.952925
LJ         -0.931767       -0.536747        -2.04425
LJ         0.0118138          1.1741         1.88024
LJ          -0.23033        0.130534       0.0692313
