108
#Comment!
LJ           1.66812         2.35211        0.163489
LJ          -1.22418        -2.14102         2.16422
LJ          -1.34123        -1.03617       -0.448879
LJ          0.387509         -0.7574        0.124662
LJ           1.06916        0.577056        0.358864
LJ          0.985005        -2.25867         1.67686
LJ             1.992       -0.014799        -1.62747
LJ          0.236652        -2.11417       -0.380401
LJ           1.89597        -1.25684       -0.720005
LJ          -1.07326       -0.782921        -2.25326
LJ           -1.5957        -1.93925       -0.826793
LJ           -1.6648        0.636141         1.43807
LJ           1.27303       -0.485279        -1.07608
LJ           1.43711        0.410762       -0.642776
LJ           1.46779         1.13504         1.63816
LJ          -1.36123       0.0769792        -1.31646
LJ          0.808386        -1.35548         1.13552
LJ           1.46919       -0.464999       -0.077485
LJ         -0.570732         1.02131       -0.123562
LJ         -0.377878        0.947618        -1.91212
LJ         -0.264684        -2.00412        -1.27147
LJ          -1.44268        0.853947       -0.635716
LJ          0.816937        -2.25861        0.693432
LJ            2.2402         1.60794       -0.143186
LJ         -0.916202        0.509596        0.610923
LJ          -1.85187         2.21342        -1.87698
LJ           2.23835        -2.22637       -0.689912
LJ          -1.30667        0.362038         2.36161
LJ        -0.0233979       -0.834708         2.00834
LJ           1.77249         1.84359         -1.2049
LJ           1.92174       -0.716289         1.06116
LJ          0.737742        -1.28998       -0.915511
LJ          -2.15156         1.93151        0.741159
LJ         -0.294759         1.39305       -0.950379
LJ          0.539393        0.795881         -2.3519
LJ          -1.43141       0.0317825      -0.0749143
LJ          0.237762         2.28825        -2.14132
LJ          0.982805        -2.06963        -1.51313
LJ          -2.14226        0.709379        -2.00709
LJ        0.00903491        0.455123         1.49283
LJ        -0.0323571       -0.565728        -1.65544
LJ          -1.09162          2.0236        -1.25028
LJ         -0.111814          1.1842        0.866303
LJ           2.03831         1.54196        -2.27006
LJ          -1.44299         1.66215         1.87776
LJ         -0.679236         1.90933        -2.13359
LJ          -1.02061       -0.122357         1.56427
LJ           -2.3764         -0.7037       0.0581386
LJ          0.971105         1.61246        -1.97127
LJ          0.944181       -0.289747        0.842369
LJ         -0.654825         -0.5605        0.182683
LJ          -1.16409        -1.74616        -1.62633
LJ          0.753726         1.90825       -0.883796
LJ         -0.320696        0.056936         2.34945
LJ          -2.05928         1.69836        -1.00477
LJ          -1.49223         1.82163        -0.17914
LJ          0.569484          1.5753         1.62452
LJ          -1.27102        -2.11269         1.15448
LJ         -0.958953        -0.88481        -1.28537
LJ           1.27896         1.38196       -0.296935
LJ         -0.858729        -1.04737         1.55549
LJ         -0.701946         1.03398         1.91124
LJ           1.83436       -0.483034         2.03847
LJ          -1.81953        -1.44223        -2.30406
LJ           1.17578        -1.49425       -0.025467
LJ         -0.146445         2.18573        0.794467
LJ           1.05683       0.0682218         1.70989
LJ           2.32172        -1.85682        -1.59061
LJ          -2.36761        0.692293        -1.03484
LJ           -1.9516       -0.116155         0.73336
LJ           2.37274        0.395076       0.0103287
LJ          -2.10123        -1.94168        0.180954
LJ            2.0339        0.984123         0.73836
LJ           1.81318        -1.66848        0.798114
LJ          -2.19035       -0.839932        -1.56359
LJ          0.645079        -1.37725        -2.26361
LJ          -2.27897         1.40697         1.57778
LJ           1.60835          -2.206        -2.28739
LJ          -2.14289        -1.32947         1.33387
LJ         -0.596234         2.11465       -0.276911
LJ          -1.34498         1.18415        -1.71995
LJ          0.766837       -0.408977        -2.23891
LJ         -0.375678        -1.61264        -2.16092
LJ           1.52205        -1.06714        -1.88486
LJ           0.27275          1.7037      -0.0254944
LJ          -1.05824         1.72447        0.855101
LJ         -0.476495         2.04876         1.69576
LJ         0.0464961        0.242921        0.381175
LJ          0.305935       -0.315071       -0.728883
LJ         -0.940287         -1.7914        0.185402
LJ           0.37278        0.704664       -0.405555
LJ         -0.571127        0.214834       -0.683263
LJ           2.37644        -2.12515         1.85573
LJ         -0.210545       -0.441232         1.07191
LJ          -1.73862         1.08876        0.394944
LJ          -2.13251       -0.218232       -0.734194
LJ          -1.38615       -0.980003        0.735504
LJ           1.70415        0.497935          2.3245
LJ        -0.0777488        -1.77557         1.60041
LJ          -0.26538        -1.21592       -0.481153
LJ          0.939497         1.49848        0.723622
LJ          -1.90754       -0.395998         1.88925
LJ          0.458347        0.344129        -1.47726
LJ           2.12929        0.248794          1.4523
LJ           1.40222        0.809994        -1.56066
LJ           1.71152        -1.44737         1.77127
LJ           1.71341         2.04292         1.22914
LJ        -0.0922031        -1.40457        0.705987
