108
#Comment!
LJ         0.0713179        0.265594        0.568156
LJ         -0.634457        0.475644         2.28957
LJ          0.146668         2.37963        0.784349
LJ          -2.03871        -2.28379         1.65984
LJ            2.0579         1.20115        0.131162
LJ           2.31021         1.93398        0.836099
LJ           1.23424         2.14879         1.17189
LJ           1.78213        0.460918          0.9035
LJ          -2.20215        -1.71823        -2.30768
LJ          0.617421        -1.87246        -2.08752
LJ         -0.455078         1.85141        -1.33321
LJ         -0.926551        0.257264        0.721265
LJ          0.335136        -2.27394         1.71723
LJ          -2.09369        0.904268         1.24548
LJ         -0.948095          1.6712        -2.15196
LJ           -1.8497         2.24324        0.121173
LJ           1.05006        0.787095        -1.59782
LJ           0.28282       -0.675739         1.84014
LJ          -1.28406         -1.1772       -0.872733
LJ          -2.29823         1.01117         2.18073
LJ          0.168358         1.43768        0.354618
LJ          0.142558         1.18658        -1.89895
LJ           1.20316       -0.203104         1.72272
LJ           1.55733        -1.53358         -1.9158
LJ          -1.97569        -1.45123       -0.243487
LJ          0.707525         1.29214         1.22955
LJ         0.0355919         1.55465          1.9107
LJ           1.11898        -2.00888     -0.00709539
LJ          -1.86696        -1.98414        -1.17863
LJ          -1.46411         1.86217          1.0248
LJ          -1.30703         -1.8631         2.16751
LJ           1.05321         1.76794       0.0754933
LJ         -0.690408         1.18948        0.945301
LJ           1.68416         1.55186        -1.56131
LJ          -1.70568       -0.945276         1.98463
LJ          -0.66041           1.555       -0.287257
LJ           1.63663        0.115299      -0.0186679
LJ           1.60912        -2.20241         1.99968
LJ          -1.10924        -1.03596         -1.9625
LJ          0.369201       -0.561838        -1.19708
LJ        -0.0492435       -0.198853       -0.398255
LJ         0.0381402        -2.01211        -1.07901
LJ           1.86927       -0.556286        0.993404
LJ        -0.0635356        0.294275        -1.40806
LJ          0.581713         1.97694        -1.56847
LJ           1.98668       -0.678485         2.32742
LJ           1.98095        -1.49175       -0.884978
LJ           1.38011         1.19117       -0.662798
LJ          0.936214         1.85299         2.29801
LJ          -1.95399       -0.698628         0.48416
LJ          -2.05725       -0.985871        -1.52395
LJ          -2.02635         0.25694        0.329059
LJ          -1.31093         1.17199          1.7624
LJ          0.418367        0.374365        -2.38039
LJ          -1.03745       -0.783807        0.869138
LJ          -1.03482        -1.41906       0.0848919
LJ           2.32955        0.693263       -0.672151
LJ          -2.05907         1.86315        -2.15876
LJ          0.130671         2.20662       -0.258652
LJ          0.339588        -1.42864         1.22523
LJ          -1.06636       -0.438575       -0.128221
LJ         -0.817316         2.24788        0.444249
LJ           1.32027        -1.48827        0.820467
LJ          -0.57632         2.21039         1.46241
LJ           1.24812        0.877001         2.17997
LJ         -0.649013        -0.29761         1.61903
LJ           -1.5606        0.100716         1.59934
LJ          0.991919       -0.279563        0.654362
LJ         -0.767315        0.445785       -0.489814
LJ          -2.02279        0.907732        -1.55994
LJ          -1.49409       -0.161348        -2.01316
LJ           2.14747       0.0315857         1.65963
LJ          -1.50042         1.03541       -0.712303
LJ          -1.67596        -1.64348        0.889499
LJ          0.725271       -0.886491        -2.03043
LJ           1.71871          1.3045         1.42308
LJ          -1.10781        -2.17161       -0.564189
LJ           -1.6827         0.13859        -1.02222
LJ         -0.953134        -2.08564        -1.54035
LJ         -0.242007        -1.34664         -1.7404
LJ          0.906134        0.764407        0.314421
LJ          -1.41422         1.80027        -1.27311
LJ          -1.72532          1.1645        0.242268
LJ          -2.36829       -0.404198       -0.425308
LJ           2.13474        -1.54541         1.55912
LJ           1.27416         2.37123       -0.940086
LJ           1.53745       -0.613474        -1.06115
LJ         -0.517789            -1.3         1.97808
LJ          0.430697         1.03965       -0.914843
LJ           1.69485        -0.97642       0.0716968
LJ          0.117777        -1.64011       0.0678557
LJ           2.04041        -2.34227        -1.61496
LJ        -0.0973592       -0.764098        0.511275
LJ           1.12478        -1.25657         1.86887
LJ         -0.542363        -1.70421        0.989616
LJ        -0.0695067        0.536348         1.52481
LJ          0.970697        0.177005       -0.852054
LJ           2.16293         1.92438       -0.631846
LJ           1.34297      -0.0222117        -2.04353
LJ         -0.354157        -2.26678        -2.30837
LJ          0.892192        -1.46834        -1.04329
LJ         -0.322674         -1.0632       -0.607529
LJ         -0.882299        0.917335        -1.54845
LJ         -0.199365       -0.386124        -2.06749
LJ           2.14386        -1.94517        0.477647
LJ         -0.808276       -0.289823        -1.24709
LJ           2.35721        0.124939        -1.87639
LJ          0.730495        -0.93817       -0.225443
