108
#Comment!
LJ          -2.28917         -1.8081        -1.05312
LJ         -0.530693         -2.3739        0.492632
LJ          -2.27358         1.02093        -2.10757
LJ         -0.962895         -1.2087        -1.98913
LJ          0.715428        0.179864        -1.77646
LJ          -1.91425         1.24076         -1.0949
LJ          -2.01323         1.74318        0.639466
LJ         -0.395952        0.127311         1.19996
LJ           1.84148       -0.491112         1.41258
LJ          0.315432        -2.01472         1.40015
LJ          -1.27816         1.39382       -0.010603
LJ          0.426865         1.59191         1.77338
LJ            1.8181         1.56615        0.381006
LJ         -0.029287        -1.19623       -0.685216
LJ         -0.568874         1.17417         1.92424
LJ           1.43038        0.407985         1.31765
LJ          -1.39314         2.38053       -0.105802
LJ          0.887442       -0.839636       -0.798458
LJ           1.02176        0.647317       -0.721791
LJ          -1.62399       -0.129131        -2.21881
LJ         -0.998615       -0.692799        0.747758
LJ          -2.15175       -0.293601       0.0469786
LJ           1.28327         1.43826         1.20714
LJ         -0.219728        0.363095        -1.76773
LJ          -2.14475         -1.0636         1.81185
LJ           1.96333         1.11388        -0.57558
LJ         -0.981969         1.45857       -0.965542
LJ         -0.769551        0.401589        0.159682
LJ          -1.27738        -1.48648         -0.9198
LJ          -1.52322         2.28707        -1.14401
LJ            1.0887        -1.35334         1.26187
LJ         -0.792434        0.468004       -0.871048
LJ         -0.203615         1.78104       -0.433191
LJ           1.79304       -0.766492        0.449131
LJ           1.49217          1.5482          2.1975
LJ           2.19565         0.15066          2.2597
LJ           2.04332       -0.870958       -0.643618
LJ          0.674661        -1.87277       -0.644347
LJ         -0.577071         2.29147         1.86486
LJ         0.0495156        -1.88852        -1.46994
LJ         0.0195701       -0.878325        0.482314
LJ         -0.840098        -2.21677        -1.83483
LJ         -0.903283        -1.30245    -0.000786363
LJ         -0.929491       -0.734165         1.75247
LJ          -1.54134        -2.02818        0.869584
LJ          -2.35006       -0.113442         -1.3323
LJ          0.438471         1.04717        -2.17332
LJ          -1.34685       -0.446704       -0.485009
LJ          0.178385        0.665429         -0.2386
LJ          0.630347       -0.266897        0.076058
LJ          0.288315       -0.113884       -0.892486
LJ           1.68741        -1.20173         2.14612
LJ          0.230347        0.582439         1.78589
LJ         -0.613851        -2.11809       -0.553013
LJ          0.884323         1.82518       -0.201287
LJ         0.0894756        -0.36929         2.29736
LJ           1.71535       0.0636678       -0.327238
LJ         -0.445663       -0.675168        -1.35367
LJ           1.39501       -0.507827         -1.5838
LJ          0.854698       -0.355918         1.04927
LJ          -2.37934         1.96147         -1.6469
LJ           1.23671        0.802716        0.228251
LJ          0.776917        -1.51171         2.20924
LJ           1.00365        -2.29185        -1.61099
LJ           1.21643        -2.32684         1.74295
LJ           -2.1082          1.7365         2.02125
LJ          -1.63496        0.812637         1.89287
LJ         -0.575068        -1.58497         1.07959
LJ          -1.66441        0.785559        0.712457
LJ           2.17101         2.20825         1.28683
LJ             2.312         1.00325         1.37036
LJ          -1.49978       -0.650019        -1.41488
LJ           1.59765        -1.70628       -0.206321
LJ           2.11601        0.417919        0.537015
LJ          0.196748         -1.0318         1.44438
LJ          0.492924         1.83278        0.714968
LJ           1.46406        -1.48589         -1.2564
LJ           1.35954        -2.32299        0.774796
LJ           -1.3688         1.85632          1.4499
LJ         -0.434254       -0.340131       -0.244974
LJ         -0.250859         1.65281        -1.76854
LJ          -1.82245         0.56174       -0.305801
LJ           1.65206        0.476502        -1.50042
LJ         -0.216243        -1.59215         2.15689
LJ          0.280436        0.721557         0.72251
LJ          -1.10637        0.778266        -1.84072
LJ         -0.467965         1.30882        0.777116
LJ           1.57496         2.23459       -0.804608
LJ          -1.22602        -1.65692         1.80694
LJ           2.09121        -2.25003         2.27968
LJ           2.22354        -2.19891          0.3949
LJ           1.29322        0.633114         2.28084
LJ           2.20052         -1.0126        -1.77955
LJ          0.922037        -1.17866        0.278541
LJ           -1.7443      -0.0465854         1.31163
LJ           2.01012        -1.57578         1.14298
LJ          -1.82715        -1.84757         -2.1115
LJ          -2.22159         2.05281       -0.540328
LJ          -2.03168        -1.39511       -0.134547
LJ          -2.06922       -0.975163        0.797537
LJ          0.216143         1.02107        -1.16156
LJ          0.406108        -1.00208        -1.67174
LJ           1.02281         1.52308        -1.54602
LJ         -0.771802        0.239813         2.14915
LJ          0.391189        -2.03613         0.26666
LJ          -1.27378         1.76278         -2.1766
LJ          0.255939         2.27858        -2.33723
LJ           1.02168       -0.329855         2.07939
