108
#Comment!
LJ          0.629389        -1.31958         1.21241
LJ           2.29304       0.0103777         2.20397
LJ           1.21743        0.606469         1.27248
LJ          0.811545        0.835865       -0.583373
LJ          -1.47202       -0.631194         2.26358
LJ         -0.779998        -1.81057        0.745658
LJ          0.578044         2.12708         2.27494
LJ          -1.75796         1.63705        -1.70822
LJ          -1.60144        -2.09959         1.36447
LJ         0.0600747       -0.427004        -1.13238
LJ         -0.203481        -2.00468        -2.33318
LJ          -1.06051         2.36212        -2.19004
LJ          0.855077        -1.13787        -1.18136
LJ           1.78155        0.395541       -0.535856
LJ         -0.558445        -1.03388       0.0380968
LJ         -0.775371         2.12109         1.62179
LJ           -1.1694         1.43641         2.27438
LJ           2.13457       -0.501882       -0.111262
LJ          -2.36945        -1.98814       -0.628081
LJ         -0.548665        0.707759         2.14383
LJ          -1.49278        0.469731        0.723121
LJ         -0.100381         2.21257       -0.191536
LJ           1.78234        0.905566         2.13939
LJ            1.4735         1.31864        0.658231
LJ          0.690213        -1.60538        -2.21374
LJ         -0.320587         2.03444        0.737417
LJ          -1.73103         1.97971         0.38371
LJ           1.12157       -0.529782        0.710526
LJ          -2.04136         -1.4342        0.235828
LJ           1.28814       -0.660319       -0.411025
LJ          -1.57794       -0.932254         1.31874
LJ         -0.485444       -0.157566        0.439539
LJ          0.791484         0.40268        0.387739
LJ         -0.123942        -1.30495        -1.50387
LJ           1.85801        0.305049         0.40971
LJ           1.90829         2.21368        0.211448
LJ          0.199183        -1.89473        0.507054
LJ         0.0848983         1.40506         1.75842
LJ          0.471094       -0.645294        -2.02329
LJ          0.874109         1.17539        -2.35828
LJ           1.51463       -0.674143        -1.81417
LJ         -0.345046         2.30292        -1.15726
LJ           2.25869         2.27115         1.94758
LJ          0.767177         1.80165      -0.0556264
LJ         -0.834633         1.30266         -1.4874
LJ           1.36261       -0.421596         1.86524
LJ            1.0415        0.041601         -1.1487
LJ           2.04878       0.0495072        -1.46195
LJ          -2.12074         1.35534         1.89095
LJ           0.35336       -0.505149      -0.0200365
LJ           1.61626         1.37798        -0.35658
LJ           1.77779         1.18042        -1.30948
LJ           1.97379        -1.14144        -1.03285
LJ        -0.0268479         1.53538        -2.03285
LJ          -2.29361         1.83175        -0.77312
LJ         -0.992682        -1.19945       -0.934134
LJ          -1.04339         1.27247        0.303364
LJ         -0.437269       -0.112128        -1.93296
LJ          -1.94138        0.898851       -0.941017
LJ          -2.29255       -0.262213          1.0584
LJ         -0.859258       -0.200284         1.49388
LJ          -1.49175       -0.493048        -1.51919
LJ          0.456467        0.192598         2.19862
LJ           2.32084         1.83385         1.05115
LJ          0.212994        0.168071         1.24827
LJ           1.50878         2.18116       -0.862014
LJ         -0.068471       -0.695901         1.94049
LJ           1.02089        -1.91875       -0.245566
LJ         -0.111562        -2.03197         1.44967
LJ          -2.35787        -2.25692        -1.83295
LJ          -2.21231        0.803339        -1.92859
LJ           1.68516        -1.17333         1.22182
LJ          -1.11919        -2.06025       -0.165071
LJ          -1.86025       -0.933594       -0.536318
LJ          -1.52631        0.341398         2.02127
LJ           1.45126        -1.85556         2.00299
LJ          -1.29585        0.454634        -1.71918
LJ           -1.0314        0.766098       -0.558546
LJ          -2.10128         1.14394       0.0704905
LJ          -0.76154        -1.39064         1.74101
LJ          0.657918         -2.1607        -1.14664
LJ           1.27694        -2.07807         1.06231
LJ          0.338799        0.671285         -1.6174
LJ         -0.973661         1.79602       -0.574797
LJ           2.24609        -1.93829        0.999869
LJ            1.3411        0.303121        -2.00757
LJ          0.806315         1.61896        -1.46995
LJ         -0.515829        0.797626        0.973041
LJ          -2.32298        0.784161         1.06399
LJ          0.125772        -1.56504       -0.498442
LJ         -0.253703       -0.982517         1.01444
LJ          -1.82509        -1.81097         2.29166
LJ          -1.83381      -0.0111332       -0.634383
LJ           1.54924          1.8663        -2.12511
LJ          0.654411         1.85718        0.931511
LJ          -1.04841        -1.28865         -1.9129
LJ           1.37037         1.82116         1.62769
LJ         0.0460451         1.37209       -0.868248
LJ           2.29129       -0.958115         2.17598
LJ         -0.875584       -0.249698       -0.664922
LJ         -0.177733         0.38929       -0.310793
LJ          -1.57211       -0.442915        0.303773
LJ           1.66416        -1.32233        0.237099
LJ          -1.28405         1.30746         1.21092
LJ           1.58029        -1.70026        -1.73313
LJ        -0.0244101         1.19205        0.180418
LJ          -2.00262        -1.33872        -1.58178
LJ           -1.5452        -2.33584        -1.11976
