108
#Comment!
LJ         -0.632063        -2.29479         1.05037
LJ           1.87472        0.661872        -1.47278
LJ        -0.0700591        0.311887         2.17985
LJ           2.26911       -0.394512         2.02343
LJ          0.565867       -0.200265         1.55699
LJ         -0.993468         2.23031       -0.920265
LJ        -0.0654803         2.29995         2.23833
LJ           1.98443        0.949187        0.345265
LJ           2.28441        -1.47985         2.26215
LJ        -0.0654183          1.1539        0.583744
LJ         -0.960695        -1.67408        -1.90344
LJ         -0.985923          1.9451        -2.16937
LJ          0.419238        -1.12097         1.93684
LJ          -1.42953        0.380517        -1.08212
LJ          -1.10689       -0.268284        0.810525
LJ          -1.53451        -2.07758         1.85828
LJ          0.487659         1.46916       -0.317397
LJ         -0.919142        0.821601        0.408095
LJ           -1.2541       -0.662507       -0.934035
LJ          -1.93569         1.45976         1.81711
LJ         -0.963131         1.57613         1.46195
LJ          0.836731         2.29398       -0.864116
LJ           2.15774         1.76399         1.19308
LJ           1.01052        0.584835         2.34323
LJ         -0.787036       -0.729043      -0.0242454
LJ           1.19506         1.55473        0.490635
LJ          0.171644          1.8374         1.41542
LJ         -0.206824       -0.739149         1.14682
LJ          -1.69855         2.20939       -0.137529
LJ         -0.541572        -1.52469         1.79521
LJ          -2.28416         -1.6623         1.28013
LJ           1.47186       -0.228188          1.2422
LJ          -1.68764         1.21684        0.862475
LJ          0.575446        -1.58099       -0.475475
LJ          -1.95771       -0.643709         1.17637
LJ           2.00055        -2.01343        -1.58877
LJ           1.23422        -2.32884        0.116908
LJ         0.0343803        0.829224        -1.37281
LJ          -1.07941         1.36137        -1.43605
LJ          0.247933         1.34593         2.37189
LJ           1.66352       0.0218982        0.205825
LJ         -0.121634        -2.23337       -0.605517
LJ          -1.83068        -2.32535        -1.41564
LJ            1.4203        0.574471       -0.562618
LJ          0.469638        0.450471       -0.605564
LJ            1.1547        -1.51255         -1.8351
LJ           1.21635       -0.811609       -0.129693
LJ        0.00568995        -1.59704        0.351261
LJ           1.72227         1.66396        -1.75667
LJ           -2.3709        0.298429         1.18495
LJ          -1.76118        -1.54047       -0.598063
LJ           1.13236         1.62096         1.82458
LJ         -0.152719       0.0495911        0.434452
LJ          0.509794        0.820195          1.5418
LJ          0.222778       -0.601104       -0.222578
LJ          -1.00356        -1.25728        0.834318
LJ          -1.87794        -1.16177         -1.6262
LJ           -1.6201        -1.06258         2.05239
LJ         -0.756657         1.91767       0.0979428
LJ           1.98799       -0.903763        0.515117
LJ          -1.71573       -0.919901        0.146974
LJ         -0.353906        -1.35388       -0.981386
LJ            1.6379        -1.05998         1.66754
LJ           1.78281        -2.13778         1.68423
LJ          -0.72772       -0.414151         1.94745
LJ       -0.00966513        -1.84476        -1.75123
LJ          -1.75319        0.368422        -2.17462
LJ          0.741406       -0.346715        0.609788
LJ          -1.54423         2.34272        0.836092
LJ           1.48028         1.58762       -0.689401
LJ          -1.98384         1.35484        -1.86685
LJ           0.83911          2.2298        -1.90796
LJ         -0.470526         1.08836       -0.446488
LJ          -1.01112        -1.74037      -0.0109312
LJ          -2.26394       -0.106393        -1.39754
LJ          0.896061        -2.16764         1.93565
LJ         -0.221074       -0.256227        -1.06841
LJ          0.903606         1.12058        -1.57677
LJ         -0.742881        0.257551         -1.8658
LJ         0.0385863       -0.612731        -2.07008
LJ           1.01263         2.29649         1.04008
LJ          -2.37507        -1.85757        0.300863
LJ           -1.0268       -0.716487        -1.98323
LJ          -2.33836        0.597252       -0.655026
LJ          -2.23891          2.2238        -2.32626
LJ          0.629654       -0.753571        -1.09493
LJ          0.772547        0.142003        -1.58561
LJ        -0.0500171         1.85148        -1.35468
LJ             1.475        0.772759         1.17393
LJ          -1.50222         1.08344        -0.39211
LJ         -0.486029        0.577505         1.23458
LJ           1.93919       -0.845956        -1.71924
LJ         -0.859967        0.972979         2.19933
LJ          -1.78398        0.364341        0.205287
LJ          0.258175        -1.88489         1.34463
LJ          -2.30314       -0.405374       -0.475463
LJ           1.29939        -1.51116        0.711059
LJ           2.08317         1.93292        0.226604
LJ           1.03295       -0.509382        -2.34601
LJ          -1.38163        0.280725         1.63312
LJ          0.711659        0.616685        0.383753
LJ         -0.816532        0.193774       -0.372485
LJ           1.96528        -2.21678       -0.614591
LJ           1.92425        0.936253         2.18909
LJ           1.89257        -1.20722       -0.770461
LJ          0.160689         2.15647        0.409355
LJ           1.53454       -0.254614        -1.01773
LJ          -2.25282         1.57261       -0.917334
