108
#Comment!
LJ           2.29037        0.527148         1.68342
LJ         -0.818661         2.28641        -1.97432
LJ          0.637941        -2.08613         1.52515
LJ          0.510002         1.30169         1.99025
LJ          -1.12517       -0.862766        0.845503
LJ           1.56843       -0.188083         1.35053
LJ          -2.12505        -1.58953        -1.23557
LJ           1.94606        -2.22456        -1.56375
LJ          0.829889        0.919425        -1.77895
LJ           1.57582        -1.83148         1.89619
LJ          -1.66836       0.0947446       -0.406719
LJ       -0.00654759       -0.439964       -0.583745
LJ          -1.02876       -0.728112       -0.373801
LJ           -1.4636        0.919767         1.37397
LJ           -1.8222          -1.993        0.581859
LJ          -1.83634        -2.18226        -2.02278
LJ           0.10774         1.49533        0.185247
LJ           1.01067        0.209427        -1.05591
LJ           1.10959       -0.256517         2.26754
LJ          0.588037         1.78491         1.10394
LJ          0.879622        -1.54871        0.629491
LJ          -1.13302        -1.60109          2.3498
LJ          -2.13936        -2.22603         1.66979
LJ         -0.383153         2.21889        -1.05363
LJ         -0.789249         2.33109       0.0502533
LJ          -1.54705         1.59203        -1.94252
LJ          0.308946       0.0679274        -1.90641
LJ           1.98405        -1.76769        0.928108
LJ         -0.711624        0.113579        -2.09276
LJ          -2.15009       -0.156827        -1.43618
LJ            1.0297        -1.04439         1.57725
LJ          -0.05778         2.08522          1.9051
LJ          -0.39514        0.523836      -0.0402776
LJ           2.01465          2.2198         0.41945
LJ          -1.72423        -1.21033         1.64462
LJ           -1.9429       -0.258604         1.35322
LJ         0.0710055         1.72784        -1.81361
LJ          -1.99833         1.54996         1.89812
LJ          -2.14319       0.0811584        0.423777
LJ          0.688484        0.293814         1.31857
LJ         -0.419137       -0.872425         -1.9673
LJ           1.83383       -0.110287       -0.576833
LJ           1.62965        0.387909        0.292601
LJ         0.0418847        -2.15367        0.607274
LJ           1.48611        -1.37524       -0.132045
LJ           0.62065        0.305304      -0.0697851
LJ        -0.0449221         -1.0382         0.93831
LJ         -0.533491        -1.47062        0.147569
LJ         -0.782909        0.045218        -1.06894
LJ          -2.18099        -1.26623          -2.157
LJ          -2.15052          1.0461       -0.199169
LJ           2.30935        -1.95263       -0.319201
LJ          -1.35527       -0.758417        -1.33827
LJ          -1.18428         2.19858         1.75069
LJ          -1.19577        0.127481        0.635987
LJ           0.89332         2.14631        -2.23901
LJ          -1.00768        -1.76769        -1.34257
LJ            1.3792        -2.20369       -0.600626
LJ          -2.24169       -0.881225       -0.490423
LJ         -0.756425         1.41932       -0.502985
LJ          0.150126        0.684649       -0.852508
LJ          -1.68065         1.93605      -0.0947267
LJ          0.980996         2.19707        0.271311
LJ           1.79653        0.235285        -1.87442
LJ         -0.228218        -1.65989         2.00723
LJ            1.2424         1.11144        0.950457
LJ           2.25371         1.05447        -2.04796
LJ          0.700333       -0.545939        0.487434
LJ           2.00315        0.751124       -0.989024
LJ          -1.42324        -1.61265        -0.42701
LJ          -2.28501         1.71801        -1.29929
LJ          0.532699        -1.15163        -0.25646
LJ           1.42279        0.955388         2.05745
LJ          -1.89199          1.8633         0.93835
LJ           1.60803        -1.07317          -2.166
LJ           1.82188        -0.68719         0.49413
LJ          0.508032         1.64172        -0.94425
LJ         -0.783657        -0.84818         1.79599
LJ           2.02444         1.98329        -2.36105
LJ          -2.04624        -1.02933        0.631287
LJ          0.718615        -1.65047        -1.10674
LJ          -1.47281       -0.582922        -2.26868
LJ         -0.227329        -1.27455        -1.02876
LJ          -2.36801        0.980113        0.784055
LJ          -1.40545         2.12994       -0.990297
LJ         -0.562778         1.60374          1.2761
LJ           2.09187       -0.317181         2.17083
LJ          0.378179        -2.20258       -0.381604
LJ          0.744335       -0.698668        -1.44071
LJ         -0.894505        -1.86149        0.992296
LJ           1.09102         1.19312       -0.178355
LJ           1.42726         1.63656        -1.51755
LJ           1.95764          1.7629       -0.442019
LJ         -0.374561       -0.438893        0.315009
LJ           1.61977        -1.18845        -1.20812
LJ          0.147957       -0.607202         1.99508
LJ         -0.222452        0.728494        0.888356
LJ         -0.828677        0.950001        -1.50195
LJ          0.702881        -1.48777         -2.2441
LJ        -0.0839416         0.38169         1.92507
LJ          -1.53347        0.526154        -2.37082
LJ          -1.76689         0.69593        -1.15172
LJ          -1.06235       0.0751385         1.61447
LJ         -0.693003          1.2987         2.16873
LJ            2.1063        -1.02299         1.49704
LJ           1.59098         2.04364         1.42334
LJ          -1.02378         1.27598        0.425283
LJ         0.0655605        -2.02286        -1.81269
