108
#Comment!
LJ         -0.683955        -1.63841        0.891247
LJ           1.96203        0.366736        -1.67897
LJ           1.24526        0.704205         1.35778
LJ          0.907576       -0.717388          0.2075
LJ           1.87842       -0.535755         1.69104
LJ          -1.44414        -2.23902        0.235382
LJ          -0.71344        -1.02882         1.67197
LJ        -0.0409417         1.08295       -0.475168
LJ          -1.66808         1.85085         2.06143
LJ         -0.558496       0.0257769        0.179734
LJ          -1.50807         -1.8161        -1.70729
LJ          -2.33506        -2.35266        -2.26755
LJ         -0.683888       -0.279061        -1.51646
LJ           -1.9515         1.14408        -1.06856
LJ           -1.1109        -1.29524       -0.174169
LJ          -1.62042        -2.23431         1.34729
LJ         -0.497524         1.68154        -2.08605
LJ           -1.8293        0.834032      -0.0400312
LJ          -1.52227       -0.832312         -1.0308
LJ          -1.11582        0.876591        -1.86193
LJ          -2.05099        -1.36701         1.08857
LJ          0.573254        -1.95446        -1.17536
LJ           2.06316         1.82768         1.84397
LJ           2.11709        0.668745         1.90833
LJ         -0.479871        -1.24488       -0.967473
LJ         -0.543447         2.02302        0.479034
LJ          -1.39739         1.46906        0.972908
LJ          0.768936          0.2521       -0.202802
LJ          -2.25503        -2.04765       -0.515184
LJ         -0.164492       -0.894089       0.0809948
LJ           1.91749        -2.02915        0.424623
LJ          0.247526       -0.317333        0.799912
LJ          0.374372         1.60401        0.391816
LJ           0.23825       -0.916134        -1.74902
LJ           1.83702       -0.245523       -0.202995
LJ            2.0006       -0.489896        -1.23147
LJ         -0.342023        -1.90837      -0.0510417
LJ          0.329091        0.463543         1.68416
LJ         -0.108157       -0.279246       -0.738272
LJ           1.08896         1.47858         2.25533
LJ           1.18329        -1.14629         -1.4381
LJ          0.393383         2.33304        -2.18456
LJ           1.35689          1.5125        -1.39226
LJ           2.15224         1.66711       -0.372669
LJ          0.853264        0.663366        -1.39819
LJ          0.816654        -1.54787         2.35594
LJ           1.06356        -0.28005        -1.03058
LJ          -1.94365       0.0770937         -1.0171
LJ           2.09589         1.29721        -2.08404
LJ           1.50238      -0.0339507        0.732511
LJ           2.13815         2.11824        -1.30351
LJ          -1.99424         0.15901        -2.26832
LJ          0.478627        -1.12892       -0.649468
LJ         -0.647973        0.689817         2.03403
LJ           1.40345        -2.28346       -0.783157
LJ          -1.60189       -0.309337        -0.16242
LJ         -0.527438      -0.0244083         1.33489
LJ          -1.76869       -0.587572         1.60826
LJ         -0.865818         1.03956       0.0749278
LJ           1.93002       -0.967867        0.651245
LJ          -2.04932        -1.21366      -0.0228941
LJ         -0.875205         -1.1657        -2.08335
LJ           1.05089       -0.567733        -2.27596
LJ           1.18863         1.61405         1.21109
LJ          0.995306       -0.242471         1.50879
LJ         -0.160372        -1.70274          2.3042
LJ           0.10119       -0.677997         2.05093
LJ          0.784796        -1.76045       0.0945595
LJ          -1.29394        -0.80828        0.720122
LJ          0.272155         1.59461        -1.33019
LJ          -1.66361         1.92609        -1.70632
LJ           1.22673        -1.31123         1.40307
LJ         -0.394081        -2.13357        -1.58833
LJ          -1.09182        -2.07024       -0.708059
LJ         -0.968526       -0.209262         2.29645
LJ            1.0102         -2.3324         1.80945
LJ         -0.176825        0.710414        -1.38787
LJ         -0.533743        0.972079         0.95925
LJ           2.35068         1.10004        0.967527
LJ          -1.00022        -2.24129         2.24544
LJ         0.0390548        -2.37341         1.57761
LJ            1.2759         1.97745        0.109071
LJ          0.180884       0.0397859        -2.06208
LJ          -2.19025         1.97645        0.670153
LJ           1.97562        -1.93709         1.55727
LJ           1.24555        0.518733        -2.29023
LJ          0.273523         1.06273        -2.18664
LJ         -0.707752         1.70697         1.74897
LJ           1.59801        0.866577        0.347963
LJ         -0.721603         1.63685        -1.11381
LJ          0.271739         -1.3876         1.17377
LJ          -1.65421        -1.54308          2.0285
LJ          -1.12706        0.533148       -0.729544
LJ           2.00946         0.70211        -0.62724
LJ          0.263302         1.46088         1.36375
LJ           2.36382        -1.57373        -1.37881
LJ          0.688056         2.34928        0.839902
LJ           1.06809         1.20813       -0.495092
LJ            1.8267        -1.24496        -2.37717
LJ          -1.33697        0.464671        0.804622
LJ           0.51964        0.712631        0.660392
LJ          -2.26951        -0.11254         0.84546
LJ           1.73782        -1.35722        -0.40219
LJ          -1.61686        0.841036         1.82167
LJ           1.42514        -2.10683        -1.84675
LJ          0.421857          2.2105       -0.425135
LJ          -1.88884       -0.814356        -1.94103
LJ           -1.4352         1.71952       -0.420913
