108
#Comment!
LJ           2.19624        -1.13092        -1.61989
LJ          -2.18619        0.793654        -1.96812
LJ         -0.291856        0.316141        -1.00856
LJ           1.31198        -1.79392      -0.0303734
LJ           2.19699       -0.114635        -1.85493
LJ          0.912553        -1.19404        0.808825
LJ           1.13656         1.09501         1.30949
LJ           1.07478         1.93781        -1.61445
LJ         -0.256402        -1.93082       -0.840126
LJ          0.140631       -0.599145         1.12423
LJ           1.60931        -2.02195        -1.32978
LJ          -1.86528         2.24927         1.21647
LJ           1.75726         2.06534        0.214471
LJ          -2.16384       -0.448678       -0.668592
LJ          0.950414         2.00452         1.61329
LJ          -1.58034         -1.5325        -2.13649
LJ         -0.238732       0.0287754     -0.00633004
LJ         -0.492707         1.97324       -0.555346
LJ          0.723626         1.51953       -0.393583
LJ          -1.25839         0.51931        -1.48226
LJ          -1.20933         1.14288        -2.26492
LJ           -1.8369        -1.55484        -1.20496
LJ         -0.124657        0.611577        0.925449
LJ         -0.245804        -1.37657         -2.3646
LJ         -0.940824         1.85058         1.75957
LJ           1.44762       0.0654794       0.0162778
LJ          0.826289         1.75992        0.652486
LJ          -0.59936        -1.08135       -0.389685
LJ           1.84749         1.04183         1.98444
LJ           1.71243        -1.57984         1.97873
LJ           1.73548       -0.847461         0.10986
LJ          0.113137         1.45265         1.39241
LJ        0.00170632         1.59548          -2.372
LJ        -0.0959247         -2.3141         1.90785
LJ          0.443015       -0.388109       -0.700953
LJ         -0.400988        0.694904        -1.91812
LJ           1.41982       -0.632186        -2.14472
LJ         -0.955282       -0.677295        0.469466
LJ          -1.86164         1.29053        0.663066
LJ          0.619573        -1.09483        -1.76501
LJ          0.841631        0.521273       -0.674652
LJ          -0.65494         1.58351        -1.60931
LJ          -1.59049        0.453785          1.1966
LJ          -1.21482        -2.20934       -0.849687
LJ           2.37776        -1.35001        0.656872
LJ          -1.00689        0.986739        -0.63819
LJ           1.84526         1.98546         2.21142
LJ           -1.8735         2.15997         2.18864
LJ           2.33362        0.137187         1.90167
LJ          -2.20141        0.600931       0.0780015
LJ           2.03134        0.346144         -0.8208
LJ           0.90768         1.27519        -2.24557
LJ          0.398599         -1.3516        -0.37782
LJ           1.34188        0.820903         -1.4902
LJ          -2.32416         2.36149       -0.893645
LJ          0.598733         -0.3609        0.261373
LJ           1.68669        -2.02914         1.04047
LJ          -1.38736        -1.52665        0.927467
LJ           -1.9228       -0.395381        0.303952
LJ          -2.09441         -2.2974        0.285987
LJ           2.02094        -0.52306         1.15719
LJ          0.398504        0.114688        -1.71059
LJ           1.20719       -0.190577        -1.24365
LJ           1.11397       0.0131554         1.29762
LJ           1.57421         1.13371        0.294286
LJ          -1.27068         0.38021        0.207217
LJ          -1.13396         -1.9085         1.83456
LJ          0.246724        0.641519         2.12183
LJ          -1.53412         1.83567       -0.228365
LJ          0.115984         2.18918        -1.53667
LJ          -2.15264         -1.6266         1.58432
LJ          -1.65898       -0.626866         1.29321
LJ          0.735373        0.707518        0.507511
LJ          -1.64139         1.92626        -1.66806
LJ         -0.724528       -0.140536         1.30314
LJ           0.76819        -2.28351       -0.835367
LJ          0.285841        -2.21761       0.0396307
LJ         -0.218765         1.07663      -0.0170486
LJ          -2.24639       -0.767885         2.25194
LJ         -0.776364        -1.98025        -1.74034
LJ          0.430705        -2.03255         1.03744
LJ           1.92928        0.564862         1.07626
LJ          -1.06075       -0.151907       -0.632098
LJ           1.27844        0.320219         2.36206
LJ          0.393176       -0.370006          2.1851
LJ           2.14624        -1.46743       -0.560596
LJ          -1.58563        -1.31299       -0.192258
LJ         -0.559409        -1.13151        -1.41136
LJ         -0.852972        -2.00239        0.104484
LJ          0.308064          1.1084        -1.31558
LJ          0.595302        -1.39472         1.77997
LJ          -2.07629          1.2454        -1.01387
LJ           1.22713        -1.20152       -0.880787
LJ         -0.676463        0.859534         1.68825
LJ         -0.709526        -2.34576           1.031
LJ          0.905757        -2.07109        -2.21915
LJ           1.59125         1.65342       -0.827058
LJ         -0.909778         1.65002        0.458997
LJ         -0.482873        -0.28662        -2.11258
LJ         -0.227411         -1.3998        0.478477
LJ           2.38043        -2.02435        -1.94448
LJ           1.97006         1.82879         1.21198
LJ          -1.27476        0.171418         2.20825
LJ           2.02856         1.55645        -1.71092
LJ         -0.480454        -1.35596         1.39079
LJ          -1.49717       -0.576534        -1.56165
LJ          -1.94583         1.26317         1.75158
LJ          -1.11078       -0.924216         2.05712
