108
#Comment!
LJ          0.701808        -2.00912        -1.54278
LJ          0.551508         2.04673          1.4156
LJ           1.11264       -0.297065       -0.539572
LJ         0.0707476        -1.33198        -2.24006
LJ           1.08901        -1.72449        0.895395
LJ          -0.28261       -0.954077        -1.43517
LJ         -0.539315         2.05111        -1.17674
LJ           1.13206         1.27979         1.64719
LJ           -1.1379       -0.713573         1.25322
LJ          -1.64909         1.59647         1.23233
LJ          -0.49525        -2.15662        -1.98468
LJ          -2.13341        -2.27159        0.334185
LJ         -0.576034       -0.469233        0.416104
LJ           1.81641         1.27088        0.610962
LJ           2.10618       -0.613908      -0.0266293
LJ           2.25602         1.28629        -0.29587
LJ          -1.61398        0.159944          1.3589
LJ           2.15841       -0.896667        -2.07887
LJ         -0.155348        -1.08168         1.57923
LJ         -0.129898        -1.77503       -0.871292
LJ         -0.357882       0.0844916         1.25907
LJ           1.85576       -0.652993        -1.07612
LJ          0.312396       0.0635172        -1.44013
LJ          -1.01675        0.449054        0.537269
LJ           1.02615       -0.992877        -1.91139
LJ          -1.34686       -0.396047        -1.60294
LJ          0.189181         1.75352        -2.17049
LJ           1.09344         2.08955         2.29621
LJ          -1.19676         1.24204        -1.75184
LJ          -1.11016        -1.21513        -2.15831
LJ         0.0882067         1.18626        -1.33854
LJ          -1.58286       -0.552323        0.183551
LJ            2.0251         1.74205         2.16174
LJ           2.17019         2.35347       -0.737462
LJ           1.21318         1.50523       -0.193873
LJ         -0.384785         1.79784         1.27691
LJ           1.62335        -2.09606       0.0751575
LJ          0.541534         2.28716       -0.602977
LJ         -0.911477        -2.25351        0.829527
LJ          -1.99632        -2.22486         1.34784
LJ          0.602523        -1.01264        -1.03872
LJ        -0.0475982         1.55718       -0.419833
LJ           -2.2909        -1.54553       -0.344051
LJ           2.23774        0.251609       -0.664491
LJ           1.25678        0.291281        -1.44006
LJ             1.308         1.21915        -2.00817
LJ         -0.775674         1.68159         2.27582
LJ         -0.503219        0.682564        -2.23561
LJ         0.0843427       -0.161196         2.36708
LJ         -0.908808       -0.241724         2.27631
LJ          -2.08802        -1.77046         2.33287
LJ           1.49355        0.481319       0.0376106
LJ         -0.663786         1.61465        0.316723
LJ          0.185126       -0.613455       -0.175256
LJ           1.54493        -1.85162        -2.11949
LJ           1.59009         2.05316         1.18708
LJ         -0.922719        0.859174         1.56916
LJ          0.913925       -0.595499         1.98215
LJ         -0.616466        0.352936        -1.31677
LJ          0.512673        0.671618        -2.28501
LJ           2.27481          2.1045        -1.70078
LJ          0.740579        0.254532         1.51644
LJ          -1.29762        -2.08529       -0.327202
LJ          -1.99802        0.814223        0.618228
LJ          -1.88976       -0.557375       -0.774743
LJ           1.80515        -1.79419          1.6814
LJ           2.23068        -1.40862        0.748652
LJ          -1.54993          1.5282      -0.0555506
LJ           2.35127        0.012034        -1.69239
LJ          0.317187        -1.56487        0.058316
LJ        -0.0873042        0.867355         0.68791
LJ          -1.71976         2.03921         2.22462
LJ         -0.883333         1.16116       -0.712442
LJ           2.33727         1.06141         1.57724
LJ           1.26705       -0.472185         0.93509
LJ          -1.08001        -1.62355          1.5626
LJ          0.737995        -1.75273         1.99882
LJ           1.20287        -1.09973        0.104663
LJ          -1.74119         1.72986        -1.03788
LJ         -0.685091        -1.29559       -0.112966
LJ           1.71319        0.369272         1.02862
LJ          0.747349          2.2969        0.380351
LJ          0.868457         1.15347        0.767189
LJ          -1.75042        0.730302        -1.17895
LJ         0.0671936        -1.89124        0.912523
LJ          -1.64033        0.264817       -0.302146
LJ          -1.17544        -1.34194        -1.12206
LJ           1.26367         1.80755        -1.17179
LJ          -2.37152        -1.62079        -1.35773
LJ           1.84947       -0.743519         1.67315
LJ          0.140506         1.04023         1.61463
LJ          -1.44119        -2.20917          -1.631
LJ          -1.44398        -1.47751        0.489896
LJ          0.271134       -0.820617        0.803034
LJ          -1.48672        0.558231        -2.35735
LJ          0.662559        0.140192        0.467511
LJ          0.570981        0.510555       -0.567734
LJ          -2.29888       -0.299012        0.872853
LJ         -0.835424        -0.41005       -0.634314
LJ          -2.36322      0.00872881         1.99922
LJ           2.36753        0.823443        -2.18684
LJ           1.45003        -1.61237       -0.823719
LJ         -0.339557        -2.30922      -0.0461708
LJ           2.09815         1.11067        -1.25631
LJ         -0.360582        0.460762       -0.139721
LJ           1.52769        0.252378         2.36185
LJ         -0.189535        -2.10801         1.84349
LJ          -1.89847       -0.877074         1.88199
