108
#Comment!
LJ          -1.04043        0.837226         1.63842
LJ           2.11484         1.53904        -1.62126
LJ           1.10293       -0.416022         1.29861
LJ           1.93925       0.0128426         1.84262
LJ          0.491825        0.174799        0.404691
LJ          0.519407        -2.30738        0.725486
LJ          0.368144         2.19784         1.90124
LJ           2.15278        0.663479        0.324542
LJ          -1.18691        -1.83158        0.838722
LJ          0.232261        -2.36993       -0.997943
LJ          -0.63118         1.76656         2.08086
LJ      -0.000770054        0.994233         1.94675
LJ            1.5576          -1.649         2.20534
LJ           -1.8451        0.392864         2.15329
LJ         -0.545094       -0.937428         2.29587
LJ          -2.29967        -2.35831         1.53199
LJ         -0.774209        0.336907        -1.36749
LJ         -0.433816        -0.39493        0.120887
LJ          -1.06328       -0.744685        -1.47254
LJ          -1.85667         1.45826         1.79503
LJ         -0.457481        0.363926        0.765811
LJ          0.987512         2.23092         -2.0986
LJ           1.92178         1.50342          1.6514
LJ            2.1973       -0.104667        -1.93855
LJ         -0.738517        -1.38319       0.0801469
LJ            1.7206          1.7587        0.449289
LJ        -0.0870448         1.60169        0.992998
LJ           1.38895        -1.90009        0.386987
LJ          -1.53437        -1.95143       -0.133013
LJ           -1.3579         -2.2897         1.74239
LJ         -0.812941       -0.947827         1.15091
LJ          -2.21115        -1.46215         1.09196
LJ          -2.06177         1.48537        0.797212
LJ           1.72695         1.79793       -0.580374
LJ          -1.75402       -0.684086        -2.20033
LJ          -1.81061         2.00716        -1.98834
LJ          0.615941         1.17258        0.480333
LJ           1.22787       -0.573052         2.24715
LJ          -1.11222         1.19476        -2.03323
LJ          0.338595       -0.267832        -2.32248
LJ           1.30268        0.892251       -0.176149
LJ         -0.105744        -1.63428        -1.74692
LJ           -1.8516        0.576831        -1.63784
LJ          0.499532        0.232536       -0.996622
LJ           1.19669       0.0294662        -1.69955
LJ           1.94594        -1.95784        -1.54303
LJ           2.19045        -1.97979       -0.375477
LJ           1.19845        -2.14573       -0.894221
LJ           1.91122         2.19129         2.37585
LJ           2.28426       -0.259213         0.67229
LJ           -2.0515        -1.32404        -1.28809
LJ          -1.84297        0.580174         1.10004
LJ        -0.0972231         1.48268       -0.011701
LJ          0.398504        0.303208         1.34417
LJ          0.386185        -1.71899      -0.0485764
LJ         -0.454608         2.33326        0.277641
LJ           -1.1824        -1.60208        -1.99966
LJ          -2.18931        -1.71144         2.35009
LJ         -0.623834         2.02141       -0.677689
LJ          -2.18913        -1.05226       -0.242954
LJ          -1.38894        0.273399        0.308751
LJ          -1.05743        -1.91328       -0.965028
LJ           1.32064        -1.46675         1.30385
LJ           -1.1169         1.78555         1.03611
LJ          0.370221        -1.57129         2.13071
LJ          0.466248        0.656778        -1.86219
LJ          -1.35721        -1.28181         1.85934
LJ          0.634587       -0.465207       -0.352492
LJ         -0.987992         1.16738        0.282463
LJ          -2.31808         1.04432       -0.603993
LJ          -1.96104       -0.390618        -1.13641
LJ           1.29381         1.29416        -2.14597
LJ          -1.63682         1.83721       -0.186228
LJ          -1.50389       -0.756912        0.418597
LJ           2.15737       -0.868861         2.08276
LJ           1.31703         2.29224         1.55067
LJ         -0.209713        -1.06251       -0.765898
LJ            1.5933        0.827853        -1.10535
LJ          -1.04657      0.00869914        -2.22145
LJ         -0.474217        -2.03698         2.19431
LJ          0.914239         1.37003         1.56656
LJ           -2.0761         2.35571        -1.04607
LJ         -0.742815         2.13613        -1.75523
LJ          -1.23172       -0.599168       -0.522675
LJ           1.39918        0.626041        0.973579
LJ           1.25959         -1.1998       -0.594101
LJ           0.56853       -0.730753        -1.37143
LJ           0.19112         1.72692        -1.98547
LJ          0.953406         1.64101        -1.22281
LJ          -2.17144      0.00298266       -0.269699
LJ          0.419157       -0.927298        0.601257
LJ          0.935123         -1.5517         -1.7932
LJ         0.0623402       -0.729422         1.48972
LJ           2.08644        0.787413         -2.2345
LJ         -0.133463        -1.74476         1.25671
LJ          -1.54833       -0.325885         1.41879
LJ           1.72703        -1.00356        0.402896
LJ           2.36572        -2.22566        0.574905
LJ           1.43649      -0.0344036        0.205448
LJ         -0.523775        0.016051         1.67077
LJ           0.88591         2.05834       -0.110093
LJ           -1.4388        0.565719       -0.614497
LJ          -1.38911          1.5055        -1.11406
LJ           1.06477        0.438814         2.10485
LJ           1.82762       -0.988346        -1.62402
LJ          -0.31448          1.2555        -1.25411
LJ           1.87648       -0.421868       -0.726534
LJ         -0.493872        0.573194       -0.425917
