108
#Comment!
LJ           1.18462          1.9321        0.335944
LJ          -1.68523         0.93119        -0.90577
LJ          -1.23071        -0.97605        -1.74971
LJ          -1.68366        0.639801         1.69817
LJ            1.4184        -1.34635        -2.01541
LJ         0.0202564         2.07393       -0.470242
LJ           1.66493        -1.75744       0.0895219
LJ          -2.30996          2.2812         1.45156
LJ          0.147525         1.58887          1.8378
LJ          -1.76652         1.73749        -2.09902
LJ         -0.845166         1.92742        -2.30937
LJ           2.35569       0.0307567       -0.372178
LJ          -2.13809        -1.37575         1.23464
LJ          0.252283         1.76533         0.84591
LJ         -0.617376          1.2949         1.17572
LJ            1.4671         1.03085        0.589546
LJ        -0.0223952        -1.38891          1.3162
LJ           1.51231          2.3766         -1.3907
LJ         -0.696006         2.27738         1.45338
LJ        -0.0653738       -0.601392       -0.909048
LJ          -1.04294        0.965982       -0.118918
LJ           1.33485        -2.26604         2.21757
LJ            1.4043         1.40873          -0.705
LJ           2.28357         1.41471       0.0745393
LJ          0.316835       -0.193726          1.2233
LJ           2.31923          1.3706         1.04467
LJ          -2.01983        -2.08407       -0.979128
LJ          0.237872        0.433373        -1.39955
LJ         -0.504683       -0.745286        0.698841
LJ          0.781798         0.13696        0.474597
LJ         -0.803376        0.828337        -2.19134
LJ          -2.05139        0.343785        0.615982
LJ           -1.0353        0.451096        0.751518
LJ          -1.76241        0.726485        -2.05168
LJ          0.954968        -2.25879       -0.449664
LJ          0.342581        -2.25401         1.52378
LJ          0.172325        -1.64645       -0.263961
LJ          -1.21988        -2.08279        -1.71471
LJ          0.350781       -0.758325        0.164118
LJ          -1.23539      -0.0575994         2.27883
LJ          -1.57162         1.67465         1.66747
LJ          0.849057        -1.49048        0.722522
LJ           1.13747        0.927979        -1.53877
LJ           1.40116        0.372346         1.33571
LJ           1.53711       -0.294959        -1.29361
LJ           2.25866         2.31169        0.487632
LJ        -0.0477411          1.3115        -1.83481
LJ         -0.376631         -1.3462        -1.40106
LJ           1.90895         2.24684       -0.476856
LJ          -1.12108        -1.46732         1.46279
LJ           1.40234        0.427834       -0.451401
LJ         -0.511899      -0.0330326       -0.058775
LJ          0.678379         1.86765        -1.21006
LJ          -1.53863         1.37258         0.63783
LJ         -0.494214       -0.731588         1.77462
LJ           1.76155        -1.56749       -0.992839
LJ           1.78944       -0.803348       -0.171572
LJ           1.15389       -0.520128         1.65076
LJ          0.352743       -0.786762         2.22176
LJ         -0.990756        -1.59504        0.335959
LJ         -0.503666        0.339639         1.73676
LJ          0.967286       -0.876895       -0.694628
LJ          -0.86331        -2.07992       -0.592468
LJ          0.817236         1.71538        -2.14687
LJ          -1.78716        -0.92814         2.12336
LJ          -1.54119        -2.30513        0.753794
LJ          -1.15522        -0.86244       -0.432424
LJ           1.77931      -0.0541176        0.488414
LJ          -1.42873        0.116135        -0.55984
LJ          -0.19406        -2.06916           0.564
LJ          -1.60018         1.95376       -0.325896
LJ          0.324042        -2.02149        -2.11538
LJ          0.554405        0.882804         1.22575
LJ          -2.11736        -1.45934        0.053766
LJ          0.311941        0.323119         2.30622
LJ        -0.0659061        0.782632        0.373159
LJ         -0.310905       -0.480087        -1.90575
LJ           1.09858         1.75385         1.38179
LJ            1.5651         -2.1122          1.1331
LJ          0.904621        -1.48762         1.74086
LJ           2.36636       -0.343293         1.24861
LJ          -1.48464       -0.701996        0.450691
LJ           1.29703        0.121908        -2.25374
LJ          -1.71885       -0.149497        -1.45668
LJ          -2.22671        -1.61498        -1.84763
LJ           2.19622       -0.644932        -2.02101
LJ         -0.871511        0.279685         -1.4379
LJ           1.87856         1.45017        -1.95511
LJ         -0.831475          1.9638        0.284503
LJ         -0.638919        -1.68785          2.3736
LJ             2.256          2.2815        -2.35483
LJ          0.582153        -1.63983        -1.16482
LJ           2.22511        0.416175        -1.32748
LJ          -1.33401       -0.266242          1.3267
LJ         -0.412248         1.00391       -0.942444
LJ           1.32891         1.03794         2.04896
LJ           2.22228        0.255976         2.35719
LJ          0.603776       -0.670884        -1.59782
LJ           1.89031        -1.22038         1.87847
LJ          -2.07169        -1.06168       -0.972497
LJ          -1.17577         1.74457        -1.21073
LJ          -2.27628         1.72556        -1.20376
LJ           2.33705         1.19375          1.9989
LJ          0.439717        0.184455       -0.444207
LJ          -1.67115        -2.11391         2.09913
LJ          0.737199           1.131      -0.0766555
LJ            1.7272         -0.9802        0.932462
LJ         -0.341131         2.29261        -1.43395
