108
#Comment!
LJ          -1.86546         1.94846        -2.08894
LJ         -0.676332         2.19036         2.19994
LJ          -2.23506       -0.105893         1.42638
LJ          0.996837       -0.605193        0.512988
LJ          -2.06458        -2.13201        -1.16148
LJ         -0.213814         1.56437       -0.541905
LJ           1.95425        0.194248         2.28267
LJ           2.16628        -1.91315        0.226055
LJ          -1.97528         1.14664        0.125396
LJ           1.57128        -2.27475       -0.728802
LJ          0.948724        0.793465         1.83528
LJ          -1.30099        -1.85525        -1.67544
LJ          -1.93677        0.941872         1.73893
LJ          -1.91097         1.35673        -1.04947
LJ           2.33873         1.65412        0.817018
LJ          0.401385       -0.569172         1.30102
LJ            1.5369         1.83897        0.365491
LJ           1.88126         1.19148       -0.362697
LJ          -1.79074        -1.04552         1.54461
LJ          -1.02034         1.03978         2.11423
LJ         -0.394386       -0.816927       -0.641117
LJ          -0.15196         1.36665        -2.24995
LJ           2.27138         2.09286         1.91656
LJ          0.906576         1.66274        -2.37052
LJ           1.93756         -1.0391         1.06269
LJ           2.35628      -0.0992827       -0.254814
LJ          0.192981          2.0746         1.74738
LJ          -1.55997        0.120666        0.568106
LJ           1.88669       -0.751464        -1.99166
LJ           1.09844          1.6632        -1.27263
LJ          -1.06878         1.29012       -0.333619
LJ          0.627774         1.45988       0.0215159
LJ           -0.3064        0.638466         1.42752
LJ          0.592893        -2.30786        0.916386
LJ           1.31215       0.0623902         1.18806
LJ         -0.108011        -1.40701         1.04458
LJ         -0.103594         1.98251        0.408027
LJ          0.300568      -0.0805167        -1.59988
LJ          -2.21825         1.98228       -0.274726
LJ         -0.118328       -0.732781         2.23775
LJ          0.973212        -1.14247         -2.2423
LJ          0.655505        -1.59535       -0.941929
LJ         -0.939612          1.7472        -1.74797
LJ          0.138489         2.17238        -1.20556
LJ           1.30142       0.0476569        -1.67562
LJ         -0.212868        0.945459        -1.39449
LJ           1.67223        -1.45488        -1.31595
LJ           1.27887         0.19926       -0.171756
LJ           1.00022        -2.25926        -1.70329
LJ          0.771244        0.818313       -0.754641
LJ          -1.62056         1.79756         1.44505
LJ          0.681094       -0.133072         2.14921
LJ         -0.625749         1.63346          1.2376
LJ         -0.984783       -0.410414        -2.10864
LJ          -1.53714        -1.58513      -0.0979222
LJ           2.10779         1.76497         -1.4895
LJ          -2.13788        0.742485         -1.9771
LJ          0.082433        -1.56886       0.0805129
LJ           0.97324        -1.37369         1.23318
LJ         -0.822937       -0.737091         1.34408
LJ           1.22008        -1.97508         2.13699
LJ         -0.710958        0.368066       -0.365359
LJ           2.09947        0.466927        -1.03639
LJ           1.15989        -1.62562      -0.0703525
LJ          -1.92201       -0.194765        -2.37126
LJ          -2.07167       -0.231073         -1.3941
LJ          -1.32681        0.137705         1.67278
LJ           0.44132        0.335266        0.761014
LJ          -1.03491         2.19146       -0.813188
LJ           -2.1921         -1.0194       -0.631762
LJ         -0.727654        -2.07668        0.181538
LJ          -1.75322        0.526529        -0.67047
LJ           -1.2006         0.82362        -1.62821
LJ         0.0857466        -1.03979        -1.56668
LJ           1.82821         1.06718         1.50952
LJ          -0.31822         -1.8688        -1.94205
LJ           1.63363         1.05569         -2.0251
LJ           1.85518       -0.926898       0.0915589
LJ           1.59791       -0.568645       -0.882251
LJ          0.283645          -1.683         1.93133
LJ         0.0627819        -0.58915        0.263019
LJ          0.357724         1.29391        0.941165
LJ         -0.206042        0.344132        -2.30097
LJ           1.26537        0.950605        0.688021
LJ           0.56815         2.32949       -0.268482
LJ           2.06222        -2.07742        -2.00307
LJ         -0.429021         -1.8035       -0.934952
LJ          -1.98981        -1.24741        -2.09433
LJ         -0.835994       -0.999704        0.346868
LJ          0.221401       0.0763643       -0.560788
LJ           2.08675        -1.36371         2.03987
LJ         -0.433158         1.05892        0.361851
LJ          -1.33951          1.9898        0.452253
LJ          -0.99591       -0.172615        -1.15291
LJ          -1.20232        -1.16159       -0.984341
LJ            1.2617         1.89873         1.43427
LJ           1.83698        -2.02935         1.21779
LJ          -0.94279        -1.98248         1.17598
LJ         -0.935461        -1.41371         1.99028
LJ          -1.38828        -0.34796       -0.253621
LJ          -1.70525        -2.04536         1.99487
LJ          0.622772        0.771048        -1.95507
LJ            2.1745        0.508662        0.499461
LJ          -1.88293        -2.05838        0.908555
LJ          0.748517       -0.736878        -0.46766
LJ          -1.40605         1.04092        0.889869
LJ          -1.85748       -0.858189        0.530149
LJ         -0.566594       0.0645031        0.726331
