108
#Comment!
LJ           1.64286       -0.398806       0.0265068
LJ         -0.934792        -1.62069       -0.527537
LJ          -1.05643        -2.12041        -1.41654
LJ          0.192454        -1.88168         1.61876
LJ           2.09218       0.0930694        -1.87669
LJ          -1.74487        0.478221        -0.74867
LJ          -1.39285        -1.01061         1.18641
LJ          -1.12786        0.186035         0.10167
LJ          0.759262        -1.25768        -1.39377
LJ           1.28632        -2.04047        -1.70817
LJ          -1.05458         1.15807       -0.214374
LJ        -0.0697033         1.25006        -0.44838
LJ           1.78568         1.04256          1.1883
LJ          0.373584        -1.70845       -0.600388
LJ          -1.29318         1.07177         2.00146
LJ          0.739577       -0.825304         1.68915
LJ          -1.91879         1.08596         1.16201
LJ           1.91715        0.342157        -0.73914
LJ          0.516806        0.807409        -1.20073
LJ          -1.54007       -0.956361        0.207248
LJ          -1.04647       -0.701882       -0.943341
LJ          -2.34796         2.26146         1.11519
LJ          -2.15689         1.65468         2.03463
LJ          0.411413        0.219943         1.76734
LJ           2.30573       -0.989404        -2.24503
LJ            1.3862         1.30723       -0.669047
LJ          -2.29352       -0.700253        0.768161
LJ         -0.575266        0.596681        -1.12515
LJ          0.714272          2.2754       0.0711623
LJ           2.10597        -2.21595         2.20929
LJ          0.365499        -1.28244        0.654624
LJ         -0.257342        0.362736        -2.15827
LJ           1.65628         1.95614        0.164188
LJ           2.22261        -1.22415        -0.42664
LJ          -2.15258         1.04447        -1.91889
LJ          0.893314        0.264149        -1.95973
LJ           2.31812          0.2834        0.803795
LJ         -0.295017         1.47443        -1.50039
LJ          -1.82295       -0.444572         1.96525
LJ          -0.56669         -1.9736        -2.34054
LJ           1.28949        0.187182           0.917
LJ          -1.45628        -1.11178        -1.91378
LJ          -1.78387        -1.59147       -0.955067
LJ           1.43551       -0.597709        -1.95829
LJ          0.575891       -0.264371        0.444171
LJ          -2.23197        0.596516         1.95342
LJ          0.840903         1.36899         0.19011
LJ           2.21246         -2.2731       -0.533277
LJ          -0.16502         0.27596        0.837849
LJ         -0.246195        -1.28593        -1.34969
LJ         -0.728636        -0.94272         2.02389
LJ          0.142987       -0.571869        -2.37572
LJ        -0.0862944       -0.627756         1.25055
LJ           -1.9789         2.28281        -1.55671
LJ          -2.35362         1.27086       -0.957846
LJ         -0.235887         -2.1494        0.291808
LJ         -0.591128       0.0783849         1.68147
LJ           2.00154       -0.552018          1.6834
LJ           1.53113        0.401407         1.95728
LJ           1.62964       -0.689222       -0.994293
LJ           1.86443         1.96522        -1.59586
LJ          0.784006       -0.754836       -0.416604
LJ          -2.14747      -0.0831658       -0.061086
LJ           1.39829        -1.52467      -0.0125739
LJ          0.585413         1.96415         1.32805
LJ           1.53047        -1.45841         1.81185
LJ          -1.35435         1.87882         1.45289
LJ            1.6163          1.3657         2.23543
LJ          -1.12965         1.96045        -2.33732
LJ          -1.60828        -1.91062         2.31595
LJ          0.880277        0.259423       -0.357371
LJ          -2.24908        -1.49009         1.67985
LJ          0.178584       -0.204677        -1.26034
LJ          -2.06268       -0.434108        -1.06434
LJ         -0.531129        -1.53226         1.07698
LJ            1.5438         1.96721         1.45111
LJ         -0.189811        -0.77374       -0.484263
LJ           1.20583        -2.04855        0.849534
LJ         -0.293739         1.10722         1.61782
LJ         -0.129092        0.201088       -0.203934
LJ          -1.34026         1.27875         -1.4633
LJ          -1.51316     -0.00577756         1.00261
LJ           1.63977        0.906035        -1.57198
LJ        -0.0339861         1.91914         2.25051
LJ         -0.408087         2.27083       -0.756412
LJ          0.764923         1.04554         1.35094
LJ        -0.0831242         1.23923        0.620324
LJ          -1.51288        0.267347        -1.99064
LJ           2.36226         -1.7341        0.494133
LJ          -1.53272         -1.9702         1.26012
LJ         -0.633086       -0.614261        0.431996
LJ           1.64542        0.751908        0.140811
LJ           0.72124         1.38796        -2.11654
LJ         -0.730991       -0.404987        -1.82353
LJ          0.877291         2.34993         2.14313
LJ            1.4316       -0.881721        0.894172
LJ          -2.05216         1.05868      -0.0106559
LJ          -1.00498         1.82368        0.518696
LJ          -1.40334         2.14227       -0.674475
LJ          -1.23098         -2.0716        0.305887
LJ           -1.0205        0.848801        0.834934
LJ           2.12645        -1.57019        -1.41963
LJ           1.24879        -2.17054       -0.748571
LJ          0.124874        -2.17907        -1.66607
LJ         -0.456549         2.19294          1.1929
LJ          -1.97385         2.01514        0.155122
LJ            0.5768          1.8057        -1.12664
LJ          0.557916        -1.49533        -2.32579
