108
#Comment!
LJ           2.26068         -2.0119        -1.24887
LJ          -1.99806        0.739583        -1.97482
LJ       -0.00438022          1.3455       -0.407915
LJ          0.913375        -1.85814        0.325478
LJ            1.7261        -1.15075        -1.01712
LJ           1.55082       -0.674988        -2.13108
LJ          0.675124         1.56739         1.36495
LJ         0.0929816         1.49384         2.24787
LJ        -0.0619341        -1.82584       -0.732905
LJ         0.0742979       -0.444543         1.64297
LJ           2.08365         1.81012       -0.902378
LJ           -1.9809         1.94558        0.691354
LJ           1.86048         1.96284        0.175811
LJ          -1.65359       -0.141206       -0.517334
LJ           1.51957         1.96545        -1.71816
LJ          -1.60634         -1.2298         2.12831
LJ          0.176623        0.560739         1.07335
LJ        -0.0863782         2.25426       0.0220974
LJ           1.10743        0.972804        0.450577
LJ          -1.61199        0.729906       -0.104322
LJ          -1.08437        0.668168         2.26631
LJ          -1.82723        -1.58623       -0.631472
LJ        -0.0681073        0.495433         2.05674
LJ          -0.47059        -1.42025        -2.10676
LJ          -2.10985         2.23208         1.78081
LJ           1.58284        -1.32716        0.860518
LJ          0.900239         1.91963        0.208047
LJ          -1.06639       -0.968278       -0.579436
LJ           1.15637         1.41101         2.17098
LJ           1.44864        -1.41694         1.80445
LJ           1.78083       -0.920932      -0.0830474
LJ          0.744256         2.32801         2.32538
LJ         -0.784897         1.59598         1.54494
LJ          -1.16246        -2.22112         1.92591
LJ         -0.534108        0.579085        0.459575
LJ         -0.221149         1.09096         -1.4507
LJ           2.26314        -1.59682        -2.30983
LJ         -0.651237       -0.383443         0.54066
LJ          -2.10547         1.04545        -0.95571
LJ         -0.316521       -0.940496        -1.25981
LJ        -0.0426259       -0.473019       -0.318802
LJ         -0.819724         2.14094        -1.93444
LJ          -1.89261       0.0334235         1.82017
LJ         -0.936773        -1.83515        -1.21335
LJ          -2.10875        -1.74242        0.298289
LJ         -0.572378         1.96624       -0.989901
LJ            1.2227        -2.27405         1.29466
LJ           1.72445        -2.37633         2.10266
LJ           2.09152         1.38877         1.99153
LJ           2.24351      -0.0759019      -0.0928219
LJ           1.37634       -0.109511       -0.602479
LJ          0.637392         0.81524        -1.93692
LJ          0.808774       -0.700409       0.0917164
LJ           1.12077      -0.0501664        -1.50521
LJ          -2.26109         1.97274        -1.97089
LJ         0.0957196        -2.21825         1.01667
LJ           2.21685        -2.10152         1.08056
LJ          0.646067        -1.22131         1.05533
LJ           1.41061     -0.00667023        0.451708
LJ         -0.952114        -2.25641       -0.249685
LJ           1.10336       -0.429178         1.42139
LJ           0.50715        0.459156       -0.889072
LJ          0.723524        -1.12383       -0.964527
LJ          0.934984       0.0875491         2.21669
LJ             1.833        0.727691       -0.493132
LJ          -1.58823      0.00530915        0.579191
LJ          -2.35317       -0.613991        0.820812
LJ         -0.752835        0.202686          1.3897
LJ         -0.982741         1.50417       -0.241718
LJ          -1.53322         1.51536          2.2457
LJ          -1.74015        -1.48534         1.17733
LJ          -2.06606       -0.402399        -2.10198
LJ          0.389631        0.386983       0.0711903
LJ          -1.17591         1.31683        -1.44615
LJ          -1.18069       -0.640726         1.28645
LJ           1.88269        -1.96563       -0.350361
LJ         -0.173886         1.54897        0.646411
LJ           1.23485        0.709023         1.44531
LJ           2.18191       -0.740111         1.77805
LJ          -1.58016        -1.96432         -1.9695
LJ          0.451267        -1.50394         2.24903
LJ           2.16939        0.315782         1.13859
LJ         -0.463586        0.474556       -0.558625
LJ           1.90692        0.240989         2.12622
LJ          0.241077       -0.552172         -2.1609
LJ          -2.06851          2.2392       -0.303073
LJ          -1.14998        -1.27025        0.424305
LJ          -2.06137        -0.84483        -1.22946
LJ         -0.229158        -1.40934        0.165525
LJ          0.561534         1.73614        -1.45659
LJ           1.21914        -1.88656        -1.64493
LJ           2.19786        0.178121        -1.23812
LJ          0.819219        -2.33282        -0.65856
LJ          -1.97895         1.13324         1.25025
LJ          -1.11196         2.33388        0.987805
LJ         0.0453669        -2.14258        -1.69049
LJ           1.14244         1.28863       -0.751777
LJ          -1.15201         1.37796        0.645252
LJ          -1.19436       -0.935929        -1.68811
LJ         -0.365104        -1.50016         1.54949
LJ          -1.58574         2.18836        -1.15226
LJ           1.70695         1.57033         1.08364
LJ         -0.388954       0.0437923        -1.70775
LJ           1.66535        0.736345        -1.85085
LJ          -0.19913        -2.37642         1.99437
LJ          -1.31606        0.240739        -1.32516
LJ           2.34638         1.07467        0.331375
LJ         -0.808359        -0.45051         2.25199
