108
#Comment!
LJ           2.28813        -1.83943        -2.30403
LJ           2.06095        -1.24867       -0.145523
LJ          0.795887        0.805423        -1.80904
LJ          0.697156         2.05567         1.40148
LJ           2.24797        -1.94321        0.462417
LJ            2.3708        -1.01168         1.40862
LJ          0.595165         1.20244         1.96644
LJ         -0.363014         1.70386       -0.734175
LJ         -0.961252       -0.509544        -1.33115
LJ          -0.32456       -0.239047         1.73943
LJ           2.12688         1.17165         -2.0644
LJ          -2.21653        -2.00635         1.45605
LJ           1.91494         1.80927        -1.18743
LJ          0.945322        0.280039       -0.907926
LJ           -1.6511         2.11438         2.10694
LJ          -1.96434       -0.977705        -1.67933
LJ           -1.2426        -0.30709         1.34923
LJ          -1.38204        -2.30245        0.919332
LJ           1.21086       -0.255104      -0.0883088
LJ          -2.10272         1.03381        -1.04373
LJ           1.55119       0.0688426         1.25314
LJ         -0.718298       -0.760221      -0.0822698
LJ         -0.831244         1.93662        -1.60734
LJ           2.33998        -1.86501        -1.29437
LJ           1.53904        -1.68125         1.36736
LJ          -2.21914      -0.0663119         1.09861
LJ          0.204573         1.05398        0.126489
LJ          0.546771        -2.25643        0.513055
LJ           1.55106         1.08538         1.48813
LJ           0.25278         1.58577         -1.5976
LJ           1.10358        0.743293       0.0124508
LJ           1.30442        -1.87623         2.32478
LJ          -1.51027        -1.61902        -2.26265
LJ         -0.753921        -1.63132        0.464496
LJ          -1.55665        0.729513        0.951314
LJ         -0.613626        -1.99759        -2.13305
LJ          -1.41591        -1.69579        -1.27803
LJ          0.420375        -0.79897        0.218079
LJ           1.80224        0.464188        -1.43726
LJ          0.214564       0.0524724       -0.155859
LJ          -1.78277         0.73663      -0.0722584
LJ          -2.18828          1.0513         1.73576
LJ           1.66654        0.430935         2.25334
LJ          0.117978        -2.26254        -1.45452
LJ           1.88941         1.88412         1.98364
LJ          0.988378        -1.60031       -0.676248
LJ          0.242308       -0.901368        -2.37356
LJ         -0.124672        -1.09886        -1.45577
LJ           1.61132         2.21393         1.00387
LJ           1.10005       -0.158791        -1.91504
LJ          0.117757        0.800575       -0.829724
LJ          0.446314         2.18331       -0.513796
LJ          -0.11072        0.474587        -2.27393
LJ           0.88524       -0.727712        -1.08066
LJ           2.18035       -0.345393        -2.06149
LJ           -1.3294         1.56586        0.466492
LJ           1.16038          1.7632        0.286477
LJ           0.66485        0.171659        0.748545
LJ         -0.201977        0.825749         1.53748
LJ          -1.64487        -1.13712        0.354209
LJ         -0.426383         1.47725         2.32439
LJ        -0.0781317      -0.0576248        -1.44729
LJ          0.531151         -1.5976          1.5976
LJ          0.660152       0.0881585         1.87208
LJ          -1.73324        -2.23769      -0.0849448
LJ         -0.804947        0.735982        0.201578
LJ           1.75104       -0.801977        0.690739
LJ          -1.92179      -0.0152941       -0.847395
LJ          -2.26863         1.87787        0.903789
LJ          -2.01322        0.136588         2.05212
LJ          -1.81631       -0.774778         2.14072
LJ          -1.48578         1.00903        -2.34239
LJ           -1.6211         1.99209        -0.90179
LJ          -2.09954         1.93825        -1.74794
LJ         -0.200672         1.72139        0.867975
LJ           1.29192        -1.64429        0.350759
LJ           0.10863         2.29913         2.16051
LJ           2.02921        0.535801       -0.464661
LJ          0.089191        -1.70628       -0.215268
LJ         -0.341712         2.26206        0.114629
LJ         -0.770388         2.31651         1.71149
LJ          0.730286        -1.47172        -1.73642
LJ          -1.87001       -0.994561       -0.695975
LJ           2.36101       -0.263237       0.0611291
LJ          -1.04295         1.39655         1.49994
LJ          -1.49145        -1.39425         1.31631
LJ          -1.48165       -0.124661        0.380148
LJ           1.74672        -1.25381        -1.71433
LJ         -0.369782        0.131432        0.837851
LJ           1.07289          1.2978       -0.854293
LJ           1.09144         2.27492          -1.289
LJ           1.94991        -0.42721       -0.964415
LJ           1.93554        -2.17393       -0.494729
LJ           2.16585        0.831054        0.685328
LJ         -0.822547         0.10657       -0.570822
LJ         -0.787319        -0.90567         -2.2099
LJ          -1.20075         1.17028       -0.742451
LJ           2.16282         1.53903       -0.189413
LJ         -0.993781       0.0843011        -2.35341
LJ          0.826827       -0.701763          1.1413
LJ         -0.818594        -1.85623       -0.523215
LJ           1.06245         1.90259        -2.20612
LJ         -0.810506        0.800427        -1.58824
LJ           1.50448       -0.956529         2.13029
LJ         -0.546635         -1.4567         1.60733
LJ          -1.77176        0.165917        -1.77369
LJ          0.654197         1.15458        0.983382
LJ         -0.374084       -0.844073        0.850037
