108
#Comment!
LJ           2.22264         1.70244        -1.65135
LJ         -0.531058        -2.01786       -0.703681
LJ           2.16051       -0.849785        0.844649
LJ          -1.94046         -1.6965        -2.37871
LJ          0.242675        -0.25343         2.14401
LJ          -1.67238         2.03075        -1.22445
LJ           1.92082         1.99768         1.31155
LJ           1.45361         1.07467        0.406816
LJ          0.550432        -2.01581         0.65503
LJ         -0.471831        0.877217         1.73595
LJ          0.355654        0.960006        -2.27429
LJ         -0.237573         1.50514        -0.62587
LJ           1.52376         -1.8591        0.897447
LJ         -0.193121       -0.938187        -1.89445
LJ          -1.05358           2.025         1.76121
LJ         -0.926265       -0.705456        0.874035
LJ          -1.25139        -1.31833       -0.219249
LJ         -0.672742        -1.08556       -0.987871
LJ           1.67788        0.884012        -1.52608
LJ          -1.36623       -0.286886        -1.20244
LJ        -0.0807149       0.0866663        -1.52084
LJ           1.71176       -0.344193       -0.215604
LJ          0.482007         2.31723       -0.482545
LJ          -1.15573          1.6102       -0.310364
LJ          -2.12281       0.0556677         1.07405
LJ           -2.1682        0.741579         2.07059
LJ           2.09054        -1.45726       0.0238338
LJ          -1.73168         2.04636        -2.21182
LJ           1.36192       -0.652038          -2.279
LJ          -1.79702       -0.552297        0.343329
LJ          -0.81882        -1.79005         2.27941
LJ          0.841383         1.61258         1.97393
LJ            0.3442        -1.74257        -1.45461
LJ          0.816158         1.33203       -0.318755
LJ          0.987926         1.86779         1.01464
LJ           -1.7946        0.605659        -1.70904
LJ           1.90654       -0.160838        -1.16643
LJ          -1.47639         2.04103        0.828061
LJ          -1.09845        0.663223       -0.849714
LJ          0.389876         2.36594        -2.32107
LJ           2.15342        0.531952      -0.0593656
LJ         -0.405907         1.63663         1.09225
LJ          -1.71525        -2.30502       -0.172402
LJ          -1.78098       -0.311391        -2.37756
LJ           2.09465         -1.5475         1.68898
LJ         -0.672223       -0.802855         1.92197
LJ         0.0969342      -0.0434786         1.09091
LJ           1.62849        -1.22005       -0.908198
LJ           1.07777      -0.0236925         1.51496
LJ          0.653961       -0.147746       -0.540605
LJ           1.35876        0.570468       -0.632947
LJ          -0.35116         2.22605        0.130788
LJ        -0.0628852         1.20384        0.305556
LJ           1.15702        0.517445           2.326
LJ          0.730669        0.441244        0.408974
LJ         -0.445502        -2.26307        -1.68584
LJ          -1.57463        0.684069       0.0916723
LJ          -0.93932        0.258917         -2.2098
LJ           1.60746         -1.6815        -2.15205
LJ          -1.66484        -1.02998         1.64825
LJ          -1.25712        -1.10136        -1.89836
LJ          0.956593        0.154738        -1.57664
LJ          0.354902        -1.45664          2.1889
LJ        -0.0653532        -2.26713         1.42487
LJ           1.27553        -2.19814        -1.20478
LJ          -1.90626        -2.16248          1.5107
LJ         -0.208182        0.290305       -0.498115
LJ         -0.908669        -1.82753         1.16221
LJ          -2.23469        0.955058       -0.873868
LJ           1.31718         2.34592       0.0808195
LJ         -0.667121        0.241725        0.522635
LJ           1.74245        0.135147        0.729107
LJ          0.249092        -1.17494        -0.61802
LJ          0.130535        -1.26188          1.2085
LJ           2.07077       -0.555936         1.82996
LJ          0.216146         1.80749        -1.51321
LJ          -2.36575         1.67074       -0.152507
LJ          0.563565        0.946698         1.26175
LJ           2.35245        -2.32902        0.568543
LJ         -0.264485         1.70293         2.20512
LJ           2.10101         2.29216         2.20125
LJ          -1.01257       -0.235983       -0.285948
LJ           1.18063        -1.15041         1.53314
LJ           0.74993       -0.677666        0.672241
LJ           1.26405          1.8096        -1.90902
LJ           2.34331        -2.05527        -1.51276
LJ         -0.110542       -0.587683        0.171044
LJ           1.50786         1.65204       -0.949639
LJ          -1.21046         1.03823         0.97782
LJ           2.28653       -0.994832        -1.74391
LJ          -1.77394        -1.46369        0.692989
LJ           1.71385        0.924481         1.33229
LJ           1.18821        -2.09616         1.79706
LJ           1.08048         -1.4052       -0.127156
LJ          -1.22821        0.028807         1.55208
LJ          0.838827       -0.779938        -1.42256
LJ           1.85126         1.35807          2.2313
LJ          -1.93156         1.59252         1.67139
LJ           2.07938        -2.30693       -0.606254
LJ          -1.96101       -0.948604       -0.862699
LJ          0.446301        0.907882        -1.18715
LJ           2.15719        0.104387        -2.06653
LJ         -0.716627          1.4113         -1.5325
LJ          -2.00478      -0.0269039       -0.544519
LJ          -1.39332        -1.77331        -1.22481
LJ          -1.23532         1.21159         2.33228
LJ          -2.24309         1.32907        0.793782
LJ         -0.243589        -1.57273        0.202121
