108
#Comment!
LJ          -2.36214         1.63745         -2.1295
LJ           1.94037        -0.23398        -2.28977
LJ         -0.392611        0.373363        0.333482
LJ           1.26504        -0.19323        -1.44586
LJ           1.73609        -2.17251         1.02566
LJ           1.09442         1.84782        0.243643
LJ           2.36654         1.63623        -1.14738
LJ          -1.04241         2.02265        -2.28289
LJ       -0.00529661          2.0228         2.35446
LJ          0.368762        -2.15205        0.549685
LJ          0.139337       -0.175307        -1.41083
LJ          -1.28344          1.0831        -1.83678
LJ           2.28022          1.6837        0.297617
LJ           1.94117       -0.414996         0.23387
LJ          -1.85462        0.109768         1.67699
LJ          -0.44551       -0.909326         1.66532
LJ          0.520803        0.625091       -0.107972
LJ         0.0228846         1.53549       -0.263415
LJ           2.19246        0.163987        -1.26256
LJ          0.639711         1.74411         -1.0008
LJ         0.0486458       -0.248577       -0.395341
LJ          0.294756        -2.13399         -1.5293
LJ          -1.52744       -0.888924         1.44887
LJ        -0.0607922        0.836571        -1.75568
LJ          -1.82653         -1.9337         -2.1764
LJ          -2.07001         -2.1685        0.645215
LJ          -1.29293        -2.00233       0.0551393
LJ           1.80885        0.612311         1.82079
LJ           2.37975        0.472732       -0.318428
LJ          -1.59865         2.18895        -1.41533
LJ           1.36672         2.27599       -0.657875
LJ          0.674703         1.88369         1.26536
LJ        -0.0446173       -0.243859         2.27058
LJ          0.987246        -2.22044          2.0198
LJ           1.04395       -0.629702        0.679712
LJ          -1.00566       -0.792823        -0.84395
LJ          0.653484        -1.06758        -1.43821
LJ         -0.318482        0.740147       -0.769535
LJ           1.82487       -0.684091       -0.666501
LJ           1.13845       -0.831928         2.35887
LJ           -1.4949       0.0917113        -1.17501
LJ          -0.32833        -1.64117       0.0502389
LJ          0.167796       -0.138004         1.37027
LJ          0.484041          -1.979       -0.496595
LJ           1.67596         1.00922        -1.44858
LJ           1.77786        -1.05208        -1.61997
LJ          0.781468         0.36743        -2.17264
LJ           -2.2602        -1.05188        0.797702
LJ         -0.567572         1.12037         2.18445
LJ          -1.26892        0.237115       -0.047022
LJ           2.36847          1.9726          1.4851
LJ          -1.58019         1.85697        -0.22058
LJ         -0.923324        0.246909         1.97908
LJ          -1.54042         1.07901       -0.823154
LJ           2.15349        -1.41178      -0.0663988
LJ            1.6143         1.09747       -0.329809
LJ           1.73655        -1.22114         1.64991
LJ         -0.610339           1.788         1.28333
LJ           1.09583      -0.0801241         1.74959
LJ         -0.680848        -1.65585         1.09406
LJ          0.650204         1.00745         1.81364
LJ          -1.80472        -0.14314        0.756299
LJ          -2.03028       -0.763068        -1.42109
LJ         0.0898239        -2.09428          1.4314
LJ           1.91812        0.528597        0.584008
LJ          -2.04446       -0.471796       -0.446616
LJ         -0.224093        0.755882         1.34305
LJ          -2.14824        0.889733          1.2641
LJ           2.23392        -2.09403        -1.45051
LJ           1.51646         1.65103         2.10883
LJ          -1.44709       -0.654346        -2.21436
LJ          -1.61752        -1.02272        0.104593
LJ         -0.825086       -0.164555         1.07045
LJ          -0.89374        -1.99324        -1.66903
LJ          0.787166         1.42658        -1.94529
LJ          0.645551        -1.05257       -0.109852
LJ         -0.746657         1.65299         -1.2328
LJ          -2.37898        -2.36333       -0.478975
LJ           1.98581        -2.06118         2.16326
LJ        0.00493237       -0.879364        0.752144
LJ          0.737851        0.665392        -1.10693
LJ          -1.15899        0.922261         1.17043
LJ         -0.212535        -1.43582        -1.03709
LJ          0.918957         0.44416        0.915959
LJ           1.31634         -1.4762       -0.818159
LJ           1.23566        -1.74287        0.272124
LJ          -1.81605        -1.44985       -0.763058
LJ           1.51779          1.9882        -1.60075
LJ           1.94295        -0.25864         1.31225
LJ           1.04717       -0.114982       -0.405664
LJ           -2.1078        -1.67221         1.52756
LJ         -0.906724         1.22159        0.155646
LJ           1.17104        -1.78736        -1.82817
LJ          -1.37183        -2.38064         1.63023
LJ         -0.639005        -2.27489       -0.719541
LJ          0.389408        -1.46465         2.37794
LJ         -0.532296         2.18992        0.292693
LJ          0.379267           1.288         0.61831
LJ          -1.01236        -1.57616         2.05521
LJ         -0.725953       -0.603553        0.162636
LJ         -0.475563        -1.06921          -1.922
LJ          0.816854        -1.48403         1.20463
LJ          -1.64476         1.70535        0.871083
LJ          -2.25865        -1.06562        -2.32521
LJ         -0.750177       0.0678629        -1.84665
LJ          -1.66684         1.47306         1.92286
LJ           -2.0804         0.57096        -2.20774
LJ           1.55257         1.43889         1.13031
