108
#Comment!
LJ          -1.68303         1.27421         1.40995
LJ         -0.531928        0.912597         1.62764
LJ          -1.65652         0.42487         2.00735
LJ            1.6756       -0.816529         0.19809
LJ          -1.59761        -2.26668       -0.734841
LJ         -0.277044         1.83205        0.338019
LJ           1.19933         0.61032        -2.31279
LJ           2.05703        -1.84377        0.526647
LJ           1.45466        0.156227       -0.497836
LJ           1.96626         2.15393        -0.40725
LJ          0.112801       -0.276616         0.30676
LJ          -1.95774         1.91196        -2.29563
LJ          -1.10935        0.978082        -2.02128
LJ           -2.2274        0.625619        -1.61081
LJ          -1.67843        0.662157       0.0182319
LJ           1.02921        0.182341         0.44604
LJ          -1.41843         1.63324       -0.122312
LJ            1.9604         1.02422       -0.771656
LJ         -0.194666        -1.99868        0.828546
LJ         -0.571229       0.0926651        0.884632
LJ        0.00569103        -2.04608       -0.217092
LJ          0.433171      -0.0071028        -1.94799
LJ           2.02364         1.01742         1.22402
LJ           1.50717         1.53779         2.07595
LJ          -2.21155        -1.03772        0.723209
LJ          0.990442       -0.948257        -1.68724
LJ         -0.111469         1.98093         1.43919
LJ          -1.27426       -0.667162        0.654065
LJ           -1.9669       -0.364592        -2.23272
LJ           1.15343          1.8745        -1.01361
LJ         -0.721749       -0.151596        -2.13874
LJ          0.289197        0.635054       -0.111683
LJ         -0.921427         1.06764        0.560425
LJ          0.665999         1.92426        0.603259
LJ           1.97561      -0.0868803        0.874575
LJ          0.531306        -1.70144         1.64993
LJ          0.320952          1.7773       -0.431906
LJ           2.21364       -0.402577       -0.769282
LJ          -1.91429         -2.3792         0.29764
LJ          0.342393        -1.63514        -2.18437
LJ            1.3369        -1.52579         2.25447
LJ           0.40744        -2.36315         -1.4277
LJ        -0.0422609         1.07335        -1.08532
LJ          0.888358        0.853769        -1.04964
LJ          0.969912        0.278276         1.53758
LJ         -0.171531        0.774349        -2.14705
LJ          -2.13304        -1.46309       -0.308503
LJ            1.9711        0.732834        0.159198
LJ         -0.152753          1.7732        -2.17227
LJ         -0.354409       0.0658048        -1.24957
LJ           1.70593         1.93252        0.697507
LJ          0.667863       -0.783758         2.04592
LJ          -1.07834         1.76153         1.95018
LJ          -1.76351        -1.08703         1.67098
LJ         -0.751687        -1.68175       -0.803106
LJ           1.92531        -2.28762        -2.24287
LJ          -1.54112         1.10531        -1.06745
LJ          0.470743        -1.21153        0.256572
LJ           1.46121       -0.341991         2.37619
LJ           2.06393       -0.688581         1.71087
LJ           0.99128         2.14573         1.47981
LJ         -0.855907      -0.0822176     0.000545499
LJ           1.62282        0.226407        -1.47302
LJ           1.08371        -2.02793       -0.287415
LJ          -1.71442           -2.15         1.64849
LJ          -1.18836       -0.310495         1.58817
LJ         -0.335288        -1.04678         1.23032
LJ          0.569726       -0.311915         -1.0202
LJ         -0.668838        0.907744       -0.364547
LJ          -1.33014       -0.979517       -0.481115
LJ         -0.993123        -2.10242        0.125601
LJ          -1.68407      -0.0194492        -1.10872
LJ          -0.64895        -1.16626         2.25295
LJ          0.718737         1.44334        -1.82142
LJ          0.453181         1.26311         2.04552
LJ          0.986628         2.29696        -2.33364
LJ          -2.36062          1.0271         2.18605
LJ           1.52586        -1.12447       -0.754428
LJ             1.398        -2.03648        -1.34795
LJ           1.38307        -1.03386         1.10053
LJ         -0.543321        -1.19451        0.252513
LJ         0.0478969         1.03961        0.847914
LJ      -0.000205155         0.12422         1.90604
LJ          -2.05228       -0.264714       0.0448896
LJ           1.18222         1.30946       -0.189693
LJ           2.24219         2.01157          1.5459
LJ         -0.666554         2.05658       -0.853101
LJ          -2.29792         1.75917        -1.21503
LJ         -0.486896        -2.00359        -1.68302
LJ          -1.00668       -0.965208        -1.58169
LJ          -2.38023        -2.03409        -1.39838
LJ          -1.18239         2.00116        0.891487
LJ          -1.87002        0.242271         1.05189
LJ          0.557015        -1.42987       -0.801739
LJ          -1.05467         1.94228        -1.82637
LJ           1.04788         1.12201         1.01375
LJ           2.10376        -1.77547         1.61955
LJ           1.05406        -1.92271        0.746492
LJ          -1.48166        -1.68957        -2.16444
LJ          -1.99375        -1.13208        -1.22269
LJ         -0.642274        -1.95681         1.70003
LJ           1.70637         1.34473         -1.6604
LJ           1.95857       -0.947825        -1.78936
LJ          -1.27758        -1.67484        0.915354
LJ       0.000981612       -0.961439        -1.56729
LJ          -2.19639         1.44242        0.549465
LJ         -0.185347       -0.751146       -0.550202
LJ          0.539445        -0.50129         1.10343
