108
#Comment!
LJ           2.08733         0.11898         0.59659
LJ          -2.24084       -0.898131        0.840269
LJ           1.82424         0.30399         -1.4653
LJ           2.36946         1.93719       0.0343341
LJ           2.12925         1.23366       -0.710925
LJ           2.18164         1.96971          1.2337
LJ           1.45147         2.21581        0.691851
LJ          0.235975        -1.46864      -0.0716152
LJ          0.188628        -1.90424        -2.00276
LJ          -1.72785         2.23228        -1.82585
LJ           2.30361         1.38049        -1.76933
LJ          -1.20062        -1.44604        -2.18011
LJ          -1.50842        -1.14524       -0.342192
LJ          -2.05374        -1.87022          1.3403
LJ          -1.97917        0.365939        -1.43877
LJ          -1.89011       -0.348824       0.0598829
LJ         -0.129004        -1.65932         1.79597
LJ           1.50978        0.361361         1.53268
LJ           1.39252        -1.53632        0.816815
LJ           2.30066         -1.6705          2.3165
LJ          -1.68278        -1.70825        -1.19172
LJ          0.859555         -2.0045         2.00495
LJ          -1.71708        0.934724         1.87253
LJ           1.49103         1.89568        -1.45049
LJ           2.30864       -0.234585         1.62065
LJ          -1.45645        -1.07687         1.67271
LJ           0.66386        0.917037         1.41133
LJ           1.75618        -1.99725         1.52353
LJ          -1.25267         1.32563       -0.061527
LJ           1.20756        -1.29832       -0.239608
LJ          -1.38888      -0.0674338         2.05339
LJ          -1.45501        -1.58475        0.653596
LJ        -0.0675251        0.842131        0.588292
LJ           1.49545       -0.610657          1.1165
LJ          0.276265        0.482653       -0.327066
LJ            1.5092        -1.11435         1.97958
LJ         -0.725246         -2.3228         2.27661
LJ           1.06493        -2.04981        -1.01537
LJ           2.18778         -2.3456       -0.965932
LJ           2.22046         -1.9868        0.472517
LJ         -0.765801         2.04343       -0.632163
LJ          -1.27406          1.0017        0.902792
LJ          -0.71312         -2.2258         1.12151
LJ          0.715776         1.81628         -2.2073
LJ          -1.63271       -0.705329        -1.70857
LJ          0.265194       -0.527788        -0.58477
LJ           1.43505        -1.78911        -1.81915
LJ           1.80281         2.17914         2.37211
LJ           1.52691         0.98588       0.0484021
LJ            1.6583       -0.599926        -1.07137
LJ          0.118116      -0.0334327        -1.54339
LJ          0.673504         1.56049        0.496853
LJ          0.614874        0.870184          -1.476
LJ           1.00853         0.10812       -0.913733
LJ          -2.14737       -0.396643       -0.889368
LJ          -1.29437        0.809589       -0.899684
LJ           1.57776        -2.22533         -0.2141
LJ           2.28153        -1.26367        -1.48462
LJ           1.95108         1.21795         1.91147
LJ          0.529116       -0.961629         1.17879
LJ        -0.0208003         1.98242         1.59301
LJ           1.82536        0.151368       -0.395735
LJ          0.970216         1.92039         1.53017
LJ        -0.0417519       -0.200143        0.373531
LJ          -0.92444       -0.630741        0.211534
LJ         -0.276157         1.63854        -2.26408
LJ          -2.34885        0.854819         1.09184
LJ          0.344237         2.27244       -0.187983
LJ          -1.80634         2.10366         1.96307
LJ         -0.737197         0.16629         1.19843
LJ         -0.779436        -1.70775      -0.0815491
LJ         -0.344385        0.935328        -1.32654
LJ         -0.762431        -2.10191         -1.5573
LJ         -0.978869          1.6035         1.76731
LJ          0.613351       -0.145859         1.83607
LJ          0.477364        0.749913         2.34225
LJ          0.518964        -1.06484         2.24383
LJ           1.50513         1.27141         1.00669
LJ         -0.135097        -1.76628       -0.909466
LJ        -0.0992458         1.39346       -0.363284
LJ         -0.904709        0.760277        -2.19846
LJ          -1.71327      -0.0113841        0.994211
LJ         -0.944979         1.63033        -1.54832
LJ           0.85186        0.480182        0.515061
LJ          0.253515        -2.05364        0.839706
LJ           2.24206        -1.23688       -0.485621
LJ          0.759969         1.57157       -0.782606
LJ         -0.786274          -1.034         -1.0462
LJ         -0.344006       -0.754034         1.47954
LJ           2.36452        0.497686        -2.33756
LJ           1.04468       -0.177281        -1.93712
LJ         -0.855796      -0.0120572        -1.62418
LJ          -1.40488         1.92598        0.711822
LJ          -0.86992        0.486566         0.17784
LJ          -0.26972         1.89281        0.477311
LJ         -0.270023      -0.0343404         2.24771
LJ          0.109035         2.05291        -1.34932
LJ           -2.0218        0.720293       -0.173093
LJ          0.634659       -0.986471        -1.39076
LJ           2.30372       -0.446323        -2.20562
LJ          -1.64012         -2.2175       -0.226444
LJ           1.14064       -0.363489       0.0954894
LJ          -1.76506         1.73672       -0.916352
LJ           1.40195          1.0785        -2.00523
LJ         -0.501079        -1.34909        0.802192
LJ         -0.338824       -0.902659        -1.94654
LJ         -0.257293        0.911228         1.65707
LJ         -0.671696       0.0491005       -0.699727
