108
#Comment!
LJ           2.32971         -1.6618       -0.434065
LJ         0.0870905         1.17408         1.46049
LJ           0.65505       -0.958801        -1.81718
LJ           1.31197        0.351919         2.18629
LJ          -1.56679        -1.10419       -0.354336
LJ           1.93602          2.2963         1.48427
LJ           1.88491       -0.892145         0.67615
LJ           1.40693        -1.63716         1.21368
LJ           1.25262         2.01977         2.22078
LJ            2.1062        0.667402         1.18917
LJ          -1.55163        0.402478         1.78839
LJ        -0.0173631       -0.226535       -0.317321
LJ          -1.26808       -0.242561        0.987222
LJ           2.02896         1.82033        0.436769
LJ           1.82253        -1.70134         2.18198
LJ           1.96797      -0.0366366        -1.63515
LJ         -0.212338         1.06135        -1.91543
LJ           2.31664        -1.08536        -1.44427
LJ          0.742625         2.11339         1.26932
LJ           1.23666          1.8009        -1.44606
LJ          0.741383         1.15002         2.38108
LJ           1.03339        -1.16412         2.00229
LJ         -0.504079        -2.06507        0.612876
LJ          -1.64251         1.43443        0.192316
LJ          0.985214        -1.59629       -0.135526
LJ          -2.11395         1.45209         1.47558
LJ           1.91877       -0.723442        -2.34467
LJ           2.23191        0.338241         2.14919
LJ          0.635744       -0.397103         1.55192
LJ         -0.968677        -1.77802        -2.32834
LJ           0.47068         -1.7366        0.999693
LJ          -1.16031       -0.773263         2.04389
LJ          0.246935        0.164592        0.575554
LJ          -1.90563        -1.34256        -2.29271
LJ           1.66932         0.90132        -1.42107
LJ           1.27997         1.03845        0.269755
LJ          0.281432         2.04287        -2.09805
LJ           1.70498          2.3608       -0.303683
LJ          0.873537        0.350851       -0.324053
LJ           0.20939       -0.155481        -1.23967
LJ         -0.218317       -0.741164        0.994483
LJ          0.902858       -0.758768        0.572203
LJ           1.91211         1.40686       -0.448199
LJ           1.67281       0.0422974        0.543716
LJ          0.502144        -1.98999         1.98502
LJ           1.44046         1.43251         1.32537
LJ          -0.20393         2.04748         1.76986
LJ         -0.667546       0.0286248         -2.0693
LJ         -0.080924         1.68308        -1.21016
LJ          -2.14442        -2.32527         2.16249
LJ           2.33095        0.773441        0.121906
LJ          0.748771        -2.24405       -0.952297
LJ         -0.564427       -0.951399        -1.69345
LJ           -1.2162         1.55791         1.10783
LJ           -1.7869        -2.30274        0.829617
LJ         0.0756696        -1.19857        0.213717
LJ          -1.18195        -2.01962       -0.127109
LJ           1.69641       -0.801797       -0.338317
LJ          -1.92884        -1.36805         0.53437
LJ          0.281793         1.37882        0.334972
LJ           1.63456       -0.353614         1.54684
LJ          -2.19949        -0.38703       -0.592792
LJ          -2.26736        -1.48748         1.49222
LJ           1.83376        0.231028       -0.707703
LJ          -1.26776        -1.52647         1.40936
LJ         -0.863976        -1.12542        0.382182
LJ          -1.60906        -2.37729        -1.24524
LJ         -0.597267         0.82657        0.800727
LJ          0.862261         1.54232       -0.533469
LJ           1.94416        -2.03331        -1.25062
LJ          -1.29326         2.09649         1.84526
LJ           1.23103         -1.3733        -1.08734
LJ          0.888849        0.522427         1.27097
LJ          -1.96162       -0.193752        0.295932
LJ          -1.82021         -0.1891        -2.18628
LJ           1.98998        -1.86882        0.479112
LJ          0.415316        0.880945        -1.05774
LJ          -1.60551          1.3133        -2.28544
LJ          -2.04343         2.17974       -0.287172
LJ          -1.48746       -0.326751        -1.27583
LJ        -0.0927865       -0.648815         2.13082
LJ         -0.291776        0.111732         1.51996
LJ          -2.02533        0.638107        -1.58973
LJ          -0.90302       0.0679144        0.152778
LJ          0.255864        -1.09109       -0.768327
LJ         -0.382097        -1.75785         1.61462
LJ         -0.698061         1.93633        -2.02407
LJ          0.865311         2.24241        0.201531
LJ         -0.654727         1.70238        0.284023
LJ         -0.585207        -2.10221        -1.01314
LJ          -1.00789         1.83678        -0.63489
LJ           1.01051        -2.09036        -1.89399
LJ          -0.68992        0.218462       -0.963025
LJ         -0.680581       -0.716544        -0.66353
LJ          -1.47297        -1.40524        -1.32977
LJ          -2.07576       -0.480797         1.65411
LJ         -0.742347        0.977766         1.99239
LJ         -0.300582        0.767991       -0.204965
LJ            1.1521       -0.355014        -1.07076
LJ           -1.1163         1.06881        -1.32982
LJ          -1.98938         1.45379       -0.998787
LJ          -1.54908        0.499947       -0.598331
LJ           1.84553         1.29314        -2.35076
LJ           2.17696         1.87487        -1.71142
LJ          0.382382        0.188365        -2.23545
LJ        -0.0379771         2.21936       -0.318151
LJ          -1.69597        0.702635        0.921692
LJ         0.0303306        -1.80438        -1.74712
