108
#Comment!
LJ            1.8552        -1.42829        -1.30074
LJ           2.20096        0.617859        -2.14745
LJ         -0.430075        0.637829       -0.902173
LJ            0.7607        -1.79443         0.23012
LJ           2.02702       -0.466689         -1.8484
LJ           1.20345       -0.657776         -2.3762
LJ          0.193444         1.54316         1.60343
LJ         -0.126396         1.82534        -2.17899
LJ         -0.238323        -2.13117        -0.41774
LJ        0.00923319       -0.521006         1.35605
LJ           1.38445         1.87835        -1.16911
LJ          -1.88044         2.20848         0.83228
LJ           1.06183         1.71572       -0.040664
LJ            -2.323       -0.401401       -0.595862
LJ           1.11888         2.07537        -2.25416
LJ          -1.78722        -1.13753         2.34337
LJ         -0.387361        0.613284        0.643488
LJ          0.473382         2.04646       -0.737124
LJ          0.410458        0.986209       -0.303647
LJ          -1.50086        0.657873        -1.40394
LJ          -1.54695         1.16718        -2.29551
LJ          -1.39349        -1.63957       -0.170472
LJ         -0.406984        0.272949         1.80353
LJ         -0.894869        -1.27466        -1.95553
LJ          -1.92762         1.96594         2.02075
LJ           1.51211         -1.2875        0.695456
LJ           1.12311         2.20313         1.16808
LJ         -0.592927        -1.09426        -0.43633
LJ           1.35346         1.36466         1.76896
LJ           1.32862        -1.69666         1.68816
LJ            1.9726        -1.22778       -0.372716
LJ          0.445143        -2.30748         1.91591
LJ         -0.682121         1.24966         2.01457
LJ          -1.29892        -1.93958         1.90274
LJ         -0.587845      -0.0944015     -0.00339545
LJ         -0.642333         1.00481        -1.77289
LJ           1.99263        -1.33583         2.34088
LJ           -1.8031       -0.406968        0.317642
LJ           1.91289         1.25752       -0.370549
LJ         0.0850752        -1.29993        -1.87437
LJ          0.228071      0.00608365       -0.481778
LJ         -0.483121         2.03583        -1.14051
LJ          -2.35892        0.160559        0.965025
LJ         -0.999462        -1.75182        -1.10141
LJ          -2.32293        -1.44092        0.421686
LJ         -0.445404         1.65847      -0.0988537
LJ           1.90426         2.19653         1.79267
LJ           2.05327         -2.2378         -2.0667
LJ           2.27943         1.06229         1.70743
LJ          -2.24207        0.592968       -0.116674
LJ           1.50662       -0.290852       -0.982706
LJ          0.362567        0.777921         2.28806
LJ          0.370442       -0.953318       -0.092261
LJ           1.11982        0.253245        -1.95678
LJ           2.36203         1.36247        -1.44741
LJ          0.419262        -1.38862         1.04332
LJ           1.91954        -2.23772        0.685635
LJ         -0.516876        -1.12327        0.590724
LJ           1.76166       -0.252384        0.242915
LJ          -1.25933         2.09792       -0.348369
LJ          0.950943       -0.553097         1.16017
LJ           0.27187        0.218295        -1.49479
LJ          0.642074       -0.751975        -1.07595
LJ          0.772086        0.347005         1.54263
LJ           1.28184        0.611423       0.0835613
LJ          -1.36285        0.573547         0.67187
LJ          -1.94984       -0.767525          1.3917
LJ          -1.44589        0.314028         1.65626
LJ            -1.276         0.68091       -0.367141
LJ          -1.12996         2.15108        -2.07717
LJ          -2.30653        -1.67556         1.40567
LJ          -2.05221       -0.124636         2.30775
LJ          0.479642      -0.0302151        0.498301
LJ          -1.50475         1.82278        -1.24231
LJ         -0.978329       -0.247516        0.965597
LJ           1.59955        -2.17667       -0.417373
LJ         0.0826485         2.11391        0.607879
LJ          0.433813         1.08059        0.736456
LJ           1.84595       -0.810089         1.52096
LJ          -1.82373        -1.94506        -1.89447
LJ          0.504573          -1.216         2.00746
LJ           1.54189        0.696146          1.0364
LJ           -1.3383       -0.197141       -0.707186
LJ           1.85953        0.145691         1.81534
LJ         0.0709112       -0.326345        -2.32593
LJ          -2.23509        -2.33284       -0.114293
LJ          -1.40913        -1.62062         1.02087
LJ          -1.89729        -1.40648        -1.06151
LJ         -0.776855        -2.17155        0.447427
LJ          0.517528         1.33487        -1.55561
LJ            1.0973        -1.65057        -1.93549
LJ           2.13674        0.416603        -1.20246
LJ          0.792668        -1.71116       -0.865444
LJ          -1.52603         1.28881         1.41244
LJ         -0.544027         2.37319         1.46194
LJ          0.367465         -2.2429        -1.57088
LJ           1.22391        0.793884       -0.970334
LJ         -0.833387         1.62469        0.801832
LJ         -0.652253       -0.456612        -1.39145
LJ         -0.382936        -1.40164         1.63278
LJ             2.327        -2.30721        -1.12621
LJ           2.04178         1.53262        0.560681
LJ          -1.02272       0.0729195        -2.11916
LJ           1.43288         1.17959        -1.95338
LJ         -0.413261        -2.00082        -2.33253
LJ          -1.72407        -0.57516        -1.56446
LJ           -1.7637         1.36283        0.250728
LJ         -0.979208       -0.677543         1.98971
