108
#Comment!
LJ           1.25081        -1.57247        0.288633
LJ           2.27659        -1.24565       -0.347287
LJ           1.89757       -0.666961        0.365097
LJ          -1.73581        -1.94971       -0.412036
LJ          -1.76393         0.72946        -1.21674
LJ            2.0648         -1.8229          2.0821
LJ          -2.11146         1.80165       -0.442976
LJ          0.184958         1.34293       -0.745295
LJ           1.29992         1.81118        -1.27132
LJ          -1.10524         1.10715        -1.86495
LJ           1.62969         1.27115        -2.12891
LJ         0.0711694        0.965309        -1.80361
LJ          -2.37777        -1.83055        -1.68757
LJ          -1.53723         2.19779        0.379117
LJ          -1.55708         1.70194        -1.26299
LJ         -0.778376       -0.164888         1.21483
LJ            2.0428       -0.897409         1.29287
LJ           -1.8238        0.574214         1.48029
LJ          -1.29593       0.0856572       -0.513831
LJ           1.46991         -2.2145        -2.00452
LJ           2.19374       -0.932884        -1.29121
LJ           2.17937         1.56385        0.479359
LJ           -2.1826         2.15296         1.23813
LJ          0.511033          2.0254         -2.0148
LJ          -1.81823       -0.466106         1.23256
LJ          -1.01088       -0.818584         2.02606
LJ          -0.45533         1.77961        0.834769
LJ          0.922241         -2.2726         1.95922
LJ         -0.430873        0.606939         -1.0702
LJ           1.49854       -0.315776         2.10731
LJ          -1.92487        -0.48251     -0.00357457
LJ         -0.111089         2.09795        -0.15993
LJ           0.13171        -1.13971         1.78572
LJ           1.20518        -1.34144         1.92481
LJ           2.01432          1.0142        -1.19817
LJ          0.428311         -1.2316        -1.05487
LJ          0.460874         2.03742         1.23692
LJ          0.211576        -1.63666       -0.145962
LJ          -1.93458         2.20834         2.32189
LJ          -1.07573          2.0458       -0.452825
LJ          0.885577         2.36208      -0.0890497
LJ         -0.429365          1.0683        0.113867
LJ          0.540271         1.46829        0.276628
LJ          0.988556        0.593812         2.38109
LJ          -1.79258       0.0798964         2.34484
LJ         -0.113496       -0.932702        0.697939
LJ           1.76415         1.92768         1.88961
LJ         -0.331211        -1.96916        -1.87748
LJ          -1.49512        0.200152        0.563478
LJ          -2.27869       -0.890494         2.19376
LJ          0.333693        0.489792        -0.13464
LJ           1.30673          2.0197        0.756851
LJ           1.57157         1.51157        -0.30801
LJ           -0.4921       0.0904706        0.266407
LJ          -1.57567       -0.233193        -1.39843
LJ         -0.954762       -0.842674      0.00149634
LJ           1.40695        -1.52962         -1.1603
LJ         -0.904015        -1.37072         1.22654
LJ          -2.18686         1.17775         2.37342
LJ           1.52005      -0.0236701         1.22639
LJ          0.836555        0.834613          1.2218
LJ           1.38246        0.510978       -0.546257
LJ          0.972347       -0.214374        0.231123
LJ           0.74257        -1.82633         1.09079
LJ          -1.51321        -1.07963       -0.870297
LJ           1.53894        -1.09355        -2.03557
LJ          -2.32605        0.732586       -0.330097
LJ        -0.0680325        -2.15748         1.89113
LJ           2.09476        0.245798        -1.94877
LJ         -0.912631        -1.85199       0.0302668
LJ         -0.176133        -2.02296         0.74093
LJ         -0.412232         1.72964         2.09085
LJ          -1.11906         2.33944         1.25599
LJ          -1.57063         1.22943        0.741255
LJ           2.28799        0.571512        0.677044
LJ        -0.0205639         0.50612         2.11554
LJ          0.482354        -2.22478        -1.04185
LJ           2.18127      -0.0505803       -0.836493
LJ           1.84968        -2.24335       -0.545511
LJ          0.949734        0.800386        -1.39165
LJ          -1.43832        -2.04383        -1.43868
LJ          -1.74911        -1.42044        0.566374
LJ         -0.492833        -2.03999       -0.889932
LJ           1.37524        0.905567        0.387275
LJ          0.882653       -0.777583         1.08375
LJ           2.32609        -2.08785        0.326028
LJ           2.30865         1.84854        -1.69533
LJ         -0.269271        -0.99525        -2.11336
LJ          -1.44273         1.49291         1.85288
LJ          -1.00209        0.560716         2.13566
LJ           1.35265       -0.698485       -0.525936
LJ         -0.421317        -0.83241       -0.971143
LJ           -1.8915        -1.63556         1.51309
LJ          0.178537       0.0138412          1.1527
LJ           1.75354        -1.91074         1.19787
LJ          0.546895       -0.341164        -2.33736
LJ          0.819839         1.47655         1.97619
LJ          -0.44267        0.780617         1.25295
LJ            1.2115       -0.146484        -1.43188
LJ          -1.09338        -1.83299         2.17205
LJ          -1.41933         1.11845       -0.349238
LJ          0.226596       -0.136551        -1.33004
LJ         -0.443141         1.81761        -1.47568
LJ           1.87181        0.772853          1.7311
LJ          0.610955        -1.65327        -2.01144
LJ          -1.57108        -1.16712        -1.89575
LJ         -0.687202       -0.136738        -1.92401
LJ          0.167019       -0.637479        -0.18774
