108
#Comment!
LJ         -0.400619         1.70059         1.28239
LJ          -1.55044       -0.708553       -0.901664
LJ          0.939627         1.19134        0.618309
LJ           1.01311       -0.170226       -0.885851
LJ          0.587383         1.05813          1.5325
LJ           1.71193         1.75133       -0.318816
LJ           2.27478         1.04524       -0.625149
LJ           1.41863       -0.645707         2.14799
LJ         -0.300652        -1.40211        -2.35673
LJ           1.61787        -2.36829         2.17466
LJ         -0.743202        0.573902       -0.453913
LJ           1.84327        -2.28512        0.301338
LJ          -1.17458         1.72021        -2.37848
LJ          -1.20278         2.33787         1.35115
LJ           2.29788        -2.04518        -1.93157
LJ          -2.22889         -2.3536         1.17024
LJ         -0.309592        0.846116        -1.28433
LJ           -1.6719       0.0955759         1.80822
LJ         -0.993127          2.3352       -0.446425
LJ          0.910716         1.63662         2.34071
LJ           1.48324       0.0288888        -1.88729
LJ           2.08936       -0.794794        -1.86955
LJ          0.515731       -0.483482         1.63526
LJ           -2.1793          2.1361       -0.601434
LJ          -2.36102       -0.884492        0.751405
LJ         -0.475142       -0.571237         1.68495
LJ           2.12146         0.29534         1.92859
LJ          -1.56046        -1.02827        -1.89621
LJ         -0.102065       -0.488295        -2.13079
LJ          -1.79701         1.14186         1.17111
LJ         -0.175879        -2.12458       -0.918745
LJ          -1.10226          1.3705        0.369411
LJ          -1.60699          2.2184        0.443004
LJ           1.77925        -1.99978       -0.747152
LJ           2.03224        0.850608        -2.00166
LJ          -1.47976         0.87776        -1.61669
LJ          -2.09457        -1.79991     -0.00202539
LJ          0.105793         -1.7276       0.0216847
LJ           1.74285        0.718908         0.99095
LJ          -1.08248        0.332786         1.01457
LJ         -0.238187        0.728809        0.584305
LJ          0.285933        0.570485       -0.520534
LJ           1.42347         2.32182         1.20193
LJ         -0.171796       -0.104212        -1.09233
LJ          0.255441          1.5354        -1.67206
LJ          0.838574        -2.26712       -0.615796
LJ           2.04395       -0.296604        -1.00802
LJ           1.69474         1.49958         1.77029
LJ          -2.30771       -0.113932      -0.0605377
LJ           0.38679       -0.313253       -0.168514
LJ          -1.33979        -2.07653         -2.3378
LJ           -1.4022        0.231622        0.166093
LJ         -0.198379         1.38568         2.24012
LJ          -1.59514       -0.851846       0.0788321
LJ          -2.21656         1.99698          2.1103
LJ          -1.63774        -1.54254         1.04856
LJ           1.12186          2.1295        -1.56355
LJ            0.6048        0.160898        0.700858
LJ          -1.04066       -0.221337        -1.59691
LJ          0.765257       -0.837996         -1.6979
LJ           1.43865       -0.203112        0.252936
LJ         -0.522185        -1.20992        0.816756
LJ          0.878844         2.20931        0.328464
LJ           -1.9186        0.261345       -0.888514
LJ          0.519421        0.378982        -1.60179
LJ            1.1257        0.290738         1.84831
LJ           1.13925         1.10305        -1.48614
LJ          0.458002        -1.55981         1.71963
LJ         -0.360849          1.4416       -0.425359
LJ           -2.1194        0.886725        0.258164
LJ           2.11546         1.55338        0.642076
LJ          -2.17804       -0.872562         2.08651
LJ          -1.16146        -1.94115        -1.27992
LJ         -0.291461       -0.270544        0.527315
LJ          0.188238        -2.00484        0.928111
LJ          -1.87558         1.01504         2.23868
LJ         -0.721457        -1.39063       -0.501573
LJ          -2.06893       0.0246353        -1.93019
LJ         -0.860394         1.69575        -1.40172
LJ          0.588093        -2.04801        -2.16489
LJ         -0.773189       -0.417432       -0.327247
LJ          -1.84473         1.85985        -1.72063
LJ         -0.112302        0.388396          1.6977
LJ           2.04321        -1.11037       -0.143814
LJ          -1.18635        -1.21494         1.82985
LJ           2.00457          1.7158         -1.2677
LJ          -2.22834        -1.43699        -1.02553
LJ           1.41513        -1.46711        -2.15122
LJ          -0.64636        -2.32342        0.548901
LJ           1.03059        -1.35469       -0.138724
LJ         -0.573964        -1.10564        -1.46261
LJ           1.42814         0.74447      -0.0788383
LJ          -1.43601       -0.606052         1.08727
LJ           1.95798        -1.46292         1.65038
LJ          0.041135         1.67677        0.440148
LJ           1.48981        -1.06987        -1.01639
LJ           1.67184        -0.43485         1.18267
LJ         -0.370169         -2.1612         1.81961
LJ           1.49135        -1.41972        0.743737
LJ          0.507479         2.15189         1.54267
LJ         -0.722009        0.543756        -2.20988
LJ          0.302012        -1.19012       -0.900901
LJ           -2.1441        0.140266        0.862385
LJ          -0.98026          1.0167          1.7426
LJ          0.414377        -1.00019        0.691156
LJ          -1.47847         1.35595       -0.661068
LJ         -0.371774         2.32518        -1.98488
LJ          0.623844          1.5234       -0.489936
