108
#Comment!
LJ           1.43831         1.98622       -0.170426
LJ         -0.123284         1.03987         1.70536
LJ          0.163962       -0.528164       0.0488506
LJ          0.639243        0.248176       -0.345863
LJ          0.896978          1.2106       -0.493759
LJ           1.11303        -1.05571         2.30795
LJ           1.27033         2.10627        -1.37143
LJ          0.206586        -1.50963       -0.022845
LJ           1.96482        -0.93724       -0.610431
LJ          -1.38744       -0.948466        -1.23101
LJ          -2.08287         1.88227        -1.23278
LJ           1.37014        0.432812        0.737015
LJ          0.940634      -0.0243044         -2.0617
LJ           1.26788       -0.769777        -1.44024
LJ           1.91081          1.4436        0.514305
LJ         -0.934167        0.847109        0.180608
LJ           1.94734       -0.415988        -2.31128
LJ        -0.0762905        -1.28192       -0.958389
LJ          -0.24107         1.47135       -0.438054
LJ          0.124854         2.17738        -2.31024
LJ          -1.56239        -1.66234        -2.24834
LJ         -0.707586        0.983234        -1.13327
LJ           1.21329        -1.71901       0.0784507
LJ           1.87449         1.34609       -0.954339
LJ         -0.870178         0.61856         1.15432
LJ          -1.35998        -1.99464         1.49773
LJ           1.90377        -2.05171       -0.917217
LJ           -2.0199        0.280622        -2.31566
LJ        -0.0186043        0.117805         -2.3513
LJ            0.9654        -1.71561       -0.940548
LJ         -0.299995        -2.04346         1.19778
LJ           1.07397        -0.82116       -0.255875
LJ           2.14309         1.67605         1.50149
LJ          0.450063        -1.71006        -2.10275
LJ          0.716009        0.469749         1.82046
LJ         -0.699989        -0.62069       -0.500139
LJ          0.165571       -0.813122        -1.99753
LJ          0.427763         2.22593       -0.545088
LJ           -1.8464         2.13751         2.08706
LJ          -2.01009        0.860268        0.233069
LJ         -0.491555       -0.307866        -1.41974
LJ         -0.561284         1.06264        -2.17026
LJ           1.25826         1.22753         1.28163
LJ           2.34812        -2.00698         1.61456
LJ          -1.36649         0.41559        -1.66571
LJ          -1.90638         1.05491         1.54357
LJ          -1.23409       -0.984229         1.66506
LJ          -2.24429       -0.142114       -0.243037
LJ           1.99527         1.69776        -1.94498
LJ          0.142063          1.7093        -1.34822
LJ          0.963715       -0.484267         0.67304
LJ           2.19787        -1.36808         2.35703
LJ          -1.22834         1.61979       -0.542284
LJ          0.439962         1.17825        -2.28885
LJ          -2.29201        -2.18426        -1.89801
LJ            -1.524        -2.20272      -0.0211308
LJ           1.48414        -2.03697        -2.12418
LJ          -1.19817         1.91962        0.650169
LJ          -1.83318        -1.33399       -0.451326
LJ           1.71064       0.0706109        -0.88955
LJ         -0.792863       -0.669633        -2.24283
LJ          -2.15942         2.20196        0.679014
LJ           2.28249        0.362168         1.03397
LJ         -0.866943        -2.37796         2.26845
LJ           1.55252        -1.23718         1.40324
LJ          0.341117         -1.2161         1.03924
LJ          0.636212          1.1107        0.484415
LJ          0.537181        -2.35144         0.44435
LJ          -1.52898         1.20549        -2.15139
LJ          -1.96086        0.887822       -0.787126
LJ          -1.54482      -0.0341009         1.02962
LJ         -0.491253         2.36511        0.193313
LJ          -2.34355         1.88182       -0.216262
LJ          0.425974        -0.21964        -1.17477
LJ          -1.49789        -2.07166        -1.21617
LJ         -0.450768        -2.26186       -0.926586
LJ           1.83919        0.895396         2.05071
LJ          -2.35793        -1.29922        -1.35534
LJ           2.20606        -1.64544        0.165692
LJ          0.421849         1.89403          1.5519
LJ           2.18392        0.628469        -1.56829
LJ          -2.23092       -0.266186        -1.30615
LJ         -0.381181        -1.46013         2.03919
LJ           2.29937       -0.648646        0.561334
LJ           1.67394        -2.16876        0.900425
LJ         -0.224437         1.63834        0.851519
LJ         -0.863787         1.86608        -1.64011
LJ          0.237982        0.244177        0.899985
LJ         -0.337173        0.289083       -0.530339
LJ          -0.74559         -1.5903       -0.259869
LJ          0.302952        0.743202        -1.44189
LJ          -1.52395       -0.758955        0.300904
LJ          -1.74964       -0.707401        -2.13642
LJ         -0.364181       -0.432542          1.5358
LJ           -1.1285        0.110316          1.9977
LJ           1.74857        0.667194       -0.068376
LJ         -0.988249        -1.46732        0.694976
LJ           -2.1621       -0.526616         1.70727
LJ         -0.974434         1.49599         1.78967
LJ         -0.705252        -1.66272        -1.73297
LJ          0.973849        -2.00353         1.75057
LJ          -1.36242       0.0823145       -0.672923
LJ           1.21315         1.76075         2.22039
LJ         -0.683659       -0.057578        0.462328
LJ           1.28374         1.07303        -1.76235
LJ           1.68794         -0.3022         1.51631
LJ          -1.93054         -1.4013        0.922593
LJ          0.587939       -0.455833         1.67325
