108
#Comment!
LJ        -0.0253598        0.402955        0.436567
LJ         -0.784154        0.587293        -2.20028
LJ          0.303284         2.17394        0.713499
LJ          -2.25656         2.21643         1.79057
LJ           2.10997         1.24318        -0.27097
LJ           2.17731         1.80887        0.629173
LJ           1.22577         2.08774         1.02351
LJ           1.61911        0.470361        0.853579
LJ          -2.15653         -1.8841        -2.06149
LJ           0.59246        -2.23827         -1.9677
LJ         -0.155676         1.92736          -1.459
LJ           -1.0171        0.358023        0.640937
LJ          0.419848        -2.15517         1.70637
LJ          -2.12532         1.02529        0.963428
LJ         -0.907896         1.76179        -2.24776
LJ          -1.90485          2.1826      -0.0145789
LJ          0.980186        0.659327         -1.6279
LJ       -0.00869603       -0.694737         1.68713
LJ          -1.51863        -1.07568       -0.929073
LJ          -2.02437         1.06273         2.10998
LJ          0.108367         1.32146         0.11524
LJ          0.266992         1.23184        -2.01846
LJ          0.972618        0.155404         1.71201
LJ           1.46245        -1.59735        -1.93151
LJ          -2.11017        -1.61666       -0.196507
LJ           0.78098        0.907346         1.02681
LJ            0.3594         1.50277         1.67224
LJ          0.872313        -1.90933        0.013289
LJ          -1.87734        -2.03202        -1.13126
LJ           -1.6581         1.95482         1.07815
LJ          -1.41404        -2.12765         2.08441
LJ           1.05248         1.65029        0.117484
LJ           -0.4482         1.34962        0.979316
LJ            1.9222         1.24025        -1.89273
LJ          -1.63368       -0.888877         1.63918
LJ         -0.713401         1.70341        -0.42434
LJ           1.49792       -0.184644        0.112774
LJ           1.62511        -1.92454          1.8925
LJ          -1.27602        -1.19392        -1.87275
LJ          0.496636        -0.70496         -1.1517
LJ            0.1604       -0.144183       -0.351898
LJ        -0.0950539        -1.90562       -0.973978
LJ           1.97344        -0.49424         1.24699
LJ          0.126489        0.142553        -1.44658
LJ          0.737708         1.93537        -1.17999
LJ           2.21174       -0.870044         2.34225
LJ           1.91919        -1.56095        -1.07553
LJ           1.23527         1.14244       -0.824602
LJ            1.1559         1.99496         2.11142
LJ          -2.02127       -0.792766        0.716724
LJ          -2.10008       -0.562373        -1.56018
LJ          -2.03035        0.433857        0.129384
LJ          -1.12334          1.1004         1.70498
LJ          0.261495        0.415569          2.3242
LJ          -1.01552       -0.809304         0.79456
LJ          -1.09254        -1.44754      -0.0181233
LJ           1.99538        0.266825       -0.609135
LJ          -1.83809         1.89415        -2.09394
LJ          0.261946         2.11073       -0.418554
LJ          0.510885        -1.35734         1.08177
LJ           -1.1656       -0.447566       -0.292367
LJ          -0.81675         2.15267        0.420819
LJ           1.52874        -1.44666         0.87013
LJ         -0.553609          2.1464         1.54988
LJ           1.25875          1.0063         2.15761
LJ         -0.902054       -0.141998          1.6625
LJ          -1.72995        0.288287         1.45263
LJ          0.831008       -0.340843        0.892512
LJ         -0.769998        0.494826        -0.29808
LJ          -1.80049         1.01531        -1.60488
LJ           -1.5411      -0.0495506        -2.32736
LJ           2.08315         0.30455         1.84893
LJ          -1.59842         1.19411       -0.501979
LJ            -1.747        -1.74596        0.834118
LJ          0.574706        -1.04202         -2.1242
LJ           1.85352         1.52218         1.55429
LJ          -1.08255        -2.22469       -0.618197
LJ          -1.76133        0.211246       -0.901256
LJ         -0.941354        -2.11603        -1.63887
LJ         -0.282533        -1.39019        -1.77758
LJ          0.898813        0.635102       0.0653869
LJ          -1.23313          1.7895        -1.26772
LJ          -1.28348         1.27344        0.395898
LJ          -2.22781       -0.510903       -0.271373
LJ           2.36741        -1.36527         1.43271
LJ           1.51476         2.17051        -0.63641
LJ           1.70514       -0.546164        -1.27094
LJ         -0.654384        -1.38581         1.88428
LJ         0.0500455         1.10734       -0.861837
LJ           1.71309         -1.1338       -0.171668
LJ        -0.0950764        -1.73362       0.0141684
LJ           1.71885         2.23374        -1.75366
LJ         -0.089767         -0.5855        0.481578
LJ           1.18859       -0.914236         1.71318
LJ         -0.530984         -1.7819        0.955692
LJ         -0.169987        0.492469         1.42462
LJ           1.04293        0.111571       -0.816222
LJ           2.34888         1.82817        -1.08336
LJ           1.33436       -0.429286          -2.147
LJ         -0.367497        -2.17682         2.35893
LJ           0.96347        -1.55871       -0.912647
LJ         -0.360051       -0.969679       -0.729961
LJ         -0.840379        0.884649        -1.18913
LJ         -0.575373       -0.493105         -2.0489
LJ            1.8323          -2.115        0.190025
LJ         -0.828769      -0.0870679        -1.13567
LJ           2.14565        0.271803        -1.88099
LJ          0.762344       -0.885156        0.047566
