108
#Comment!
LJ          0.456657         -1.5665         1.56544
LJ          -1.89644       -0.251647         2.09363
LJ         -0.487301       -0.179112       -0.417316
LJ          0.453068        0.726979        0.684369
LJ        -0.0340993        0.734599       -0.259872
LJ          0.120564        0.222671        -1.96586
LJ          0.811568         2.30346         0.26284
LJ           1.21937         1.87424         -2.1337
LJ          -2.25372        -1.57061        0.365465
LJ          0.450911        -1.16639        0.138666
LJ          -1.75668        -1.19224        -0.83404
LJ            1.4897        0.576687        0.633268
LJ         -0.188589         1.13045        -1.15022
LJ           2.11697       -0.632006        -1.01366
LJ          -2.22642        -2.12714       -0.836732
LJ          -2.24694         0.33262        -1.12517
LJ          -2.03734        0.443311        0.154685
LJ          0.763351        0.102794       -0.184761
LJ           -1.9223         1.70914       -0.113487
LJ           2.16554       -0.152668        -1.98523
LJ          0.815243        0.947806         -2.2223
LJ          0.786922       -0.620058        0.977822
LJ          0.849498         1.13998       -0.118013
LJ          0.315479        -2.32476         2.24911
LJ          -1.44602        0.450229         1.32497
LJ           1.95743        -1.44456        -0.41115
LJ         -0.511039         2.21869         1.61591
LJ          -1.41295        0.893674       -0.527038
LJ           2.19623        -2.05868         2.27208
LJ          -0.77477         2.23544        -2.05281
LJ           1.84847        -2.38014        0.187605
LJ            2.2872         1.67429        0.721544
LJ           1.39315        -1.45599        0.373639
LJ          0.883273         2.33497         1.33818
LJ         -0.843283         2.02899       -0.264718
LJ           1.67672         0.54583         1.89625
LJ         -0.467189        0.362041         1.72081
LJ          -1.98709        0.908981         2.11484
LJ           1.60417       -0.451929        0.416368
LJ         -0.259398         2.24684        -1.11979
LJ           1.22812         1.36942         1.62502
LJ           -1.4192       -0.704916         1.25242
LJ           1.57881         1.03044        -0.94677
LJ         -0.236161        -1.72407        -1.92679
LJ         -0.875994       -0.928003        -1.25327
LJ          -1.25201        -2.09237        -1.09844
LJ          -1.37207        -1.69969        -2.04812
LJ          -1.13797         1.64623        -1.28291
LJ           1.75231        -1.66146         -1.4848
LJ         0.0593411        -2.04816        0.814204
LJ          -2.36891        0.846315         1.22466
LJ         -0.637551        -1.15273        -0.21049
LJ          -1.03039       -0.704126         2.29101
LJ          0.271976         1.72295        -1.79724
LJ           2.13404         1.73764         1.93734
LJ          0.138607          1.7951       -0.263032
LJ            1.1697        -1.77979         2.27428
LJ          -2.23682       -0.534707       -0.069527
LJ          -0.78998         1.27714         1.45462
LJ           1.80896         1.97075       -0.673682
LJ          -1.70122          1.7477         1.54958
LJ           1.15711       -0.695476       -0.634384
LJ          0.556059        -2.12615         -1.5476
LJ          0.248599         1.66858        0.824013
LJ           1.76363         -1.0251        -2.29632
LJ          0.529927        0.485541           1.694
LJ           2.12673        0.955268        -1.85551
LJ          -2.16731        -1.17786        -1.74996
LJ         -0.763913         1.99812        0.705347
LJ          0.845482        -1.06865        -1.59335
LJ         -0.196324       -0.750855        -1.96719
LJ          -1.71459         2.37445        0.661599
LJ          0.650467        0.676563        -1.23846
LJ          0.380037       -0.314063       -0.985962
LJ          -1.63667       -0.209228        -1.69709
LJ           2.26918        -1.19191         1.26994
LJ          -1.49083       -0.181155       -0.659591
LJ          0.866863        -1.86434       -0.515616
LJ           1.60889       -0.300141         1.40447
LJ          -1.55437         1.23515        0.722478
LJ         -0.324022        -1.02003        0.929965
LJ        -0.0312472       -0.101458         0.46321
LJ          -2.19496         1.40371        -1.08286
LJ          0.142143         1.50291         1.90299
LJ          -2.23164       -0.113729         1.06947
LJ        -0.0851331        -1.94526       -0.184313
LJ           1.33936        -1.24211         1.48889
LJ         -0.898675        0.311529        -2.17888
LJ           2.03461         1.05612      -0.0514253
LJ          -1.72194         2.13147        -2.09786
LJ           1.30571         1.56608        0.677991
LJ          0.851966         1.70815       -0.953831
LJ            1.7021        0.157974       -0.474914
LJ         0.0208049        -1.36489       -0.982805
LJ         -0.686911         1.28098        -2.26589
LJ          -1.36533         -1.8338       -0.128564
LJ          -1.64132        0.839658        -1.66483
LJ         -0.555431        -1.51115         1.76954
LJ         -0.806465        0.316066        -1.21058
LJ          0.857864       -0.353486         2.37426
LJ           -1.7158        -1.70587         1.72289
LJ          0.108446        -0.54114          1.8159
LJ           1.18031        -0.11695        -1.49611
LJ          -1.21285        -1.53283        0.864683
LJ          -1.05277       -0.402778        0.377733
LJ           2.14668          2.1958        -1.61964
LJ         -0.724381        0.798677        0.447829
LJ           2.27406        -2.21786         1.23042
