108
#Comment!
LJ          0.819308       -0.132013         -1.3899
LJ          -1.89467        -1.01443          2.3085
LJ         -0.281379       -0.414972        -1.39523
LJ           1.34623         1.06311       -0.322684
LJ           1.33279         2.01523         1.54777
LJ          -1.58494       -0.923217        0.435932
LJ           1.67226         2.37874        -2.10947
LJ          -1.20838        -1.70095         2.00519
LJ          0.755257         -1.0923       -0.773705
LJ           1.28796        -1.74025        -1.49755
LJ          -1.92041        0.167786         2.26525
LJ          -0.24263         1.29574        0.909606
LJ          -2.04763         -2.0635         -1.9957
LJ          -1.91882       -0.458798         1.46056
LJ          -1.89165         1.02356         1.77181
LJ           2.26621        -1.71535        0.173862
LJ          -1.50388        -2.02975       -0.982417
LJ           1.36451        0.612586        0.585159
LJ          -2.12933         0.62154        -1.50304
LJ           2.07606        -2.36442        0.894764
LJ          -2.34216        -1.91134         1.81303
LJ         -0.672088        -1.78826         1.06694
LJ          0.412934        0.256202        0.858851
LJ          -1.15036         0.27097         1.61246
LJ           2.36068        0.346109         1.24057
LJ          -1.07148        -1.76467        0.227439
LJ           1.56219        -1.84609       -0.514421
LJ           1.65483        0.811185         1.72743
LJ          -1.20253      -0.0442567        -1.59919
LJ          -1.61731        0.802343       -0.462336
LJ           1.06601        -2.18977        0.435625
LJ          -2.01584         1.61516        0.911278
LJ           1.90694       -0.821724       -0.366968
LJ           1.98433         1.97313       -0.161873
LJ          0.338551         2.09056        0.845668
LJ          -1.91223        -1.25853        -0.45457
LJ          0.242142        -2.27937        -2.12176
LJ          0.969359         1.67657        -2.19847
LJ          0.466443         1.35516         -1.3237
LJ         0.0620832       -0.548763         1.40968
LJ           1.39422         1.00196        -1.43228
LJ            1.7767         0.28847        -0.87955
LJ          0.644469         1.05983         1.39136
LJ          0.195467       -0.440873        -2.28118
LJ           -1.1575         1.77435       -0.468132
LJ          -1.00735       -0.512778         2.31878
LJ          -1.38256         2.23573         1.36115
LJ           2.23658         2.20141         -1.2553
LJ           0.53075        -2.09867         1.67371
LJ          -1.74003         2.20533        0.206888
LJ           1.22533         2.02887         -1.2698
LJ           2.28244         1.03379        0.213631
LJ          0.127957        -1.30519        -1.80522
LJ        -0.0337199         1.37069         2.36666
LJ         -0.873842         1.30952         1.66979
LJ           0.50888         1.22422        0.246767
LJ          -0.79211         0.73516        -1.09893
LJ         0.0236943        -0.53633        -0.37876
LJ           1.95659        -1.38699        -2.21494
LJ           2.31934        -1.54164        -1.28616
LJ          -1.84468         -1.7532        0.924917
LJ           2.24995       -0.519709        -1.89814
LJ          0.364282        -2.29015        -1.14241
LJ           1.41561       -0.322897        0.956612
LJ          -1.06949       -0.899827          1.2766
LJ        -0.0403931        0.393413         1.67804
LJ           2.17645        -1.10764          1.1016
LJ         -0.588776        -2.08714       -0.573741
LJ           1.89366        0.361692        -2.10928
LJ         -0.462124         2.17089          1.7242
LJ          -1.61911       0.0815436        0.571092
LJ          -1.86889       -0.278301       -0.324842
LJ            2.2723         1.22883       -0.797758
LJ          0.884869      0.00586782         1.74477
LJ           1.23048       -0.501339         -2.2321
LJ           1.97127       -0.475611         1.86065
LJ           1.49841         1.55356        0.607696
LJ         -0.586847        -1.95293        -1.72824
LJ          -1.87941       -0.613106        -1.23807
LJ           2.34301         1.87588           1.801
LJ         -0.612141      -0.0435484        0.735478
LJ           -1.1256         2.11727        -2.29314
LJ         -0.509974         1.69722        -1.36089
LJ          0.650911        0.624907         -2.1425
LJ         -0.133486         1.92619        -0.15953
LJ             1.368        -1.22457        0.470612
LJ          -1.22433        -1.14473        -1.70757
LJ          0.421698        -1.78329       -0.169302
LJ          -1.61991         1.57671        -1.41853
LJ         -0.355777       -0.951722        0.407808
LJ          -1.32823         1.07669        0.575169
LJ          -1.37481        0.963133        -2.15516
LJ         -0.900961       -0.112291       -0.530251
LJ          0.304506         -1.5786        0.809867
LJ          0.946094       -0.920398         1.63689
LJ         -0.819506         2.02389        0.546114
LJ         -0.551594        0.447098        -2.17036
LJ          0.976067        -1.53477         -2.3613
LJ         -0.313464        0.658364       0.0205682
LJ           2.22589         1.43463        -2.04285
LJ          0.564459       -0.639685        0.438656
LJ          0.994265      -0.0478588       -0.319263
LJ           1.48524        -1.76131         1.56576
LJ         -0.281544        -1.33845         1.91435
LJ           2.08997      -0.0273465        0.230016
LJ          0.871661         1.93639       -0.366202
LJ         -0.848669        -1.16686       -0.551232
LJ          0.166231        0.413197       -0.934706
