108
#Comment!
LJ          0.163156        -1.00883         1.14326
LJ          0.868304       0.0199831         1.88125
LJ          0.788761         1.12786         1.37017
LJ          0.611809         1.43504       -0.659807
LJ          -1.70771       -0.950832         1.36389
LJ         -0.640386        -2.29981        0.406617
LJ            1.3744         1.95806        -2.22452
LJ          -1.49053         1.88758          2.3204
LJ          -2.13125         2.12748         1.29539
LJ         -0.191452        -1.51934       -0.360983
LJ         -0.715737        -1.96304         -2.3213
LJ          -2.19892          2.2472        -1.82856
LJ          0.762376        -1.78907       -0.743459
LJ          -1.66431      -0.0279453       -0.187306
LJ         -0.615028        -1.28865        0.528645
LJ          -1.02636         2.35017         1.55155
LJ           -1.0726        0.775056         1.88678
LJ           2.24558        -0.52626        -0.29061
LJ           2.05242        -1.39855       -0.898947
LJ         -0.272623       0.0624489         1.99642
LJ          -1.59487        0.239196         1.19105
LJ          0.113947         2.30145       -0.377518
LJ           1.89747         0.59631         1.22103
LJ           1.48255         1.33963        0.696363
LJ          0.755965       -0.978795        -1.39584
LJ         -0.909392         1.34766         1.11967
LJ          -1.65894         1.88401        0.367036
LJ           1.01233        -0.92589         1.60548
LJ           -2.1998        -1.90674      -0.0973087
LJ          0.834472       -0.842969        0.247987
LJ           -1.5104        -1.98663        0.799496
LJ          -0.93524        0.257136         0.49602
LJ          0.556668        0.843636          0.3656
LJ         -0.285455        -1.20623        -1.49044
LJ           1.39913      -0.0369952       0.0344062
LJ           2.31544         1.55434      -0.0558105
LJ        -0.0705291        -1.98042         1.15085
LJ         -0.179527         1.18163         2.01285
LJ          0.298662       -0.539972       -0.700661
LJ           1.51947        0.873631         2.10882
LJ           1.56404       -0.938096        -2.11649
LJ          -1.33306        -1.96008        -1.40629
LJ           2.10861         1.59091         1.92778
LJ           1.19557         2.05929      -0.0264516
LJ         -0.790154        0.903322        -1.95929
LJ          0.514043       -0.590646        -2.22204
LJ          0.854475        0.313447       -0.744814
LJ           2.00639        0.272002       -0.831378
LJ          -2.05005        0.834403         1.96249
LJ         -0.143373        -0.34068        0.542619
LJ           1.42937        0.979121       -0.255696
LJ           1.36022        0.967231        -1.44962
LJ            1.3182       -0.799901        -0.63642
LJ         -0.378909         1.89589         -2.0479
LJ          -2.03074         2.20931       -0.865832
LJ          -1.29596         -1.9848       -0.366827
LJ         -0.238665         1.46172        0.381031
LJ          -0.79967      -0.0525532        -1.84594
LJ          -2.00527        0.976213         -0.7645
LJ           2.36304       -0.118422         1.66609
LJ         -0.816661       -0.379785         1.31937
LJ          -1.30611       -0.970966        -1.97625
LJ          0.308172         1.13173        -1.87898
LJ           1.91601         2.23306        0.629919
LJ           0.77647     -0.00629601        0.887339
LJ           1.79361        -2.29358       -0.606867
LJ         -0.477356       -0.845029         2.30002
LJ           1.23402        -1.70073        0.986466
LJ          0.347652         2.27441         2.21336
LJ           1.76509         1.87009         -1.3524
LJ           1.86563       0.0458953        -2.23202
LJ           1.61381       -0.629102        0.777787
LJ          -0.97251          1.7064       -0.346557
LJ          -1.39681       -0.893764       -0.956946
LJ          -1.46445       -0.110084         2.10861
LJ          0.151325        -1.55233          2.0021
LJ          -1.91193        0.247137        -1.73453
LJ          -1.01967        0.275234       -0.895705
LJ           2.19518        0.555555        0.205283
LJ         -0.799673        -1.36911         1.57475
LJ          0.444749          -1.835        -1.81151
LJ           1.19041        -1.71647         2.13311
LJ         0.0325917        0.279195        -1.37855
LJ          -1.21856         1.76409        -1.37067
LJ            2.2362        -1.43333         0.70246
LJ           1.20069      -0.0730884        -1.54357
LJ          0.718074         2.03271        -1.41703
LJ        -0.0589791        0.609218         1.16453
LJ          -2.23391       -0.295247        0.577432
LJ         -0.323158        -2.18032        -1.23982
LJ          0.492061        -1.74755        0.298364
LJ           1.97077        -1.20248         1.69799
LJ          -1.55947        0.934316        0.118646
LJ          -2.22669         1.23657        -1.85432
LJ           1.18616         2.10296         1.50978
LJ           -1.6657        -1.78776         2.13439
LJ           2.13473         -2.1687         2.09231
LJ         -0.305909         1.51785        -1.06711
LJ          -2.19206       -0.769105        -2.35025
LJ         -0.880315       -0.578221       -0.124577
LJ         -0.159452        0.399313       -0.400168
LJ          -1.59254        -1.18409        0.173723
LJ           1.48315        -1.59617       0.0265336
LJ          -1.99345         1.21571        0.996046
LJ           1.43898        -1.95231        -1.52579
LJ          0.463894         2.01955        0.775009
LJ           2.07049       -0.549514        -1.44602
LJ          -2.16851         -1.5141        -1.65074
