108
#Comment!
LJ         -0.235241         1.63769         1.02108
LJ          -1.26676         1.61191         1.88164
LJ           2.07002        -1.40883        -1.43627
LJ          0.514795        -1.04876        0.869486
LJ         -0.397325        0.332132        0.724167
LJ          0.400092         1.67974        0.277759
LJ          0.221635        0.652198      -0.0114828
LJ          -1.75063         2.31586         1.44394
LJ          0.789467       -0.783413         -1.8336
LJ          -1.74745        -1.35192       -0.571014
LJ          -1.86331        -1.82972        0.369457
LJ           1.95275        0.159665         1.55703
LJ           -1.5776        -1.83588        -1.57782
LJ           2.04565        0.566948       -0.938456
LJ           1.92285        -1.88256         0.93825
LJ         -0.434305        0.172808       -0.609419
LJ          0.197599         1.01362        -1.18916
LJ           1.31774        -1.45224         -0.8115
LJ         -0.250473         -2.1361        0.196581
LJ         0.0107249        -1.16172       -0.079215
LJ          0.543712         1.07457        -2.12058
LJ         -0.928622        -1.09362        -1.81508
LJ           0.81388         1.03506         1.33078
LJ           1.62536         1.89176        -0.12179
LJ          0.971351       0.0556373         1.16435
LJ           1.53432        -1.14902         2.33064
LJ         -0.960686         1.01954        -0.87816
LJ          -1.62025       -0.762599        0.328157
LJ          -2.06187         -2.0354         2.26563
LJ            2.1678         1.06044      -0.0484725
LJ          -1.06198         2.31125        0.800604
LJ         -0.569267         1.28449       0.0980164
LJ          -1.12807         2.34496       -0.206787
LJ         -0.106189         1.93084       -0.591784
LJ          0.518978       -0.849802          1.9856
LJ           0.27344        -1.98487         2.22533
LJ           1.26338        0.759828        0.423094
LJ           1.31167        0.489142        -1.65846
LJ           -2.2666         1.91345        0.658121
LJ          -1.14162       -0.093643        -1.67392
LJ          -0.35734          -1.325         2.00687
LJ         -0.491052        -1.66895         1.04953
LJ         -0.846772        -2.22586          1.8471
LJ         -0.830576        0.422488         1.96947
LJ          -1.23628        0.925105          1.1675
LJ         -0.254911         1.28224         1.91548
LJ          -1.45245        -1.44292         1.20166
LJ          -2.06441        -0.52249        -1.36584
LJ          -1.88948         1.20987         -1.1876
LJ          0.544314       -0.585917       -0.701036
LJ          0.692653        -2.18187       -0.101497
LJ           1.79243        -2.04613        -2.21112
LJ            -1.691        0.309547       -0.983951
LJ          -1.84687         -1.1233        -2.19733
LJ         -0.505736        -2.14955        -1.87611
LJ            1.3038         2.08998        0.862936
LJ          -1.19339       -0.476469        -0.61282
LJ           1.82221      -0.0628481        0.584465
LJ         -0.350204       -0.394991        -2.23746
LJ          0.406327        0.113816        -1.62266
LJ          0.729803         1.98395         1.71507
LJ         -0.783163         1.53156        -1.99666
LJ          0.109225        0.138805         1.74281
LJ          -1.77853         1.89151        -2.11404
LJ            2.2888       -0.467382          2.3118
LJ          -1.81503        0.332034         1.77094
LJ         -0.370795        -0.86778       -0.963078
LJ          0.283405        -1.68343       -0.858339
LJ           1.01316         2.10195        -2.11528
LJ           1.59182       -0.603817       -0.287221
LJ          -2.18724       -0.478458         1.11098
LJ          -2.27791      -0.0509088       -0.225642
LJ          -1.46018        0.763764         -2.1426
LJ          0.129437         1.89444        -1.63946
LJ          0.444738        -2.19145        0.987315
LJ           1.47775         1.27444         2.17412
LJ           1.09434         0.24132         2.10077
LJ          0.901819         2.18612        -1.08518
LJ           1.01082         -1.6442         1.63728
LJ           1.15229        -1.37647        0.168847
LJ          -1.18928       -0.762065         1.92667
LJ          -1.25231       -0.146256         1.12803
LJ           1.88795         2.13114         1.75174
LJ          0.829432        0.317241       -0.764583
LJ         -0.629801        -0.54341        0.284633
LJ          -1.48637         1.44425        0.135124
LJ          -2.20795         2.08106       -0.310835
LJ           0.68496       -0.206204        0.276343
LJ           2.16826        -1.80302       -0.527738
LJ         -0.413088        0.567576        -1.89611
LJ          0.967155        -1.75439        -1.66302
LJ           -2.1409        0.654266        0.812218
LJ           2.10594         -1.0622        0.447605
LJ         -0.947814         -1.4615        0.108399
LJ          -1.34133         2.00944        -1.08874
LJ          0.890716         1.32437       -0.518621
LJ           2.32499         2.31092        -1.39485
LJ            1.6301       -0.793117         1.26341
LJ           1.64821       -0.307116        -1.23565
LJ          -0.83903        -1.72975       -0.885733
LJ          -2.25476         1.25439         2.13742
LJ          -2.37007        0.423017        -1.92883
LJ           1.58401         1.50943        -1.52339
LJ          -2.36374        -1.32699         1.63016
LJ        0.00955119        -1.31885        -1.77634
LJ           1.84971         1.17384         1.26001
LJ          -1.23026        0.388112      -0.0611636
LJ         -0.335485       -0.674135          1.2071
