108
#Comment!
LJ            1.7521         1.55047         1.11708
LJ         -0.192951         1.40706         1.84461
LJ          0.731795        -1.47801        -2.19772
LJ           1.12815        0.783879         1.99482
LJ         -0.535475        -1.28667       -0.491199
LJ           1.81642       -0.958767         1.62315
LJ           2.34295       -0.617425        -1.76836
LJ           1.13091        -1.12031         -1.3693
LJ          0.877392         1.83308        -1.11192
LJ           1.68962         1.32059        -1.98476
LJ          -1.15606       -0.712465        0.281887
LJ           0.42284        -1.03608       -0.555727
LJ          0.369227        -1.85719        0.613502
LJ            2.1273         1.01061         1.95092
LJ         -0.974867         2.14869        -0.30426
LJ          -2.19591        -2.35783        -2.16423
LJ         0.0353521        0.957667        0.248531
LJ           1.33918       -0.703628        -2.22674
LJ           1.34708        -1.86122         1.71709
LJ          0.629677         1.06709          1.1246
LJ          -1.92301        -1.42102         2.11576
LJ          -1.13079        -1.94835         2.26752
LJ          -1.28489        -1.79409         1.23144
LJ          -1.27417         1.84601        -2.33844
LJ         0.0138921         1.75559       -0.236521
LJ          -2.14605         1.43827         -1.9527
LJ         -0.805727       -0.589891        -1.55419
LJ           1.73337           2.003         2.01668
LJ        -0.0401193        0.363052        -1.71843
LJ           1.94172        0.192933        -1.09139
LJ          0.443741        -1.05835         1.57226
LJ          0.203627         1.83614        0.813612
LJ         -0.415998        0.104134        0.353092
LJ           1.92806        -1.85099       0.0827842
LJ           -1.9431       -0.667919         1.14286
LJ          -2.26051       0.0381349         1.72573
LJ          0.351991         1.40508        -1.91953
LJ          -2.00011         2.16911         1.52543
LJ           1.40795       -0.354263        0.790162
LJ          0.160609        0.503737         1.97556
LJ         -0.641818       -0.859156         1.48819
LJ          0.621044       -0.769967        0.419876
LJ          -2.08964        0.519152          -0.294
LJ          -2.32698        -1.75805          1.1728
LJ           2.33049        -1.42715        -0.81679
LJ           1.48603        0.290287       -0.198679
LJ           1.24389        -1.43821        0.831945
LJ          0.404202        -1.84982        -1.31756
LJ         -0.391658       -0.313028       -0.667764
LJ          -1.60152        -1.51636        -1.64491
LJ           -1.7715         1.41828       -0.258869
LJ           1.33684         -1.8929       -0.814972
LJ          -1.41987       -0.869602       -0.881435
LJ          -1.01625          1.8868         1.49446
LJ          -1.43553        0.921395         1.71422
LJ          0.869242         2.31228         -1.9737
LJ         -0.766881        -1.83052        -1.32541
LJ         -0.318802         1.97642        -1.12196
LJ          -1.95383        -2.38045       -0.433744
LJ         -0.759888         1.49364        0.575087
LJ          0.994389         1.17285       -0.154986
LJ          -1.49796         2.15071        0.650874
LJ           1.09043         2.27085        0.915399
LJ          0.912788        0.141308         -1.9255
LJ         0.0200882        -1.94331          1.7867
LJ           2.29661         2.01916        0.440028
LJ           2.20474         1.31775        -1.03017
LJ          0.122881       -0.187993         1.21978
LJ          -2.35932       -0.464119       -0.472582
LJ          -1.29044         2.08887        -1.41866
LJ          -1.59872         1.15728        -1.16657
LJ        -0.0232171        -2.10705       -0.426634
LJ          0.899815       -0.188207         1.79775
LJ          -2.14972         1.00366         1.05934
LJ           1.96852        0.256089        -2.16503
LJ           1.44375       -0.890242       -0.146095
LJ          0.339299        0.238283       -0.463416
LJ          -1.48256       -0.538307        -2.21983
LJ           1.63135        0.583758        0.896512
LJ          -1.43979        -1.76306        0.125059
LJ          0.133251       -0.898612        -1.45098
LJ         -0.341934        -1.41011        -2.21924
LJ           1.08821       -0.202935       -0.972768
LJ          -2.33421        0.102688        0.588623
LJ         -0.909722        0.442897        -1.25591
LJ          0.756461         1.89732         1.81756
LJ          -1.80543      0.00337839        -1.28428
LJ          0.876361          2.2507      -0.0843508
LJ           1.22483        0.865783         -1.1843
LJ         -0.547607        -2.23321        0.756491
LJ           1.77687         1.95926       -0.395051
LJ           1.87064         2.25724          -1.378
LJ          -1.20932        0.115661       -0.313944
LJ         -0.385208        -1.21517        0.566599
LJ          -2.23305          -1.122        0.342686
LJ           -1.2222      -0.0322137         1.45103
LJ         -0.400854        0.753865         1.11582
LJ          0.730994        0.287749        0.483517
LJ         0.0854318       -0.452164         2.33527
LJ          0.168939          1.0353        -1.01836
LJ          -0.78566        0.370128         2.27556
LJ         -0.852477         1.06304       -0.344531
LJ          -1.78477        0.404009        -2.23399
LJ         -0.697686         1.31979        -1.71529
LJ           1.98555        -1.48896        -2.05286
LJ           1.96258         1.16111          0.1668
LJ          -1.31967        0.633874        0.586937
LJ         -0.137898         2.22415        -2.16351
