108
#Comment!
LJ          -1.96204        0.593974         1.88751
LJ          -1.04674         2.28336        -2.28246
LJ          0.687641        -2.22464         2.02075
LJ          0.966941         1.65137        -2.37124
LJ          -1.03151        -1.08636        0.229132
LJ           1.72577       -0.789411         1.59925
LJ          -1.80872       -0.912901         -1.6776
LJ           1.87185        -1.74761        -1.43684
LJ          0.983975         1.31345        -1.32929
LJ           1.69672          2.3589         2.15535
LJ          -1.22247       -0.184697       -0.180081
LJ          0.815746       -0.513437       -0.464544
LJ          -0.26769        -0.37485       -0.063922
LJ          -1.43001         1.52095         1.64028
LJ          -1.36915        -2.10983        0.546113
LJ          -1.84293        -2.30808        -1.71302
LJ          0.597402        0.695956        0.635896
LJ           1.27807       -0.715311        -1.42867
LJ           1.18888       -0.290974         2.26643
LJ          0.848381         1.71473         1.12588
LJ           1.57442        -2.02633         0.34685
LJ          -1.31616        -1.34047        -2.37629
LJ          -2.09398        -1.76034         1.39804
LJ         -0.302289        -2.28328        -1.00472
LJ         -0.466732         2.13801       -0.134187
LJ          -1.64713         1.46276        -1.98553
LJ         -0.241482         1.09833        -1.11117
LJ           2.11444         2.22495         1.13552
LJ          0.306151       -0.207029         -1.9792
LJ          -1.80628         0.05976       -0.952353
LJ          0.544362       -0.899491         1.59773
LJ         -0.190281         2.11368         2.00764
LJ         -0.681611        0.421897        0.411979
LJ           2.21184         1.87946       0.0105581
LJ          -1.16344        -1.30736         1.40174
LJ          -2.13908       -0.668141         2.08681
LJ         0.0226589         1.74345        -1.80326
LJ          -2.06008          2.2328         2.08103
LJ          -2.00646       -0.855986         1.10038
LJ          0.880175        0.270775         1.48089
LJ          -0.30816       -0.712497         1.96851
LJ          -2.00624       -0.858457       -0.142962
LJ           2.12421        0.119981       -0.332974
LJ          0.572879        -1.96525        0.865279
LJ           1.58469        -1.43877        -0.45455
LJ           1.31069        0.102491        0.199384
LJ          0.593004        -1.19758        0.189438
LJ         -0.514341        -1.35928       -0.529141
LJ         -0.817996        0.294072        -1.16599
LJ           2.07566        -1.46407         2.35473
LJ          -1.81035        0.699076      -0.0505964
LJ           1.44252          2.3793       -0.708346
LJ          -1.35843        -1.04351       -0.810966
LJ         -0.986703          -2.316         1.46344
LJ          -1.27035       -0.203187         1.06621
LJ          0.879686        -2.08743        -1.50976
LJ         -0.951982        -1.78171        -1.55309
LJ          0.388257         1.81433       -0.766681
LJ           -2.2374         -1.7738       -0.595009
LJ         -0.785375         1.46701        0.500846
LJ           1.04845        0.907818       -0.413285
LJ           -1.5393         1.73512        -0.38974
LJ           1.24205         1.84126        0.064132
LJ           1.35127        0.733884        -2.04479
LJ        -0.0977374        -1.70291         1.60221
LJ           1.86503        0.948018        0.241022
LJ            2.3456        0.679548        -1.87968
LJ          0.571746       -0.330097        0.733742
LJ           1.64274        0.207246         -1.2108
LJ          -1.30217        -2.02876        -0.49236
LJ          -2.33279         2.01354       -0.939033
LJ          0.651186        -1.47506       -0.739905
LJ           1.81958        0.413325         1.90237
LJ          -1.75993         1.72687        0.592466
LJ           2.03448       -0.294315        -2.00582
LJ           1.39181       -0.975713        0.720823
LJ          0.258523         1.54969        0.194739
LJ           -1.2221       -0.323718         2.10656
LJ            1.9085         1.40653         2.23258
LJ          -2.24772        -1.64683        0.413797
LJ          0.314493        -1.20217        -1.65332
LJ          -0.82773       -0.666712        -1.72006
LJ        -0.0546251        -0.56225       -0.978311
LJ            2.1593      -0.0822489        0.715013
LJ           -1.1232         1.92528        -1.28254
LJ         -0.214193         2.19623        0.951028
LJ          -1.50993        0.334551        -1.86899
LJ          0.514785        -2.24683       -0.100972
LJ          0.495774         0.48009        -1.14328
LJ         -0.335889        -1.71812        0.486498
LJ           1.86684         1.14997       -0.930006
LJ           1.86085         2.04306        -1.73481
LJ          -1.96213         1.05615       -0.989642
LJ         -0.351645       -0.806081        0.948303
LJ           2.13173        -0.80936       -0.957606
LJ         -0.144883       0.0414223         1.35302
LJ        -0.0100034         1.27293         1.38596
LJ         0.0576057         0.58598       -0.218933
LJ          0.970657        -1.24949        -2.34905
LJ          0.351071        0.871684        -2.12551
LJ         -0.507846        0.371977        -2.13914
LJ         -0.890171        0.989741       -0.377798
LJ         -0.938274        0.707568         1.49224
LJ         -0.628196          1.2902         2.29593
LJ           1.50632         -1.7785         1.39977
LJ           1.64413          1.0876         1.18392
LJ          -2.05604        0.775391        0.868797
LJ        -0.0814353        -2.07151        -1.97135
