108
#Comment!
LJ          -2.16417        -1.50487         2.18988
LJ           2.36325        -1.46514       -0.655751
LJ          0.452902        0.938705        -1.30904
LJ          0.374337        -2.31326        0.939606
LJ           2.25805        -1.84029         0.25306
LJ           2.26817       -0.487471          2.2822
LJ          0.479571        0.970496         1.64099
LJ          0.656262        -2.15012       -0.657115
LJ          0.445559        -1.14202       -0.894047
LJ           0.46975       -0.949025         2.24431
LJ          -2.21327         1.52297        -1.21503
LJ           -2.2027         2.10926          1.7076
LJ           2.03112         1.10144        0.136978
LJ           2.07359       -0.506752        -0.36519
LJ           2.15147         2.08512        -1.95282
LJ          -2.12556        -1.71448         -1.5885
LJ         -0.735533       -0.500083         1.03924
LJ         -0.572205         1.54662        0.429078
LJ           1.62463        0.213156        0.492472
LJ         -0.877948        0.465798       -0.679769
LJ           1.82473         0.42584         2.06755
LJ           -1.5923        -1.55785      -0.0229047
LJ         -0.447725          1.0757         2.34346
LJ          -1.27484        -1.22915        -1.01691
LJ           1.72829       -0.932998         1.62003
LJ           -1.8563       -0.767754         1.44972
LJ          0.371166         1.49565        0.632624
LJ         -0.200094        -1.69649       -0.315142
LJ           1.57371         1.54923         2.14303
LJ          0.188848         0.11549         2.29317
LJ           1.84064        0.418712       -0.742901
LJ           1.74927        -2.12974         1.91053
LJ         -0.740844         2.18967         2.26663
LJ          -1.34173         -1.9384         1.80321
LJ         -0.732444        0.737386         1.34466
LJ         -0.755709         2.10865        -1.47189
LJ          -1.62625         2.06252        -2.18987
LJ          0.180737       -0.617474       0.0540107
LJ           1.74453         1.10574        -1.69383
LJ           1.00336       -0.214658       -0.536445
LJ         -0.303817        0.646828        0.156419
LJ          -1.25641         0.66227        -1.96074
LJ          -1.61457        0.191345         1.84038
LJ         -0.245974        -1.75746        -1.32921
LJ           1.32058        -1.70431         1.06557
LJ         -0.814012        -2.08972        0.304414
LJ          0.774622        -2.13207         2.14381
LJ          0.689914        -1.76908         -1.5812
LJ          -2.34658           1.175         1.51151
LJ           2.26308        0.225999        -1.75483
LJ          0.536947         1.42965       -0.395717
LJ          0.198227         2.02297        -1.36422
LJ            1.1343        0.246889        -1.40134
LJ           1.47108       -0.861709        -1.12585
LJ          -2.23127         1.14931        -2.26109
LJ          -1.42647         1.16919         1.90234
LJ           1.28697         2.13936        0.245951
LJ          0.926056       0.0675772         1.59448
LJ          0.708115        0.476984        0.152844
LJ          -1.79229         2.30261        0.422703
LJ          -0.27667          1.6405         1.49407
LJ          0.502229       -0.461653        -1.64632
LJ          0.394624         -1.5345         1.41838
LJ          0.893452        0.853392        -2.18556
LJ          -1.51091         1.36689        -0.19174
LJ          -1.18429         0.32267        0.500985
LJ           2.02434       -0.961256        0.618775
LJ          -2.09449        0.390949        0.137332
LJ          -1.27134         2.01335         1.25888
LJ         -0.805382      -0.0558486         2.28412
LJ          -1.46192       -0.704929        -2.14302
LJ         -0.235435        0.266423        -1.57465
LJ          -0.34224         1.33801       -0.870941
LJ          -1.21917         1.29508        -1.17148
LJ          -1.23918        -1.34877        0.936287
LJ          0.657865         -1.6532        0.367555
LJ          0.381672         1.72904         2.33266
LJ           1.47335         1.00523         1.28289
LJ           1.01872       -0.647685        0.556007
LJ         -0.742822         2.11325        -0.47838
LJ         -0.488854        -2.05642         1.37414
LJ           1.45137        -1.45108       -0.182035
LJ         -0.788846       -0.876839       -0.210982
LJ           2.37137       0.0542976         1.20043
LJ         -0.348917       -0.816834        -1.97834
LJ          -2.35508        -1.67047         1.21044
LJ          -1.66161       -0.639903        0.411367
LJ           1.57339        -1.23717        -2.11484
LJ           -0.3353        -1.26959        0.601356
LJ           1.39481         1.30824       -0.802947
LJ           1.57113        -2.02066        -1.21923
LJ          -2.29332       -0.746082        -1.48039
LJ           2.13269         2.06767       -0.309444
LJ          -1.84678         1.12318         0.68455
LJ          -1.55399       -0.283269       -0.506767
LJ         -0.082437        -1.74812        -2.32674
LJ         0.0574862         2.22471       0.0526497
LJ           2.06731         2.13665        0.866093
LJ         -0.852097       -0.387438        -1.19561
LJ          0.289812      -0.0640186        0.874191
LJ          -1.66574         2.34053       -0.774914
LJ           1.20394         2.08478        -1.80081
LJ         0.0874491        0.107997       -0.644792
LJ           1.30825       -0.285053        -2.24743
LJ         -0.992064        -1.61144        -1.93273
LJ          -1.90304        0.557083       -0.994036
LJ           1.15828          2.0267         1.36891
LJ          -0.76421        -1.03559         1.97181
