108
#Comment!
LJ        -0.0660127        -2.07071        0.186538
LJ           0.37551        -1.51049       -0.586085
LJ          0.143526        -2.17754         1.17976
LJ          0.272537        0.895836         2.19256
LJ         -0.743052        -0.31535         1.40805
LJ            2.1966         1.76971        -1.83153
LJ         -0.841043         -2.1786          1.1376
LJ          -1.72109         1.93144        -1.34906
LJ         -0.399998        0.908471       -0.311628
LJ          -1.36642         -1.9275       -0.389352
LJ           1.93932        0.970184         1.24519
LJ           1.52558        0.528817       -0.391133
LJ          -1.28912        -1.73074         1.89213
LJ         -0.794313        0.599652        0.962391
LJ          -1.54444         1.13635       -0.358149
LJ          -1.89892         2.30442        -2.30706
LJ          0.572301        0.582744      -0.0912809
LJ          -2.33036         1.00104         2.10424
LJ           1.48629       -0.316699        -1.86171
LJ          0.904099        -1.93571        0.375823
LJ           1.42367       -0.973042         2.13997
LJ          -2.01932        0.275103          1.4205
LJ          -2.05587        -1.39746        -2.32909
LJ          0.883574         1.57042        -1.44628
LJ           1.37345        -1.47283       -0.467736
LJ         0.0748687         1.75894         -2.0769
LJ           1.80549         0.99232        -1.21602
LJ           1.12378        -1.18947        -1.48138
LJ           1.18569       -0.337025       -0.676734
LJ           2.17251       -0.093325       -0.802947
LJ           1.55854        -2.09029         1.18541
LJ          0.721876         2.13724         1.94228
LJ        -0.0864333         1.84487       -0.899296
LJ          0.871204       -0.899933        0.103042
LJ          -1.69674        0.798479        0.596551
LJ         -0.524102        -1.28899         1.54568
LJ          0.114584       0.0166713        -1.34443
LJ          -2.17814         1.99672       -0.472677
LJ           1.92559         1.82321         1.62642
LJ          0.531244       -0.108573        -2.26981
LJ           2.22326        -1.85161        0.472289
LJ          0.229132       -0.145236        0.571158
LJ           1.13505       -0.187559         1.47439
LJ         0.0486939         1.65201         0.29821
LJ          -1.45468        -1.87009        -1.39563
LJ         -0.871466        -1.37115        0.329637
LJ         -0.538989        -2.03701       -0.974349
LJ          -1.62456         2.00347        0.339191
LJ         -0.899839        0.206432       -0.717206
LJ          0.335503       -0.773015         1.71114
LJ         -0.813299         1.64139        0.833684
LJ          -1.64952        -1.66328        0.764038
LJ          0.260337        -2.12609         -1.5541
LJ         -0.471329        0.215943        -2.12563
LJ            2.2856        0.350678        -1.79923
LJ           1.66467         2.00565       -0.994366
LJ         -0.777595         2.22746         -1.7879
LJ            1.2336       0.0138896        0.472421
LJ          -1.86508        0.188462        -0.23104
LJ          -1.53803       -0.901572         1.40459
LJ         -0.804975       -0.369779       0.0231039
LJ           2.26447         1.09652       -0.140948
LJ           2.17988        -1.85138        -1.60871
LJ           1.04128         1.40975       -0.479465
LJ          -1.59203         1.33837        -2.11094
LJ        -0.0404714         1.64426         1.49786
LJ           1.94219       -0.807667     -0.00580833
LJ           1.18312        -1.09205         1.04504
LJ           2.06055       -0.628652         1.35621
LJ         -0.796743        -1.16477       -0.651492
LJ           -1.9909         2.24438         1.31181
LJ          0.322529         0.94056       -0.983822
LJ          0.734194         2.32763       -0.565152
LJ          -1.48448         1.20588         1.46524
LJ           1.47139        0.405302         2.23329
LJ          -1.56547       -0.354525        0.621033
LJ          0.989905        0.523532        -1.61683
LJ         -0.668584        -1.49877        -1.93517
LJ          -2.34634       -0.798798        -1.49182
LJ           2.37662        -1.57308         1.42831
LJ           1.14452        -2.11868        -1.95152
LJ         -0.737886        0.957143         2.06408
LJ          0.221253        -1.25217        0.771172
LJ           2.16447         1.77986        0.607465
LJ         -0.841166         2.02222       -0.268042
LJ         -0.965007         1.99045         1.97936
LJ          -1.58799        0.239084         2.37263
LJ         0.0266078        -1.03787        -1.37669
LJ          0.808018        -1.65453          1.7266
LJ         -0.312823        -2.07022         2.14153
LJ           1.01525        0.920445         1.50094
LJ           -1.9905        0.889068         -1.1339
LJ          -1.74178       -0.958252       -0.230163
LJ          0.310576        -1.39331        -2.26793
LJ           1.28408         1.07175        0.411872
LJ         0.0851299       -0.476591       -0.471994
LJ          0.927551         1.83562        0.927685
LJ         -0.878591         1.03805        -1.45237
LJ          -2.32671       -0.473318         2.26164
LJ         0.0984069        0.152168         1.55569
LJ           -1.4433       -0.707743        -1.20262
LJ           2.19994        0.362541        0.483584
LJ          0.286648        0.858079        0.851653
LJ          -1.25138       -0.724477        -2.25982
LJ           1.88621        -2.00144          2.2175
LJ           1.33674         1.51527        -2.32528
LJ           1.61348         2.25423      -0.0623771
LJ           2.34588        -1.75508        -0.50625
