108
#Comment!
LJ           1.08232         2.10869       -0.129859
LJ         -0.170963        -2.10988        -2.37051
LJ          -2.21153         2.34666       -0.688136
LJ          -0.45892          -1.038         0.91282
LJ           1.70876         2.07392         1.15929
LJ            1.6568        -1.75331       0.0643517
LJ           1.61974       0.0467527       -0.873595
LJ          -1.20047        -1.69848         1.29126
LJ           1.59247        -1.29595        -2.10357
LJ          -1.41605        -1.07446        -1.03329
LJ          -1.83781        -1.31345       0.0916294
LJ          -1.86443      -0.0809613        -2.29832
LJ          -2.21371        0.387129         -1.4046
LJ           1.73039         1.08733        -1.11697
LJ          -1.79206         1.80779         1.08444
LJ         -0.179653        0.467908       -0.881942
LJ          0.705708         1.55955         0.93625
LJ           0.87327       -0.137435        0.114386
LJ          0.162191         1.39781       -0.423952
LJ         -0.317523         2.20846       -0.651668
LJ          0.794634        -1.76477       -0.448402
LJ         -0.515901       -0.703017       -0.810547
LJ            1.8364         1.07292        0.791212
LJ            2.0543         1.89267         0.12148
LJ         -0.306743       -0.225891         1.82766
LJ           -1.7675         2.24144         2.17495
LJ          -1.30727          1.6254       -0.843426
LJ          -1.16445       -0.770744         1.72135
LJ          -1.01616       -0.700032        -2.07263
LJ          -2.13195         1.11114       -0.661065
LJ           1.02266        -1.67703         1.92695
LJ        0.00691056         2.07583        0.286298
LJ         -0.891521         2.26454         0.59137
LJ         -0.776878         1.41089       0.0600277
LJ           1.58821        0.559974          1.5689
LJ         -0.614696        -1.66292        -1.08078
LJ           1.65944         2.31084         -1.1319
LJ           1.12394        -2.15906        -1.92424
LJ          -1.71431         1.98178        0.103671
LJ       -0.00972384        0.977559        -2.14912
LJ         -0.204896        -1.19614        -1.90239
LJ        0.00440018        -1.66706         0.40191
LJ         -0.805037         2.09593        -1.87517
LJ            0.4952         1.90953        -2.07365
LJ         -0.960614         0.29247        0.460487
LJ          0.313728        -2.11569        -1.30845
LJ           0.58435       -0.827517         2.37147
LJ           2.04646       -0.927932        0.521736
LJ         -0.837015        0.278843        -2.23614
LJ          -1.33403        -2.09115        -0.54614
LJ         -0.804077        -1.29846      -0.0410774
LJ          -2.01744         1.73508        -1.54148
LJ        -0.0808611        0.828717        0.505885
LJ          -1.25803       0.0593192        -1.30158
LJ           -1.0316         1.01428        -1.60069
LJ          -1.93798         1.09113        0.459716
LJ         -0.195582         1.49978        -1.32304
LJ            1.9833       -0.502538         2.10168
LJ           2.22832        -1.50892       -0.776508
LJ          0.910939         1.66475        -1.03882
LJ           0.90279         2.12701         1.78317
LJ         -0.353949        -1.25911         1.86228
LJ           2.37109         1.50489         1.88988
LJ         -0.930032         2.04446         1.55182
LJ            1.5674        -1.59721         1.10444
LJ        -0.0693785         1.73191         1.81273
LJ        -0.0461998       -0.687184       0.0316029
LJ           2.27153        -2.17245        -1.84935
LJ          -1.19581         0.59886       -0.457378
LJ           1.75041     -0.00430982         0.71193
LJ          -1.99367       -0.354727         1.37785
LJ           1.88745        0.573983       -0.127718
LJ         -0.933017         1.27242         2.19346
LJ           1.15494       -0.490927         1.53334
LJ           2.08851        -2.15371          2.0034
LJ            1.6456         1.76157        -2.18043
LJ          -2.04694        0.696768         1.44177
LJ          0.855781        -1.28595        -1.39391
LJ          -1.81985        0.887306        -2.22138
LJ          0.815982        -2.19654        0.773135
LJ          -1.11881        0.229661         1.55893
LJ          0.620715        0.179336         2.10572
LJ           -1.1416        -1.70198        -2.34875
LJ           1.16106        0.921955        -1.95546
LJ           1.11247         1.10136        0.088081
LJ         -0.945201          1.1279         1.08724
LJ           -2.2761        -2.13013        0.601416
LJ          0.755344        0.531207        0.963695
LJ           1.27107       -0.870201       -0.576819
LJ         -0.179595        -2.11241         1.34066
LJ           0.40307       -0.508665       -0.951659
LJ          -1.35882       -0.380929       -0.247264
LJ          -2.11503        -1.35371         1.25398
LJ          -1.30857       -0.645631        0.723976
LJ          -2.07672       0.0813044        0.415656
LJ           2.36078       -0.503344       -0.393143
LJ          -2.14814        -1.32604         2.27221
LJ           1.09069        -1.05743        0.432255
LJ           1.02219       -0.247916        -1.69315
LJ          -1.56825        -2.12002        -1.57252
LJ        -0.0499787        0.805323         1.55269
LJ           2.26681        -0.78507        -1.56421
LJ           0.77447        0.598817       -0.733896
LJ        -0.0222736       -0.114989        0.906728
LJ        -0.0226926       -0.107873        -1.79708
LJ           1.96482          0.4156        -2.23141
LJ          0.757988         1.14327         1.93634
LJ           0.48272        -1.13675         1.27712
