108
#Comment!
LJ        0.00919186         1.73579        0.852666
LJ          -1.77136         1.39933         1.64011
LJ           2.02831        -1.70661        -1.60541
LJ          0.488823        -1.04071        0.988712
LJ        -0.0356542        0.404533        0.638238
LJ          0.720536         1.98581        0.114529
LJ          0.435292         1.13348       -0.231342
LJ          -1.89172        -2.12765         1.17003
LJ           0.85718       -0.650889        -1.71997
LJ          -1.30075        -1.09147       -0.680265
LJ          -1.93634        -1.73643        0.271363
LJ           1.64836        0.134956         2.01579
LJ          -1.75095        -1.82757        -1.25395
LJ           1.92028        0.215367       -0.676608
LJ           1.96622        -2.12285        0.607632
LJ         -0.189188        0.329766       -0.429786
LJ          0.254318         1.03152        -1.19505
LJ           1.10653         -1.3642        -1.07831
LJ         -0.209699         2.33551       -0.101826
LJ          0.307432        -1.40243      -0.0857656
LJ          0.253147         1.40142        -2.23066
LJ         -0.872863         -1.0308        -1.54289
LJ          0.748156         1.02729        0.974567
LJ           1.75516         1.99063       -0.385254
LJ          0.770573      -0.0549052         1.07285
LJ           1.43587       -0.986399         2.31218
LJ         -0.860282        0.939348        -1.25418
LJ          -1.48842        -0.81949        0.352112
LJ          -2.24437        -1.95497         2.33113
LJ           2.28309         1.04198      -0.0227221
LJ         -0.949926         1.74175         1.12414
LJ         -0.488956         1.37434       -0.106531
LJ           -1.1721         2.37027        0.272725
LJ         -0.280965         1.91753         -1.0289
LJ          0.519563        -1.22914         2.05402
LJ         -0.436767         -1.5912          2.2522
LJ            1.3944         1.31651        0.250743
LJ            1.4725        0.501901        -1.87955
LJ           2.20461          1.5015        0.900328
LJ          -1.16591       -0.285494          -2.205
LJ          -1.49194        -1.26509        -2.37485
LJ         -0.198108        -2.03935         1.13839
LJ           -1.4168         2.28811         2.01489
LJ         -0.442422       -0.062706         1.62409
LJ         -0.904151         0.74953         1.31817
LJ         -0.323768         1.96791         1.89583
LJ          -1.10782        -1.58914         1.42949
LJ          -2.34477       -0.796233        -0.80911
LJ          -2.05456          1.1116       -0.954486
LJ          0.173032       -0.820162        -0.88945
LJ           1.20696        -1.93098       -0.148567
LJ           1.76806         2.15507        -2.12787
LJ          -1.97481       0.0808439        -1.14859
LJ          -1.87828       -0.779114        -1.70471
LJ          -1.05174        -2.08644        -1.93737
LJ           1.23517         1.87542         1.02775
LJ          -1.02457       -0.180988        -0.65971
LJ           1.36643        0.309357        0.158722
LJ        -0.0655177       -0.513251         -2.3157
LJ           0.38165        0.375329        -2.02928
LJ          0.680477         2.20967         2.06017
LJ         -0.912633         1.59463        -2.02018
LJ           0.22057        0.641226         1.77059
LJ          -2.04774            1.76          -2.237
LJ          -2.30775       -0.659207         2.11974
LJ          -2.03356        0.309165         1.63556
LJ          -0.46068       0.0343432        -1.48811
LJ          0.396112        -2.05984       -0.830189
LJ           1.03151         1.53477        -1.61653
LJ            1.4227       -0.712417       -0.447505
LJ           2.25321       -0.213732        0.895075
LJ          -2.06379      -0.0437447       -0.139309
LJ          -1.63889        0.834635        -2.12508
LJ        -0.0649286        -2.33109        -1.92234
LJ          0.800374        -2.01423          1.1435
LJ           1.08355         1.30571         1.86721
LJ          0.792717       -0.330386         2.08187
LJ           1.31415        -2.34338        -1.21764
LJ            1.6901        -1.70653         1.50139
LJ           1.26363        -1.12979        0.429404
LJ          -1.30309       -0.582733         1.60884
LJ          -1.03067       0.0326167        0.672471
LJ           1.99729         2.00585         1.69162
LJ          0.975137        0.168216        -1.10176
LJ         -0.464903       -0.634738       0.0602823
LJ          -1.67924         1.53881        0.535278
LJ          -1.98908         2.06292       -0.285175
LJ            0.4826        -0.33864      -0.0692308
LJ           2.09229        -1.73256       -0.620483
LJ          -0.74836        0.660213         2.30823
LJ          0.897824        -1.89011        -2.03726
LJ          -1.94003         0.57957        0.663643
LJ           2.30696       -0.927165         0.14703
LJ         -0.586178        -1.58604        0.326636
LJ          -1.35068         2.05807        -1.07634
LJ           1.30005         1.03358       -0.677464
LJ           2.36005         2.18893        -1.18462
LJ           1.39131       -0.706339         1.31602
LJ           1.80688       -0.554538         -1.6011
LJ         -0.765656        -1.91117       -0.866708
LJ           2.11871         1.06277         1.98514
LJ          -2.33797        0.170647        -2.10702
LJ           2.17537         1.17829         -1.8093
LJ          -2.15133        -1.15835         1.14315
LJ          0.112015         -1.3325        -1.74194
LJ           1.76857        0.627307           1.102
LJ          -1.29443        0.684594       -0.232372
LJ         -0.494696       -0.885672         1.06972
