108
#Comment!
LJ          0.799531        -2.19767         1.34295
LJ          -1.30677          1.0496        -2.33686
LJ          -1.95365       -0.981497        -2.03611
LJ          0.326556       -0.967315        0.322131
LJ           1.14252         1.73917        0.894618
LJ           1.51235         2.27822         0.13472
LJ          0.916564         1.29461      -0.0725678
LJ          -1.99957        -2.14233         1.45814
LJ           1.57864       -0.541042        -2.05075
LJ         -0.806296        -1.09955       -0.773322
LJ          -1.60507        -1.38521      -0.0195515
LJ          -2.14972       -0.340914         1.91643
LJ          -1.68321       -0.508571        -1.08563
LJ          -2.06146        0.435387       -0.558799
LJ           1.84637        -2.20482         1.03208
LJ          0.262034        0.715806        -1.10344
LJ        -0.0653698         1.15559        -0.11658
LJ           1.01385       -0.832542       -0.369483
LJ          0.458427         2.21075     -0.00840602
LJ         0.0610342        -1.63736       -0.389096
LJ        0.00795612         1.76667       -0.973193
LJ         -0.123279       -0.649407        -1.66558
LJ           1.51181        0.838832        0.589274
LJ           1.84853         1.44524       -0.244708
LJ           0.48103       -0.220258          1.1923
LJ           1.65205        -1.59847         -1.9929
LJ         -0.714779         1.47879        -1.61658
LJ          -1.98086       -0.485813        0.696895
LJ          -1.27725        -1.75764         2.06225
LJ          -1.01928        0.823265       -0.440982
LJ         -0.109432         2.35411         1.96515
LJ           0.11917         1.82702        0.941045
LJ         -0.700757        -2.23718        0.155131
LJ         -0.840108         1.85894       -0.499284
LJ           1.36681          -0.505         1.72428
LJ         -0.463225        -1.61453        -2.16531
LJ           -1.9762         1.92809        -0.45975
LJ          0.249263         1.90652        -1.96153
LJ           2.28602         1.65688         0.65616
LJ         -0.476679        0.421548        -1.98747
LJ         -0.103894       -0.615753         2.05188
LJ          0.067112        -1.82839        0.732777
LJ          -1.26192        -1.66782        -1.62655
LJ          0.100959        0.519847         1.80132
LJ         -0.660925         1.17569        0.821557
LJ         -0.372224        -2.00099        -1.21765
LJ         -0.951907         2.34216         1.41046
LJ          -2.32807       -0.484537       -0.284226
LJ          -1.25412         0.55689        -1.37689
LJ          0.501372        -1.27657        -1.21235
LJ           1.01548        -1.81697       -0.449035
LJ           1.89261         1.83568        -1.39684
LJ         -0.580649      -0.0768215        -1.07777
LJ         -0.950096       -0.798831        -2.12973
LJ          -1.62756         2.11561        -1.48932
LJ           1.96015         1.28588         1.58636
LJ          -1.33553       -0.256739       -0.170135
LJ           1.98859        0.266682         1.30482
LJ          0.679916       -0.116748          -2.075
LJ          0.572441         0.88021        -2.04137
LJ          0.913113        -2.20635        -2.32511
LJ           -1.0273         2.07274         2.34017
LJ          0.552251         1.50322         1.87624
LJ          -2.28497        0.922006        -2.23099
LJ           2.36009        -1.28623         1.84282
LJ         -0.858064        0.240719         1.79338
LJ         0.0788964       -0.654095        -0.61444
LJ          0.971695         1.50526        -1.06689
LJ          -1.96713         1.22701        -1.23687
LJ           1.82497       -0.256237        0.468501
LJ          -1.89089        0.554465         1.67449
LJ          -2.20446        0.574076        0.527824
LJ          -1.50449    -0.000377387        -2.14311
LJ          0.773665          -2.345        -1.29283
LJ           1.39282        -1.48029         1.77233
LJ           1.40333         1.59798        -2.28269
LJ           1.54097        0.428226        -2.31818
LJ           1.98811        -2.18233       -0.783775
LJ           1.82959        -2.35554          2.0956
LJ           1.09213        -1.63374        0.597762
LJ          -1.21673        -0.59606          1.5384
LJ         -0.454671        -0.39239        0.962408
LJ          -1.95193         1.78664          2.1453
LJ          0.765474      -0.0897896         -1.0385
LJ         -0.472934        0.223534        0.205683
LJ          -1.67109         1.37109         0.25039
LJ          -1.92156         -2.2119        0.410718
LJ          0.687395       0.0591995        0.279465
LJ            1.8935        -1.40212      -0.0575052
LJ         -0.506656         1.37285         1.90716
LJ           1.55916        -1.25141        -1.07977
LJ           -1.2543        0.472951        0.922726
LJ          -1.65191         -1.3469        0.951021
LJ         -0.612972         -1.1801        0.266751
LJ          -2.16503        -1.35298       -0.945136
LJ           1.61166        0.461816       -0.299107
LJ          -2.11447        -2.04569        -2.16762
LJ           2.02976        -1.11231        0.941657
LJ           1.72241       -0.262233       -0.972777
LJ          -1.36451        -1.97214       -0.720206
LJ          -1.50183         1.47683          1.3262
LJ          -2.31572       0.0332129        -1.59074
LJ           1.79012        0.790414        -1.42657
LJ         -0.558348        -1.36476         1.42735
LJ          0.720542        -1.11986        -2.23826
LJ           1.08548        0.570395         1.46493
LJ          0.291775        0.830249        0.779695
LJ          0.485937        -1.18764         1.44874
