108
#Comment!
LJ          -1.96987         2.02329         1.83336
LJ         -0.553747         2.29165         2.02788
LJ          -2.32652       -0.524737        0.855781
LJ          0.692854       -0.808254        0.605141
LJ           2.30795        -2.22087       -0.951724
LJ           0.10897         1.41606       -0.562866
LJ           1.95421       0.0212599          2.1714
LJ           1.91048        -1.61683       0.0198679
LJ           2.22618         1.28006       -0.125615
LJ           1.36897        -2.05292       -0.683294
LJ          0.562638         1.13888         1.51148
LJ          -1.53708        -2.33858        -2.02414
LJ          -2.03566        0.707531         1.99099
LJ          -2.04195         1.38548        -1.08869
LJ           2.28771        0.521086         1.05234
LJ           0.45898          0.2589        0.959932
LJ           1.61032         1.93845        0.166363
LJ           1.61854         1.73846       -0.873327
LJ          -1.07246       -0.641614        0.424904
LJ         -0.933351         1.36755         1.94849
LJ         -0.549063        -1.36017       -0.563828
LJ          0.101367         1.58752          2.3346
LJ           2.07466          1.3731         1.76275
LJ          0.977587         1.87917         2.10031
LJ           1.38364        -1.25946         1.17356
LJ           2.03721       -0.284889       -0.843982
LJ          0.209852         2.26659         1.38455
LJ          -1.68479        0.243383        0.370286
LJ           2.12675       -0.535405        -1.84693
LJ           1.20352         2.22613        -1.65212
LJ         -0.883072         1.41048        -0.87326
LJ           1.05181         1.24134       -0.194637
LJ         -0.329488        0.946326         1.16126
LJ          0.694113        -1.91966        0.758122
LJ           1.47814       -0.301136         1.27642
LJ         -0.427049       -0.127235         1.39421
LJ         -0.338212        -2.34953        0.119483
LJ          0.332503      0.00157344        -1.71928
LJ          -2.01471         -2.3004        0.177019
LJ         -0.262986        -0.46654        -2.29617
LJ           1.37905       -0.925652         2.31267
LJ          0.609145        -1.74406         -1.2765
LJ         -0.683634          1.7719        -1.78905
LJ          0.287554         1.87751        -1.39838
LJ           1.39344        0.121485        -1.74594
LJ         -0.287898        0.920241         -1.4993
LJ           1.69482        -1.78861        -1.90633
LJ           1.08481        0.181729       -0.384529
LJ          0.802737         -1.8611         1.99604
LJ          0.780912        0.947015        -1.11573
LJ          -2.26785         1.76934        0.911493
LJ          0.880823       -0.086094         2.14364
LJ         -0.935798         1.95227        0.987587
LJ          -1.14705        0.137145        -2.21867
LJ          -1.76944         -1.5823       -0.580351
LJ           2.14862         2.03059        -1.97906
LJ          -1.59782          1.3377        -1.98556
LJ         -0.197944        -1.30175          0.3625
LJ          0.386749       -0.702899         1.62529
LJ          -1.20177       -0.969585         1.39605
LJ           1.80432        -2.35909         1.88171
LJ         -0.949103        0.427529       -0.494463
LJ           1.78785        0.674054       -0.975169
LJ          0.662998        -1.50926       -0.130169
LJ          -1.90849       -0.380252         2.28621
LJ          -2.25131        0.461981        -1.74867
LJ          -1.49276        0.043893         1.41888
LJ          0.285576        0.650064       0.0449249
LJ          -1.41784         2.21785       -0.625775
LJ           2.03751         -1.2572       -0.903868
LJ           -1.1241        -1.64428        0.194136
LJ          -1.95825        0.346599       -0.591967
LJ           -1.3132        0.552953        -1.35721
LJ          0.453997        -1.02266        -1.93873
LJ           1.40591        0.711982         1.65716
LJ         -0.244062        -1.88912        -2.01494
LJ           1.51841         1.25704        -1.75693
LJ           1.58656       -0.679917       0.0164057
LJ           1.22775       -0.745261        -1.26727
LJ         -0.358664         -1.3294         1.86662
LJ         -0.321605       -0.476718       -0.174061
LJ          0.185863         1.60211        0.510003
LJ         -0.287572        0.509396         2.21396
LJ           1.32744        0.655229        0.670774
LJ           0.66581         2.21372       -0.196845
LJ          -2.26345        -1.76469         2.28864
LJ         -0.488537         2.37328        -0.90166
LJ          -2.04157         -1.5722        -1.53331
LJ          -1.37203        -0.65786       -0.573045
LJ        -0.0637081        0.242087       -0.832014
LJ           2.24364         -1.0194         1.67504
LJ         -0.575568         1.17095        0.102314
LJ          -1.58045         1.54482         0.11492
LJ         -0.599596       -0.410273        -1.33033
LJ          -1.11428        -1.50468         -1.3157
LJ           1.37021         1.74468         1.15325
LJ            1.8934        -2.17041        0.866826
LJ         -0.679453        -1.87321         1.03228
LJ          -1.09975       -0.911331        -2.11189
LJ          -1.65899       -0.393505        -1.48467
LJ          -1.46731        -1.87977         1.71063
LJ          0.704222        0.888943        -2.06541
LJ           2.06877        0.212609        0.190656
LJ          -2.06464        -1.50901        0.836869
LJ          0.364272       -0.836741       -0.837573
LJ          -1.46959         1.00421         1.08434
LJ          -2.17481       -0.891621      -0.0181246
LJ          -0.70172        0.272441        0.448838
