108
#Comment!
LJ          -2.18733          1.6525       -0.234612
LJ         -0.135094         1.85936        0.530219
LJ          -1.51011       -0.632259         1.88974
LJ           -1.3553          -1.826        -1.78873
LJ         0.0859322       -0.784512        -2.06951
LJ          -1.57358         1.05054       -0.688038
LJ          -1.96558         1.86434        0.805251
LJ           1.12507        0.535295       -0.437694
LJ           0.41726        -1.94728         1.08807
LJ          0.321513         1.70289         1.46805
LJ         -0.343715         1.48502        -1.46543
LJ         -0.450221        0.836311        0.556005
LJ           2.23016        -1.63904      -0.0835929
LJ         -0.660939        -1.12163        -1.49887
LJ         -0.739459         2.30442        -2.31773
LJ         -0.104464       -0.357746        0.818348
LJ          -1.38515        -1.39803       0.0880158
LJ         -0.247161        -1.12048       -0.489855
LJ           -2.3123         1.07968        -1.95347
LJ          -1.97345       -0.101655        -1.83788
LJ          -0.76763        0.420503        -1.11698
LJ           1.85337       -0.902308        0.729511
LJ           1.37922         1.44129      -0.0990777
LJ         -0.193198         1.28902         2.28987
LJ          -1.84048       -0.893665        0.798877
LJ           1.68036        0.338413        -2.32819
LJ          -1.77945        -2.38061       -0.695644
LJ         -0.532418        -2.25355        -1.38793
LJ           1.35411        -1.04993         1.71078
LJ          -1.00719       -0.509397       -0.754304
LJ          -0.38185        -2.04578         1.63312
LJ        -0.0826512         0.19928        -2.32678
LJ          0.617445        -2.15699        -1.36837
LJ           1.68322       -0.372672       -0.389553
LJ          -2.32133        -2.25933         1.58107
LJ          -1.29895        0.844401        -1.80743
LJ          -1.84388       0.0350345       -0.860579
LJ           1.71699         2.33345        -0.58621
LJ           -1.1651         1.97882       0.0783359
LJ            1.6516         2.34376        -1.53553
LJ         -0.841325       -0.633005        0.244939
LJ          -1.54164        -1.67265         1.88065
LJ         -0.844216        -1.93156       -0.532218
LJ          -0.72551        -1.30838         2.29005
LJ           2.32061        -1.25719         1.79377
LJ          0.280358         -1.3202         1.83439
LJ         -0.410768       -0.491295         1.72344
LJ          -1.96333        0.137466        0.128913
LJ          0.906425         1.06778         2.12302
LJ          0.172557       -0.158272        -1.30561
LJ            2.0048        0.946838       -0.822019
LJ           1.66412         -1.8169         1.21629
LJ        -0.0321777        0.480974         1.48726
LJ          0.522505         1.77977        -2.06338
LJ           1.00266         1.96178        0.726007
LJ          0.014984        -1.86311        -2.11497
LJ          -2.11083        0.630615        0.965466
LJ         -0.984959       -0.426297        -1.97852
LJ           1.16892       -0.532216        -1.44337
LJ         -0.964567        -1.17876         1.23879
LJ          -1.60416        -1.25443       -0.841233
LJ             1.977       0.0670951        -1.32695
LJ           1.00356        -1.32542        -2.13698
LJ          0.811809        -2.30592         1.95018
LJ           1.09349        -1.74045        0.294814
LJ          -2.26779         2.05138        -2.27251
LJ           -1.1923         1.49754         2.19688
LJ         -0.113404        -1.37066        0.480032
LJ          -1.44947          1.0078        0.297818
LJ           1.93137         2.33678         0.41044
LJ          -1.22977        0.914641         1.36659
LJ           1.81887        0.255867        0.402664
LJ          0.465179        -1.19711        -1.24702
LJ          0.704229        -1.00147        0.956566
LJ           1.81151        -0.75277        -2.19872
LJ          0.262179        0.937962       -0.121327
LJ           1.48828        -1.41816        -1.19216
LJ             1.702         1.86875         1.45748
LJ         -0.713331        -2.07927          0.6018
LJ          0.275433        0.774995        -1.12524
LJ           1.56883         1.64025        -2.29417
LJ         -0.630723         1.21919        -0.54158
LJ           1.13389       0.0637025         1.20421
LJ          0.892152        0.999325        0.909277
LJ           1.76545         0.82245         1.55677
LJ          -1.41368         1.82916        -1.62339
LJ         -0.456697        0.173991       -0.226724
LJ            1.2023         1.39952         -1.4011
LJ         -0.902933         1.89033         1.37622
LJ          -2.00169        -1.16105        -2.11903
LJ          -1.86337        -1.92675        0.798493
LJ           2.01761       -0.263629         1.60841
LJ           1.81428        -2.01507         2.30572
LJ          0.124237        -2.06059       -0.339349
LJ          -1.13531      -0.0214508         1.00953
LJ          0.878808       -0.968329       -0.374025
LJ          -2.27601        -1.93236         -1.5001
LJ          -2.32366         1.76327        -1.21453
LJ           2.33826       -0.845706        -1.20833
LJ          -2.15343       -0.733824       -0.227314
LJ          0.804246        0.397943        -1.88107
LJ          0.832838       -0.270337         2.10847
LJ          -2.09857         1.35245         1.66336
LJ         -0.928556        0.361774         2.11915
LJ          0.370957         1.77818       -0.694041
LJ          -2.00663        0.314547         1.98401
LJ           1.98602         1.32849        0.662454
LJ          0.575785       0.0961871        0.321612
