108
#Comment!
LJ          -2.13221        -2.17333         2.27817
LJ          -1.81245        -1.38017        -1.95525
LJ           2.12221        -1.71787         -1.5575
LJ          -1.57164        -2.24711        -1.45664
LJ         -0.776218        -1.81339         2.31741
LJ          0.136216         -1.4482         2.24512
LJ         -0.466967        -1.68885        -1.51957
LJ        -0.0323984         2.19645        -1.24202
LJ          0.818777        -2.17618        -2.35515
LJ           1.75058        -1.32503          2.3564
LJ          0.911561         -1.4858         -1.7058
LJ           1.19122        -2.35397        -1.40797
LJ          -2.24349        -0.70695         2.08278
LJ          -1.37841       -0.275536          1.8158
LJ           -2.2155       -0.367889        -1.81138
LJ          -1.29248       -0.965562        -1.14733
LJ         -0.945058       -0.633717        -2.07859
LJ        -0.0700293       -0.193025         2.24702
LJ          -0.79067        0.265822        -1.42286
LJ         -0.367147       -0.682348        -1.26662
LJ          0.867649       -0.636724          2.3477
LJ           1.70979      -0.0118137         2.11577
LJ          0.595381       -0.172824        -1.64194
LJ           1.62449       -0.712965        -1.59987
LJ          -2.00593        0.418582         2.29256
LJ          -1.25322         1.91686        -2.16153
LJ          -2.25684         1.83968        -1.68291
LJ          -1.62925        0.729847        -1.64413
LJ         -0.987129        0.508313         2.37479
LJ         -0.207549         2.13422        -2.36063
LJ         -0.645714          1.4871        -1.52718
LJ        -0.0311929        0.796641        -1.89303
LJ           1.28205         1.03894          2.1619
LJ           1.64311         2.04054        -2.24256
LJ          0.554434         1.71543        -1.93905
LJ           1.84516        0.710647        -1.82325
LJ           2.18149        -2.36358       -0.802872
LJ           -1.9032        -1.59122       -0.668535
LJ           2.17785        -1.61934       0.0170686
LJ          -1.74054         2.34813      -0.0841608
LJ         -0.875544        -2.20445       -0.705345
LJ         0.0258491        -1.58709         -0.6401
LJ         -0.878315        -1.36001        -0.11918
LJ          0.261543        -2.34634     -0.00837717
LJ          0.794923         1.76794       -0.827329
LJ           1.37626        -1.63464       -0.748315
LJ          0.653873        -1.11405        0.255932
LJ           1.39022         2.21025       -0.150893
LJ           2.13336       -0.826772       -0.721653
LJ          -1.87049      -0.0473772       -0.864071
LJ           2.07532       0.0610237      -0.0694373
LJ          -1.83691       -0.741866       -0.114318
LJ         -0.941513        -0.21112       -0.443909
LJ         0.0762035        0.228191       -0.849675
LJ          -1.36141       0.0606348        0.501202
LJ        -0.0355005       -0.648457       -0.344228
LJ          0.939721       -0.685461       -0.870096
LJ           1.47752        0.108259       -0.995991
LJ          0.703831      0.00386946      -0.0845326
LJ           1.62227       -0.755206        0.291626
LJ          -2.35158        0.742893       -0.833621
LJ          -1.55704         1.71493       -0.874214
LJ           2.26139         1.60588       -0.202283
LJ          -1.84359        0.870663       0.0255822
LJ         -0.981643        0.873818       -0.710259
LJ          0.046509         1.28778       -0.793802
LJ         -0.576284          1.7552       -0.208259
LJ        -0.0995707        0.642789       0.0232171
LJ          0.922655        0.871529        -1.40143
LJ           1.71733         1.50112        -1.20601
LJ          0.515444         1.41456        0.103857
LJ           1.48251         0.89217       -0.379546
LJ            2.2358         2.22379        0.834346
LJ          -1.69213        -1.62156        0.461851
LJ           2.33536        -1.53214         1.11617
LJ          -1.61718        -2.34201         1.50302
LJ          -0.63198        -2.21714        0.410885
LJ         -0.213588        -1.30965        0.689496
LJ         -0.767469        -1.75874          1.3122
LJ          0.170973        -2.11406         1.12291
LJ          0.932052         2.06363        0.758208
LJ           1.46465        -1.82974        0.719316
LJ          0.948286        -1.33194         1.58175
LJ           1.64057         -2.1435         1.67039
LJ          -2.06765       -0.521638        0.960399
LJ          -2.10567        0.429828         1.18215
LJ           1.72929        0.551338         1.34759
LJ          -1.54469        -1.40928         1.81678
LJ           -1.1369       -0.777562        0.878018
LJ         -0.402723       -0.214119        0.421529
LJ          -0.61711        0.144694         1.47336
LJ         -0.529033       -0.920687         1.68711
LJ          0.307322       -0.531829         1.38426
LJ           1.01024     -0.00628003         0.91796
LJ          0.796654         0.20323         1.89668
LJ           1.74391       -0.575307         1.32909
LJ           2.03054        0.988348        0.491591
LJ          -1.39584         1.78823        0.695493
LJ          -2.22195         1.44079          2.0738
LJ           -1.3112         1.20896         1.66839
LJ         -0.784297        0.948904        0.670463
LJ        -0.0378664         1.71421        0.882992
LJ          -0.71157          2.0669           1.554
LJ         -0.189561         1.23505         1.82594
LJ          0.164477        0.490538        0.989072
LJ           1.02856         1.02595        0.832093
LJ          0.712254         1.78924          1.7516
LJ            1.6038         1.66293         1.38935
