108
#Comment!
LJ          -1.72808         2.20999         -2.2821
LJ          -0.78613          1.8691         1.88191
LJ           2.07337       -0.217713         1.59942
LJ           1.57159       -0.443984       0.0144747
LJ          -2.21039        -1.91332       -0.951849
LJ         -0.372801          1.9652       -0.431522
LJ           1.78586        0.167674        -2.29363
LJ          -1.82476        -2.35143        0.680125
LJ          -1.92447         1.09179        0.150118
LJ           1.59817         2.37725       -0.846381
LJ          0.714612         1.18958         1.88514
LJ          -1.19198        -2.02846         -1.6783
LJ           2.32732        0.947248         1.84205
LJ          -1.87261         1.50641        -1.35099
LJ           2.30166         1.39203        0.959587
LJ          0.410432       -0.402529         1.14893
LJ           1.41514        -2.37438        0.355454
LJ           1.69036         1.44771       -0.455141
LJ          -1.63487       -0.805811         1.88003
LJ          -1.48631         1.19387        -2.33057
LJ         -0.343663       -0.904761       -0.595869
LJ           -0.3454         1.18322        -2.23706
LJ           2.22051         1.91235         2.13367
LJ          0.722166         1.94674        -2.13479
LJ           1.89235        -1.33549        0.661419
LJ          -2.15346       -0.288218       0.0698683
LJ          0.246908         2.14883         1.76141
LJ          -1.27357      -0.0373153        0.590535
LJ           2.20911       -0.696566        -1.97396
LJ           1.10433         1.63725        -1.25466
LJ          -1.13801         1.41726       -0.647489
LJ          0.657425          1.5361       -0.159237
LJ          0.180512         0.34024         1.79367
LJ          0.551505        -2.02437         1.02881
LJ           1.31395       -0.276505        0.972871
LJ         -0.152939        -1.30657        0.980542
LJ         -0.158458         2.03926        0.543601
LJ          0.237573       -0.298834        -1.27847
LJ           2.32307         2.01106       0.0576205
LJ        -0.0350937       -0.865394         1.96415
LJ           1.05277        -1.08931        -1.95645
LJ          0.650076        -1.17431       -0.876868
LJ         -0.923742         1.79737        -1.53534
LJ          0.189266         1.66481         -1.4031
LJ           1.15393       0.0416569        -1.38803
LJ          -0.33442        0.902051       -0.916475
LJ           1.73877        -1.23837       -0.990315
LJ           1.86517        0.469157        -0.15705
LJ          0.829206        -1.95735        -1.44096
LJ          0.625688        0.873425       -0.900137
LJ          -1.69955         1.71255         1.59583
LJ          0.999922       -0.311824         2.05251
LJ         -0.436039          1.1343         1.36948
LJ         -0.877243       -0.770575         -2.2265
LJ          -1.34173        -1.49171       -0.516283
LJ           2.02392         1.90965         -1.6649
LJ          -2.29843         0.76886        -1.85415
LJ          0.052447        -1.67163       0.0794846
LJ           1.16585        -1.17468         1.35053
LJ         -0.744815       -0.536003         1.28014
LJ           1.27612        -2.04288         1.92296
LJ          -1.12997        0.581852       -0.111497
LJ           1.71365        0.846101        -1.24863
LJ           1.22745        -1.49474       -0.162074
LJ          -1.96005        0.142034         2.21607
LJ          -1.84343      -0.0207959        -1.51988
LJ         -0.843863        0.344504         1.80552
LJ          0.711885         0.44912        0.437676
LJ          -1.42769         2.28931       -0.860985
LJ          -1.97136       -0.984612        -1.12031
LJ         -0.863478        -2.06159        0.172045
LJ          -2.05036        0.650785       -0.834688
LJ           -1.2059        0.725466        -1.46558
LJ         -0.057817        -1.12522        -1.80998
LJ           1.45236        0.595871          1.5391
LJ         -0.203079        -2.37982        -2.06882
LJ           1.58862         1.14772        -2.28787
LJ          -2.26535        -1.72796       0.0142958
LJ           2.02227       -0.177187        -1.02918
LJ          0.383371        -1.73536         2.29161
LJ          0.565004       -0.811755        0.231146
LJ           0.49255         1.37882        0.808266
LJ         -0.161717        0.149893        -2.04982
LJ           1.41044          1.1584        0.434417
LJ          0.584636        -2.23834       -0.566745
LJ           2.02699        -1.88731        -1.88227
LJ         -0.280423         -1.8803        -1.08435
LJ          -1.85827        -1.30557        -2.09229
LJ         -0.845266        -1.02491        0.306351
LJ         -0.193157       0.0247476       -0.214826
LJ           2.15335        -1.22204         1.80317
LJ         -0.143593         1.00456       0.0934765
LJ          -1.08403         1.60034        0.346466
LJ         -0.769838       -0.100143        -1.31504
LJ          -1.01685        -1.11704         -1.3424
LJ            1.4365         1.72311         1.29953
LJ           2.09774        -2.27994         1.21746
LJ         -0.876281          -2.199         1.16422
LJ         -0.849294        -1.90116         2.07142
LJ          -1.15987       -0.411399       -0.450685
LJ          -1.87476        -1.85835         1.83966
LJ          0.702557         0.73377         -1.9855
LJ           2.30979        0.371192        0.777384
LJ          -1.55471        -1.42111        0.991132
LJ          0.765711       -0.155621       -0.479911
LJ          -1.56151         0.87451         1.08732
LJ          -2.03011       -0.572459         1.00028
LJ         -0.292526        0.296628        0.830158
