108
#Comment!
LJ         -0.743444        -1.57043        0.822006
LJ            1.7789        0.442522        -1.62003
LJ           1.48368        0.596751         1.37344
LJ          0.954471        -0.81319        0.154104
LJ           2.04056       -0.239035          1.5729
LJ          -1.45282        -2.26898        0.150616
LJ         -0.590206       -0.942637          1.5584
LJ        -0.0560095         0.70664       -0.366537
LJ          -1.64291         1.48751         2.11095
LJ         -0.475708      -0.0154688        0.099799
LJ          -1.46113        -1.71458        -1.74688
LJ          -2.13954        -2.27722        -2.37194
LJ         -0.766437       -0.372574        -1.26013
LJ          -2.08312         1.00484        -1.02451
LJ          -1.08112        -1.28645       -0.180414
LJ           -1.6594        -2.30543         1.34419
LJ         -0.419083         1.72923        -2.11824
LJ          -2.05212        0.907126      -0.0115237
LJ          -1.53555        -0.94681       -0.935999
LJ          -1.10514        0.843511        -1.96131
LJ          -1.81315        -1.38921        0.724605
LJ          0.459543        -1.95658         -1.2327
LJ           2.18962         1.77991          1.8091
LJ           2.27538        0.798367         1.90384
LJ         -0.656615        -1.42082        -1.13417
LJ          -0.47336         1.98442        0.644093
LJ          -1.42967         1.60683        0.864791
LJ          0.977362       0.0898905       -0.358819
LJ          -2.20766        -2.06941       -0.561309
LJ         -0.122807        -1.15005        0.106535
LJ           2.05317        -1.87997         0.33276
LJ          0.264812       -0.341692        0.714233
LJ          0.447559         1.70075        0.328345
LJ          0.194932        -1.05215        -1.58437
LJ           1.97754       -0.353724       -0.388574
LJ           1.89109       -0.656112        -1.67987
LJ         -0.466731        -2.10157       -0.128746
LJ          0.312893        0.413205         1.77068
LJ         0.0733792       -0.237286       -0.711952
LJ           1.28882         1.31534         2.14689
LJ           1.24444        -1.38712        -1.29037
LJ          0.621988         2.12878         -2.0301
LJ           1.32648         1.63131         -1.6018
LJ           2.04653         1.56009       -0.345509
LJ          0.896324        0.769326        -1.31006
LJ          0.781461        -1.55871         2.18996
LJ          0.989567        -0.35103         -1.2358
LJ          -1.82946      -0.0215228         -1.0965
LJ           2.21857         1.30295        -1.98435
LJ           1.42472      -0.0909232        0.601803
LJ           2.16878         2.09821         -1.3341
LJ          -1.99516        0.108909        -2.35737
LJ          0.443909        -1.17468        -0.66163
LJ         -0.560299        0.776694         1.91146
LJ           1.47436        -2.30782       -0.645429
LJ          -1.51122       -0.263265       -0.163901
LJ         -0.763584       0.0368224         1.30341
LJ          -1.76335       -0.418436         1.30629
LJ         -0.952489         1.13739       0.0195719
LJ           1.93721       -0.899118        0.544717
LJ          -2.11391        -1.07085       -0.172992
LJ         -0.878171       -0.969919        -2.15358
LJ           1.08649       -0.675799        -2.17652
LJ            1.3837         1.57042         1.16467
LJ            0.9867       -0.240628         1.50192
LJ         -0.143243        -1.85127        -2.21212
LJ          0.219229        -0.74865         2.07331
LJ          0.818436        -1.77357       0.0390761
LJ          -1.04415        -0.65692        0.644499
LJ          0.220037         1.53758        -1.33174
LJ          -1.63619         1.94713        -1.60016
LJ           1.27952        -1.17532         1.43535
LJ         -0.362843        -2.36785        -1.39868
LJ          -1.22616        -2.16325       -0.896306
LJ         -0.943479      -0.0711279        -2.36326
LJ           1.16738        -2.32902         1.68733
LJ         -0.183967        0.697285        -1.41849
LJ         -0.485535        0.927466        0.897481
LJ          -2.30227         1.07417        0.966841
LJ          -1.12005        -2.36644         2.26318
LJ         -0.207596           -2.32         1.64558
LJ           1.25558         2.14529        0.378598
LJ           0.41809       0.0601572        -1.99051
LJ           -2.2465         1.97239        0.410534
LJ           2.06409        -1.85328         1.40125
LJ           1.34526         0.26138         2.24741
LJ          0.337909         1.16184        -2.26082
LJ         -0.760003         1.62559         1.55555
LJ           1.51691        0.967174        0.322038
LJ         -0.830868         1.44288         -1.2315
LJ          0.260905        -1.22729         1.11863
LJ          -1.51986         -1.2232         1.82251
LJ          -1.07706        0.544893       -0.916539
LJ           1.83719        0.634937       -0.464542
LJ          0.450585         1.59144         1.54844
LJ           2.29149        -1.51419        -1.27535
LJ          0.469065        -2.26727         0.86022
LJ           1.03254         1.42274       -0.562281
LJ           2.00745        -1.27873         2.35665
LJ          -1.40348        0.528535        0.643908
LJ          0.518743        0.602214        0.813679
LJ          -2.24244      -0.0441543        0.436279
LJ           1.68722        -1.26993       -0.353151
LJ           -1.5166        0.656025         1.60432
LJ           1.55272        -2.18412        -2.02573
LJ          0.276917         2.12261       -0.530283
LJ          -1.87397       -0.872845        -1.97925
LJ          -1.73433         1.83899       -0.517829
