108
#Comment!
LJ          -1.75298        -1.83136        0.862617
LJ          -1.25305         1.14338        -1.81349
LJ         -0.797849       -0.981954       -0.175722
LJ           1.33512       0.0573352         1.10644
LJ          0.127113        0.331845        -1.11412
LJ           1.30802         1.94072        -1.02288
LJ         -0.831156         1.57866        -1.05496
LJ          -1.45335        -2.24257      0.00826829
LJ          -1.92809       -0.107393         0.48942
LJ           1.10184       -0.125519        -1.68347
LJ         -0.456984        -1.41573        -1.20168
LJ          0.480945       -0.393932       -0.525996
LJ           1.93635        -1.59095        0.164446
LJ          -2.36765         1.20163         0.10357
LJ          -1.96682         -1.9619        -1.64394
LJ         -0.532152         1.54906         1.72826
LJ           1.91819       -0.762379        0.692878
LJ           -2.0942        0.711368        -2.23004
LJ          -2.32711         2.26713        0.148031
LJ          -1.09493        -1.62106         2.25461
LJ           2.24246        -1.39931         2.27237
LJ          -1.69673         1.57898         1.99452
LJ           2.02223        -2.14646         1.03346
LJ          -1.53295        0.169905        -1.58034
LJ           2.17177        0.837153         1.05421
LJ           1.55443         2.33215         2.02839
LJ         -0.431019         1.93461        0.838931
LJ         0.0650285        -1.99106         1.21184
LJ         -0.567016        -1.92406        0.256041
LJ           0.30631        0.170655        -2.22512
LJ           -1.0872        -1.14003        0.808566
LJ        -0.0914498         2.36728        -1.63855
LJ          0.984859        -2.34373         1.03103
LJ          -2.03594        -2.22834         2.15708
LJ           1.40495        -0.89856        -2.22614
LJ           1.31199       0.0977704        -0.74742
LJ           1.09811         1.81629       -0.110318
LJ           1.35331        -2.00035       -0.500957
LJ          -2.13406        0.209127       -0.399807
LJ         -0.549702        -2.31953       -0.637714
LJ          -1.50066         2.21103       -0.992789
LJ          -2.19509         1.77395         1.11548
LJ           2.11491       -0.649184       -0.338981
LJ          0.522076       -0.585794         2.01796
LJ         -0.604976      -0.0753459        0.713934
LJ          0.330696      -0.0291617         1.03722
LJ           0.44411         1.40386        0.708672
LJ          0.728911         1.15054        -2.19111
LJ          0.287419         2.35577        0.232499
LJ         -0.386902        0.111301          1.7442
LJ         -0.189609        -1.19385         2.34829
LJ           2.13221        0.209394        -1.50401
LJ          0.955454       -0.367473        0.326743
LJ         0.0516144       -0.834619        0.336092
LJ          -1.96108          1.8462        -1.79026
LJ           1.06383        0.838096        -1.36375
LJ          -1.14061       0.0721759       -0.206611
LJ          -2.14848       -0.414506         2.36366
LJ         -0.909788        -2.16283         1.36919
LJ            1.3794        0.464555         2.13614
LJ          0.709422        -2.36259        -2.23062
LJ          0.925939        -1.60577         0.31628
LJ           1.30218         1.11499         1.43399
LJ          -1.86154         -1.1857        0.126182
LJ           2.32409       -0.958063        -1.28687
LJ           -1.3862       -0.253983         1.29883
LJ           1.96156          1.1754        -1.71849
LJ          -1.00942       -0.601439          2.2067
LJ          0.345729        0.836209         1.61142
LJ           1.62691        -1.65344        -1.41666
LJ        -0.0992744         0.28609        -0.09808
LJ         -0.264782        -2.21443         2.15382
LJ          0.424329         2.30847       -0.837263
LJ           2.08278         1.43115         2.11919
LJ          -1.50197        0.820147        0.743706
LJ          -1.34177         1.76959        0.648945
LJ           1.66608         1.71444        0.718565
LJ           1.86385         2.18921        -1.80699
LJ           1.92511        0.958213       -0.771852
LJ          -1.65737       -0.565745       -0.803932
LJ         -0.826264        0.633266        -1.02739
LJ           1.72364        0.323906        0.117731
LJ          0.156446        -1.58627       -0.335565
LJ          -1.44027         1.18192       -0.230945
LJ            2.3067         1.99865       -0.789729
LJ          0.876914        0.788389       -0.127917
LJ          0.297551         1.36689       -0.812667
LJ         -0.453024         1.43391      -0.0491097
LJ          -1.05538         2.33101          -1.988
LJ          0.745409        -1.63086         1.85318
LJ           -2.3593        -1.80316       -0.703573
LJ          0.271605       -0.612913        -1.63606
LJ          -1.80172         -1.2461         1.62804
LJ           1.58959         -1.0812         1.58726
LJ          0.564993         1.88011         1.73376
LJ          0.743675        -0.95166         1.09529
LJ         -0.687503        0.170815        -2.02048
LJ         -0.409447         0.88629        0.898975
LJ         -0.583459       -0.334035        -1.02265
LJ         -0.202718         -1.0073           1.306
LJ           1.25717       -0.878579        -1.04361
LJ          -1.45351        -1.54708       -0.896647
LJ          -1.92111         1.07527        -1.10451
LJ          -1.58631        -1.07137        -1.79865
LJ         -0.219168         1.33628        -1.95468
LJ           2.32989       -0.166509         1.41329
LJ          -1.18818        0.700791         1.74019
LJ          0.644581         -1.7282        -1.48211
