108
#Comment!
LJ           1.08428        0.468225       -0.512425
LJ          0.894957       -0.258564        -2.29311
LJ         -0.895844         2.13629          -1.411
LJ           1.08877        -1.31852        -1.43076
LJ           2.35534       -0.187702       -0.738709
LJ          -1.40018        0.272577         -1.0496
LJ          -1.10154        0.351233        0.729394
LJ          -1.36954       -0.494221       -0.216324
LJ          0.990936        -1.38171       -0.333749
LJ         -0.654891        -1.43857       -0.498154
LJ          0.919405         2.05172       -0.307761
LJ          0.208035        -1.92196      -0.0177381
LJ           1.89136         1.84864        0.653008
LJ         -0.623856        0.383282       -0.345282
LJ         -0.983878         1.26763        0.279721
LJ           1.61153       -0.493095         1.09718
LJ           2.22841         1.38983         1.51634
LJ          -2.13172        0.042095        -1.78843
LJ          0.365826          1.2361       -0.399795
LJ          -1.89511        -1.51639        -0.42292
LJ         -0.971325       -0.323511        -1.86997
LJ            1.8513        -0.59891        -1.63549
LJ          -1.35828      -0.0617647         1.58268
LJ           1.54024        0.320018        -1.78404
LJ          -1.95203       -0.835527        -2.28104
LJ          -1.65366          2.0119        0.251005
LJ           1.65046        -1.55278         1.33381
LJ         0.0875773         1.91535        -1.43155
LJ           2.30109         2.30333       -0.158067
LJ          -2.06313         1.65622         2.31643
LJ          0.754209        -1.65642        0.859563
LJ         -0.517944        0.511812        -1.38746
LJ           2.05647         2.33616         1.67486
LJ           1.43491       -0.423825       0.0930653
LJ           -1.6926         1.15651        -1.70865
LJ         -0.428755        0.396538         1.45675
LJ          -1.73311        -0.42363        0.669359
LJ           1.21549          1.3832        -1.05892
LJ           2.35993        -1.53575        -1.43643
LJ         -0.817357        -1.99747         1.54972
LJ          -2.15599        0.304924         1.14024
LJ          0.330662        -1.08358        -2.03421
LJ          -1.32255        -2.31301       -0.614627
LJ           1.17543       -0.397492       -0.981951
LJ          0.538309         1.10972         1.52988
LJ           1.34316         1.60592         1.96935
LJ           1.58402        0.607159         1.07092
LJ           2.13173        0.345233        0.230403
LJ         0.0953879       -0.186647        -1.69454
LJ          0.379649        -1.96754       -0.952254
LJ          0.214492        -1.02543        -0.80064
LJ          0.713931       0.0481413          1.4425
LJ        -0.0364531       -0.472206         1.06547
LJ          -1.86819         2.30662        -1.45813
LJ           2.30433        0.771087       -0.986332
LJ          -1.43688        -1.49601        0.512323
LJ         -0.929518         -1.2778         2.32583
LJ           1.80774       -0.610301         2.02753
LJ           1.30515        0.572853         2.04843
LJ          0.203177      -0.0608192       -0.614906
LJ           2.14058         1.05145        -1.88202
LJ          0.520258       -0.795261        0.308178
LJ           2.21258        -1.15982         0.36776
LJ           1.62853        -2.19804        -1.02614
LJ          0.859487         2.03102         1.02486
LJ           2.17617         1.73324        -1.08147
LJ         -0.719255        -2.25787        0.507929
LJ           1.06701        -2.12318         1.96804
LJ          -1.23409         1.20668          1.2198
LJ          -1.10241         2.02577         2.27558
LJ           1.96795         1.25956       -0.193497
LJ           2.03999        -1.57016        -2.34588
LJ         -0.372485         1.42114        -2.16066
LJ         -0.716868       -0.452689       -0.909188
LJ         -0.230079        -1.48497        0.765507
LJ          0.865203         1.23003        -2.00005
LJ          0.461843        0.631259        -1.23167
LJ          0.779491       -0.981085         1.77576
LJ         -0.827685       -0.945791         1.33565
LJ           1.02859         1.20284        0.486769
LJ          -1.03758         0.84527         2.09561
LJ          -2.24384        0.538321         2.13071
LJ           0.17547          0.5573         2.26527
LJ         -0.358566         1.58254           1.534
LJ         -0.346785          2.1697       -0.457395
LJ          0.406683         1.93468         2.21262
LJ          0.112367         1.82259        0.392583
LJ         -0.247836       -0.608579         2.06128
LJ           1.51225        -1.97005        0.277502
LJ          -1.61614         2.11711         1.34504
LJ         -0.146651        0.719126        0.558999
LJ          -2.32186        -2.06813        0.783563
LJ         -0.276358        -1.86293        -1.84239
LJ        -0.0454823        -1.56408         1.94923
LJ        -0.0290304        -2.35236         1.18655
LJ          0.712831        0.228231        0.415082
LJ          -2.04359          1.0833        0.522396
LJ         -0.700012         1.27532        -0.69228
LJ          -1.63309        0.463645       -0.124604
LJ         -0.580583       -0.772417        0.232837
LJ          -1.82131         1.39932       -0.522384
LJ          -1.28231        -1.51135        -1.52485
LJ           1.95966        -1.07778        -0.64116
LJ          -1.77193        -1.87957        -2.27547
LJ          0.763169        -2.30023        -1.82328
LJ          -2.00229        -1.16224         1.22993
LJ           1.82426         2.13651        -2.06154
LJ          -1.63424       -0.648431        -1.18023
