108
#Comment!
LJ           1.82421        -1.35069       -0.117902
LJ          0.237298         0.54822         1.62253
LJ         -0.309843       -0.992602        -1.61888
LJ           1.94885        0.417291         2.29943
LJ          -1.76259        -1.16857      -0.0567969
LJ           1.53367         2.24659         1.71886
LJ           2.32523       -0.473853        0.356436
LJ           1.70033        -1.59542         1.76506
LJ           1.57959         1.73277        -2.09161
LJ          -2.22125        0.619478         1.34713
LJ         -0.902593        0.135025         1.90317
LJ          0.857034       -0.104383        0.194332
LJ         -0.975876       -0.608979        0.472999
LJ           2.19786         1.77309         1.03532
LJ           1.36427        -1.85128        -2.02353
LJ           2.32405        -0.26555        -1.70791
LJ         -0.343872        0.921755         2.31274
LJ           1.37981       -0.806151        -1.48919
LJ          0.811892         1.52742         1.50271
LJ           1.14952         2.17412        -1.34056
LJ          0.992983        0.798623          2.3773
LJ           1.62633       -0.741722         2.32267
LJ         0.0394804        -2.21981        0.234394
LJ          -1.24968         2.30213        0.433391
LJ          0.753678         -1.4162        0.159212
LJ          -2.12271         1.31522         2.11839
LJ          -2.03343       -0.462317         2.16668
LJ          -1.77889        0.430379        -2.38003
LJ          0.960616      -0.0992818         1.34951
LJ         -0.187062         -1.3121         2.18844
LJ           1.25116        -2.09399        0.878442
LJ          -1.03493        -0.84265         1.73416
LJ        -0.0514362       0.0800491         0.64702
LJ           2.23831        -1.29815        -1.88158
LJ          0.386545        0.461534        -1.61837
LJ           1.23881         1.69655        0.616727
LJ          0.401809         1.49005        -1.86628
LJ           2.00168         2.31268        0.118834
LJ          0.912712        0.528579       -0.611995
LJ         -0.684424       -0.752261       -0.728453
LJ          0.425743       -0.832998        0.863543
LJ           1.42065       -0.933589        0.949636
LJ           1.99722         1.80837       -0.891541
LJ           1.68854        0.426538        0.575489
LJ          0.452231        -2.20742        -2.24703
LJ           1.54314         0.81791         1.50917
LJ        -0.0801719         1.83152         2.05396
LJ         -0.586268        0.344138         -1.6018
LJ         -0.228205         1.19874        -1.15376
LJ          -2.33961        -2.34702         -2.3081
LJ           1.76886         1.08716       -0.205591
LJ          0.245523         2.33223        -1.10627
LJ          -1.35391        -1.15066        -2.18712
LJ         -0.820081         2.02963         1.25575
LJ          -1.85374         -2.3263          1.4062
LJ         0.0691124        -1.55199       -0.567855
LJ         -0.758599        -1.53169       0.0122903
LJ           1.30679       -0.653263       -0.540641
LJ          -1.62811        -1.36368         1.07632
LJ          0.198452         1.78144        0.769687
LJ           1.93594       -0.284378         1.53057
LJ          -2.33376       -0.812011       -0.887269
LJ          -2.11639        -1.45822         2.00571
LJ           2.03134       0.0526863       -0.489289
LJ         -0.958298        -1.90879         1.79489
LJ         -0.591321        -1.39716         1.01259
LJ          -1.48713        -2.25018        -1.63185
LJ         -0.419101         1.05606         1.00369
LJ           1.16403         1.17456        -1.25478
LJ           2.34136        -2.01256        -1.14919
LJ          -1.37878         1.99999         2.22586
LJ            1.1936        -1.69086        -0.85354
LJ          0.753692        0.742388        0.563525
LJ          -1.90354        0.455232        0.279576
LJ          -1.47413       -0.216929        -1.67566
LJ           2.11782        -1.61899        0.713628
LJ         -0.189088        0.071776       -0.738425
LJ          -1.46439         1.00168        -1.66307
LJ          -1.88152        -2.13941       -0.333078
LJ          -1.67997       -0.263037       -0.458659
LJ          0.669992         -1.2581         1.74697
LJ        -0.0648762        -0.41786         1.80025
LJ           -2.1086        0.760859        -0.64458
LJ          -1.27434        0.435421         1.04445
LJ          0.465236       -0.650667        -1.14092
LJ          0.266157        -2.05322         1.22272
LJ         -0.745641         1.73517        -1.74408
LJ           1.06511         2.29323       -0.174072
LJ          -1.19901         1.16346        0.304293
LJ         -0.711372        -2.17208       -0.817119
LJ         -0.426979         1.69681      -0.0427278
LJ          0.573131        -1.25608        -1.97649
LJ         -0.996346        0.249544     -0.00493175
LJ       -0.00479472       -0.643391      -0.0303675
LJ            -1.373        -1.35458        -1.02797
LJ           -1.8557       -0.351226         1.18718
LJ          -1.17049         1.04868         1.80573
LJ        -0.0795219         0.79927      -0.0244888
LJ           1.39944        0.229482        -1.59321
LJ          -1.14792        0.971815       -0.661227
LJ          -1.42127          1.8526       -0.922083
LJ          -2.05053         1.59096       -0.122417
LJ           2.15246        0.878842        -1.48372
LJ          -2.14482         1.75404        -1.59812
LJ          0.718077       -0.273814        -2.28739
LJ          0.490674          1.5077       -0.483161
LJ          -1.63482         1.46508         1.10568
LJ         -0.405415        -2.03194        -1.83583
