108
#Comment!
LJ          -2.24357       -0.796129        0.151564
LJ            -1.949       -0.897761       -0.832842
LJ           2.10513        0.326564        0.372705
LJ          -1.58036        -1.81862       -0.678403
LJ          -2.24476        0.986501        -1.20778
LJ           1.79162         -1.2245         2.07249
LJ          -2.26993         2.15933       -0.949274
LJ         -0.408753         1.75977        -1.37985
LJ          0.678004         1.83678       -0.705579
LJ         -0.698203          1.1653        -2.13702
LJ          0.965401         1.87623        -1.76455
LJ          0.319192         1.17691        -1.60146
LJ          -2.16202        -1.62734        -1.92689
LJ          -1.16317         2.36601        0.658055
LJ            -1.304         1.14557          -1.228
LJ         -0.945698       0.0188604         0.80653
LJ           1.94023       -0.234963         1.17934
LJ          -2.31215         1.46883         1.87881
LJ          -1.50269         0.14153      -0.0810322
LJ            1.6878        -2.24722        -1.70573
LJ          -2.33203       -0.671737        -1.71726
LJ           -1.8529        0.872087        0.619521
LJ           2.01533        -2.28125         2.03665
LJ         -0.221797          2.2283        -2.32723
LJ          -1.85863       -0.139618        0.810539
LJ         -0.642782        -1.07091         1.87321
LJ         -0.272382         1.83009        0.428297
LJ          0.990052        -2.34131         1.58997
LJ         -0.606445        0.386754        -1.36524
LJ          0.743025      -0.0451401         1.64027
LJ          -1.25925        -0.80182       -0.203811
LJ         -0.233642         2.35769       -0.400107
LJ          0.136384       -0.944687         1.16256
LJ           1.08207        -0.91802         1.44073
LJ            1.5056         1.07035        -1.03549
LJ          0.716408       -0.864893        -1.58835
LJ          0.969996         1.62826        0.914505
LJ          0.548772        -1.59993      -0.0995092
LJ          -1.86107         2.07608        -2.26545
LJ          -1.21896          2.0492       -0.419341
LJ           2.24135        -1.84644       0.0457472
LJ         -0.267024         1.41685        -0.44867
LJ          0.617031         2.21963        0.195615
LJ          0.349558         0.32728        -2.21929
LJ          -1.41592       0.0697602        -2.02268
LJ          0.336684       0.0933017        0.679314
LJ           1.36797         1.56199         1.92134
LJ          0.295312        -2.28983        -1.34542
LJ         -0.861145         1.18427         0.88138
LJ          -2.35874       -0.336008         2.01976
LJ          0.530534        0.819196        -0.73001
LJ           1.82378        -2.37374        0.995058
LJ           1.39254        -2.33203       -0.442138
LJ         -0.406268        0.581376        0.120139
LJ          -1.59277        0.190365        -1.03455
LJ        -0.0741305       -0.752709         0.20363
LJ           1.61985        -1.24161        -1.72183
LJ         -0.817171        -1.13557        0.844936
LJ          -1.92115        0.862035        -2.19026
LJ            1.2928        0.533375        0.867966
LJ           1.59345        0.511244         1.92551
LJ           1.24943        0.301296       -0.177906
LJ           1.44733         1.27844       0.0399379
LJ           1.13453        -1.68634        0.747635
LJ          -1.02957       -0.808681        -1.18042
LJ           1.42793       -0.353953        -2.37588
LJ           2.35653         1.11062       -0.200203
LJ          0.287659        -1.73804         1.90727
LJ           2.12186        0.270319        -1.83345
LJ         -0.774195        -1.62746       -0.114053
LJ        -0.0943249        -1.93134        0.966811
LJ          -0.20517         1.83262         1.43584
LJ         -0.896117         -2.1264         1.59328
LJ          -1.85181        -2.23413         1.28265
LJ          -2.27185        0.515612          1.5481
LJ          0.268938        0.834569         1.32976
LJ             1.031        -1.56404       -0.946683
LJ           2.08271        0.192417       -0.743628
LJ           2.06767        -1.62204        -0.94782
LJ          0.286552      -0.0119492        -1.21284
LJ          -1.32006         2.21215        -1.38674
LJ          -1.72222        -1.51531        0.565105
LJ        -0.0787617        -0.90017       -0.948278
LJ            2.0004         1.26247        0.961773
LJ           1.28185       -0.832235        0.432076
LJ          -2.15848         1.86258        0.331193
LJ            1.9944         1.59849        -1.76113
LJ         -0.246792        -1.42028        -1.99872
LJ          -1.24639         1.76329         1.77792
LJ          -1.26397        0.701139         1.58314
LJ           1.65943       -0.703611       -0.850907
LJ         -0.651486       -0.157569       -0.530219
LJ           -1.8844        -1.33013           1.887
LJ         -0.366003        0.162224         1.62701
LJ           2.19258        -1.21137          1.0638
LJ          0.370184       -0.728514         2.26267
LJ          0.224381          1.3815          2.1874
LJ          0.435414         1.10593        0.257161
LJ           1.21387        0.100074        -1.41251
LJ         -0.659285        -1.85502        -1.16275
LJ          -1.29147         1.07586       -0.205865
LJ         -0.320246       -0.380544        -1.90789
LJ          -1.08993        -1.87473        -2.07414
LJ           1.30483        0.929209        -2.00468
LJ           1.04876        -1.88347        -2.30563
LJ          -1.39195       -0.916073        -2.13877
LJ          -1.37464       -0.493085         1.51993
LJ          0.683823       -0.516236       -0.381883
