108
#Comment!
LJ           1.19237         -1.8394        0.822116
LJ        0.00583945        -1.30519         1.15682
LJ          0.379442       -0.763511       -0.623737
LJ           1.42185        0.473069          2.0946
LJ        -0.0078401        0.127868       -0.588989
LJ           1.14294         1.14907        -1.98816
LJ           -1.6401        0.593232        -2.13062
LJ          -1.02379       -0.863786       -0.752605
LJ         -0.701821       -0.431481         1.30574
LJ         -0.084502        0.337739        0.445762
LJ         -0.646692        -1.45869         -1.6359
LJ           1.13127      -0.0541291       -0.736902
LJ           1.04205        -1.47315       -0.221236
LJ           1.25279         2.26906      -0.0250114
LJ           1.93109        -1.02739        -0.28483
LJ          -0.88773        0.700791         1.05723
LJ         -0.395437       -0.644224        0.016804
LJ          -2.36824         0.17689          2.1774
LJ          -1.75191         1.66686       -0.218916
LJ        -0.0366788         1.26343       -0.487367
LJ          -1.21685        -1.95755       -0.930519
LJ            2.1491         1.19612         2.05919
LJ           1.70304        -2.05541        -1.02424
LJ           1.60457        0.843418       -0.949729
LJ          -2.07633       -0.742638         1.99617
LJ         -0.884025         1.20234         2.24382
LJ          -1.23883        -2.30551        -2.25164
LJ           1.28875         -1.6138        -1.89686
LJ          -1.37976         2.12487         1.42101
LJ          0.429265        -0.10465        -1.60882
LJ          -1.86405        -1.77432         1.74365
LJ          -1.06686       0.0842692       -0.826386
LJ        -0.0183828        0.792182         1.59288
LJ           1.23407        -1.97812         1.85467
LJ           2.04025        -1.20411         1.33664
LJ           1.90149      -0.0551424        0.141718
LJ          0.669951        -2.12781       -0.985093
LJ          0.187644         2.27867      -0.0406847
LJ          -1.61971        -1.51547       -0.119914
LJ           2.08255        -2.22518         1.35596
LJ           1.56171         2.02788         -2.2542
LJ           1.45083          1.6581         1.38852
LJ          -2.19597        -2.20832        -0.49278
LJ           -1.8689       -0.583931       -0.332435
LJ         0.0343477         1.85412        -1.49947
LJ           1.98321        0.834777         1.04327
LJ         -0.870346        -1.70971         1.73301
LJ         -0.596122        0.740962        -1.44024
LJ        -0.0791633        -1.43306         2.32267
LJ          -2.25527       -0.248516         1.16307
LJ         -0.309673         2.11753         2.33069
LJ          0.482874        0.890892        -1.24857
LJ         -0.930038         -2.1821      0.00891414
LJ           0.99354          1.7135       -0.816253
LJ          -1.85819        -1.48817        -1.99124
LJ          0.885655         0.84275          1.2561
LJ         -0.491335        -2.37099        0.874545
LJ          0.984946        -1.06163         1.51095
LJ         -0.559982        0.161178         2.32614
LJ           1.44003       -0.913447        -1.18299
LJ           2.31669         2.34641        -1.67252
LJ          0.643947          2.1332        0.927563
LJ          -2.13637         1.55771         0.94142
LJ          -1.92273        -1.08946        0.710288
LJ           2.37201       0.0563541        -1.11282
LJ          -1.22954         1.80115        -1.48208
LJ           2.01485         1.03745      0.00298595
LJ           -1.9701          1.0806       -0.990826
LJ          0.638899         2.37942         -2.1234
LJ          0.225008        -1.41069        0.207125
LJ         -0.867748        0.701069        0.018331
LJ          -0.50288         1.63836         1.42582
LJ         -0.797465         1.90217       -0.610038
LJ          -1.81595        0.662034        0.784617
LJ           1.46471      0.00577845        -1.67485
LJ           2.06453        -1.85428         2.34013
LJ          0.400163         0.12443         2.23204
LJ           2.21007       -0.720731        -1.86676
LJ           2.21046        0.778164        -1.79375
LJ         -0.565523       -0.394238        -1.60751
LJ          0.796549        0.614712       -0.103114
LJ           1.43345       -0.842675        0.569329
LJ          0.549937           1.543         1.92276
LJ           -1.8806        0.385293       -0.166154
LJ           2.00439         1.82827       -0.751823
LJ           1.13415         1.38684        0.470273
LJ          0.741288       -0.839976         -2.2489
LJ           2.11554         1.95072        0.283912
LJ          -2.03827        -1.35117        -1.05841
LJ           2.08397        -1.72568        0.409733
LJ          -1.85119        -2.19207        0.584017
LJ          0.284981        -1.33832        -1.47032
LJ         -0.976202        -1.28844        0.784348
LJ           1.39027      -0.0162353         1.13695
LJ          -1.33429       -0.217877        0.405756
LJ           0.58304       -0.360366        0.296682
LJ          0.282884         -0.1531         1.22397
LJ          -1.13304         1.64679        0.485352
LJ         0.0494624         1.37432        0.503697
LJ          -1.34154        0.117024         1.83069
LJ           1.65218       -0.490843         2.11687
LJ         -0.275906        -1.78373       -0.632191
LJ          -1.63343        -0.49981        -1.52804
LJ           -1.6756         1.04197         1.69953
LJ        0.00761802        0.987498        -2.14825
LJ          -1.13149       -0.898592        -2.35306
LJ          -2.09559         2.09831         2.19204
LJ          0.248573        -2.10882         1.71551
