108
#Comment!
LJ          0.723895         1.17666         1.79039
LJ          -1.03798        0.644334         1.84345
LJ           1.46365        -1.04311        -1.95793
LJ          0.591161        -1.18337     -0.00166844
LJ          0.737813         1.09831        0.541358
LJ           1.26167         2.34236         0.93017
LJ           1.88176        0.431421        -1.09457
LJ           2.18154        -2.21024         1.37461
LJ          0.143439       -0.437361        -2.25676
LJ            -1.568        -0.80426        -1.19461
LJ          -1.26674        -1.16288        0.530269
LJ            1.7269        0.697827         1.80066
LJ           2.30675       -0.709229        -1.63469
LJ          -2.28572        0.649983        -1.86014
LJ           2.00459         2.15565        0.355478
LJ        -0.0824684        0.602443       -0.135841
LJ          0.266997          1.4965       -0.652964
LJ          -2.29204         2.33246        -0.50019
LJ         -0.706782        -2.26506        0.728802
LJ         -0.485624       -0.869796       -0.722116
LJ          0.846573         1.93894       0.0437334
LJ         -0.740145        -0.64921        -1.72919
LJ           1.40009        0.370326        0.916909
LJ           1.81952         1.48532       -0.308519
LJ           1.98115        -0.37569          1.2583
LJ           1.93679      -0.0949006        -2.32407
LJ         -0.103232         2.29646       -0.126254
LJ          -1.32325       -0.404929       -0.136147
LJ           2.31032        -1.71479         2.22693
LJ          -2.12234        0.584515        0.860891
LJ         -0.685016         1.69625         1.41058
LJ         -0.991169         1.72375        0.156363
LJ          -1.13103         2.17494       -0.825027
LJ           1.37839        -2.08558         -0.2487
LJ         -0.176872       -0.362808       0.0619872
LJ          0.146315        -2.37819        -2.32864
LJ           0.95023        0.774985       -0.347045
LJ           1.50415       -0.529055       -0.864774
LJ          -1.68479        -2.26989        0.307203
LJ         -0.218092        -1.83381         1.66848
LJ          0.262033        -0.84365         1.62273
LJ         -0.303932        -1.42797        0.228956
LJ          0.270157          2.0804         1.46284
LJ          0.248624        0.302221          1.6544
LJ        -0.0657394         1.60099        0.520128
LJ         -0.326642         1.56913         2.32262
LJ          -1.14818        -1.44915         1.58362
LJ          -1.87736        0.125733        -1.09244
LJ           1.47172         1.45157        -1.22156
LJ            0.3827       -0.778975         -1.3606
LJ           1.84903        -1.62789        0.682542
LJ           1.50831        -1.03424         1.80094
LJ          -1.28146        0.734865        -1.91483
LJ          -1.50728        -1.15104        -2.27736
LJ         -0.199791        -1.40558        -2.21519
LJ           1.77935         1.26587        0.658115
LJ          -1.39001         1.07192       -0.937281
LJ          0.547797       -0.100258        0.684525
LJ         -0.268752        0.469339        -2.14741
LJ           1.02269       -0.132811        -1.88577
LJ           1.24719         2.21849         1.93325
LJ         -0.500153         1.01287        -1.30608
LJ          0.576352        0.912013        -1.59209
LJ           2.21558         2.29459        -1.52418
LJ           1.47972        0.763527        -1.99431
LJ          -2.08821        0.581756         1.94947
LJ          0.226943         0.15279        -1.12626
LJ          0.106687        -1.67644       -0.716541
LJ         -0.024464          2.1358        -1.40169
LJ          -2.16826        -1.48439      -0.0342816
LJ          -1.65969       -0.487229         1.73446
LJ          -2.29454       -0.609134       -0.488313
LJ         -0.787908       -0.308234         2.05175
LJ          0.876071         2.21163       -0.997471
LJ          0.232105        -1.96081        0.803754
LJ           2.12146         1.49339        -2.24745
LJ           1.07802       -0.156442         1.85807
LJ           1.06173        -1.40231       -0.885206
LJ           0.69397        -1.56659         2.16103
LJ           1.57369       -0.955648       0.0531002
LJ         -0.500623       -0.746514         1.12382
LJ          -1.21766       0.0932095          0.7337
LJ           -2.3648         1.57269         1.49077
LJ           1.71622       0.0410931      0.00406729
LJ           0.74751       -0.273957         -0.2765
LJ          -1.98129         1.36243       -0.075187
LJ         -0.727535        -1.78935        -1.26583
LJ           2.02418        -1.44721        -1.04748
LJ          -1.76974        -1.78355        -1.37347
LJ         -0.832065        0.140878       -0.851273
LJ           1.50991        -2.05925        -2.06428
LJ          -1.55528         1.37313        0.904055
LJ           -2.1546       -0.484428        0.481054
LJ          -1.22698         -1.7051       -0.403719
LJ          -1.14361        -2.06279        -2.11976
LJ          -2.09975        0.308012       -0.127611
LJ          -1.98459         2.20669        -2.29161
LJ          0.926665        -1.27157        0.972403
LJ          -1.54815       -0.188547        -2.05688
LJ          -1.44781          1.6861        -1.66895
LJ          -1.52791         1.46188          1.9736
LJ          -2.31112         1.46815         -1.0472
LJ          0.979414         1.78062         -2.0198
LJ          -2.29901        -1.21014         1.34829
LJ          0.483536        -1.75547        -1.61968
LJ          -1.48814         2.34237         1.32859
LJ          -1.17767        0.708004     -0.00163108
LJ         -0.323374        0.603985         0.96418
