108
#Comment!
LJ           1.50237        -2.22011        0.162779
LJ         -0.958809        -2.18619         1.96594
LJ           2.07735        -2.04138       -0.672572
LJ          0.233546       -0.734223       -0.278009
LJ           1.16732         1.39015         1.19396
LJ          0.797028       -0.744283         1.69978
LJ           1.95343       0.0457298        -1.88736
LJ          0.437632        -1.61168        0.132839
LJ           1.57063        -1.04427       -0.566783
LJ          -1.13676        -1.13523        -2.10506
LJ          -1.25615         2.16999      0.00673289
LJ          -1.82149        0.145841         1.18849
LJ            2.0296      -0.0836785       -0.871364
LJ           1.21798        0.899577        0.247494
LJ           1.91637         1.62099         2.20289
LJ          -1.76014       0.0874473       -0.658981
LJ            1.0449         2.25527          1.7408
LJ           1.48918       -0.194493     -0.00305189
LJ         -0.782325        0.414667       -0.540688
LJ          0.213279          2.1178        -1.10059
LJ         -0.514488        -1.76459       -0.610677
LJ          -1.51322        0.568714         -1.5506
LJ          0.658268         2.32728        0.708057
LJ           1.87603          1.6117        0.146112
LJ           -1.0807        0.787374          1.1381
LJ           -1.9838         2.07398         1.84152
LJ          -2.23527         1.77508       -0.647497
LJ          -1.17922      -0.0650934         2.10116
LJ         -0.593406       -0.246813        -1.90266
LJ           1.94963         1.85556        -1.48632
LJ           1.67669       -0.098041         1.17721
LJ          0.477698         -1.7158       -0.774661
LJ          -1.93308          1.4344        0.245802
LJ        -0.0584364         1.18059       -0.587974
LJ          0.669549        0.432711        -1.99324
LJ          -1.02705       -0.570759       -0.253711
LJ          0.430623        -1.83831        -1.78663
LJ           1.24139        -2.35515        -1.00405
LJ           2.30607        0.862229        -1.23154
LJ          0.632474        0.947209         1.94966
LJ         -0.260518       -0.982702        -1.37368
LJ         -0.797719         1.81097        -1.05532
LJ         -0.772289         1.62385         1.67383
LJ           1.55745        0.912341         -1.9384
LJ          -1.35274        0.976062         2.14717
LJ         -0.989961         1.80713        -2.12939
LJ         -0.746844       -0.372061         1.24161
LJ           2.23654        -1.27991        0.353608
LJ          0.692736         1.27727        -1.49083
LJ          0.958425       -0.908993        0.507669
LJ         -0.651548        -1.27767        0.355687
LJ          -1.65291        -2.20418       -0.799037
LJ          0.726436         1.94815       -0.218949
LJ          -1.64464        -0.42286        -1.56529
LJ          -1.84676         1.58522        -1.60318
LJ          -1.49039          1.1272       -0.636773
LJ         0.0157024         1.66849        -2.19462
LJ          -1.89827        -1.83703         1.08272
LJ          -1.19285         -1.2173        -1.03028
LJ           1.47207         1.31612       -0.730434
LJ         -0.990791        -1.45532         1.28354
LJ         -0.356215        0.789486         2.34306
LJ          -2.31668       -0.891383        -2.18313
LJ          -1.64225         -2.1818        -1.79062
LJ           1.48012        -1.58247        0.950442
LJ         0.0653017        -2.17988          1.9029
LJ         0.0258451       -0.094278         1.79936
LJ           2.14567        -1.95618        -1.85947
LJ           2.09312         0.68009       -0.279025
LJ          -2.27136       -0.203319        0.270761
LJ           2.04938        0.740657        0.766681
LJ          -2.29283        -2.36286        0.335502
LJ          -2.01971         1.19839          1.3239
LJ           1.96524         1.92818         1.09778
LJ           -2.1861        -1.30859        -1.16715
LJ           0.46568       -0.639968        -2.08542
LJ          -2.24853        0.862921        -2.21065
LJ           1.51457        -1.25246         2.27157
LJ          -1.60683       -0.802746         1.67664
LJ         -0.269942          2.1428      -0.0970928
LJ         -0.603952        0.966269        -1.47193
LJ           1.22967       0.0809059         2.05331
LJ         -0.583127        -2.13799        -1.64863
LJ           1.27267        -1.39175        -1.51091
LJ          0.211141         1.12077        0.359328
LJ         -0.787264         1.23139        0.170951
LJ          -1.44693         2.01926         1.00914
LJ         -0.115235        0.731947         1.13208
LJ          0.748003       -0.641879        -1.17377
LJ         -0.413401        -2.33931        0.937802
LJ          -0.28224       0.0159333        0.424344
LJ         0.0480638        0.167896        -1.21842
LJ           2.04418        -2.02434         1.72318
LJ         0.0823573       -0.807829         1.01329
LJ          -1.38558        0.405487        0.273469
LJ          -2.00221       -0.847423       -0.352997
LJ          -1.51871       -0.678123        0.609665
LJ           1.96286        0.674637         1.74716
LJ         -0.220701        -1.23786          2.2313
LJ          -1.62085        -1.61393        0.152648
LJ          0.197157         1.63649         1.28039
LJ          -2.17109      -0.0481797         2.11451
LJ          0.564943        0.227539       -0.322286
LJ          0.719706        0.279089        0.885853
LJ            1.1797        0.268294        -1.14615
LJ           2.21527         -1.0144         1.35565
LJ           1.19934         2.07351        -2.08693
LJ          0.513538         -1.6156         1.27426
