108
#Comment!
LJ           1.67487         1.12648       0.0728088
LJ         -0.790282       -0.592026       -0.372097
LJ           0.12526        0.286731        -1.89563
LJ           -1.1993        -1.24317         1.24834
LJ         -0.333401       -0.648593        -1.94826
LJ          -2.01322         1.71132       -0.965136
LJ           1.41384         1.29466         1.82251
LJ          0.771569        -1.51468        0.256619
LJ          0.216561         2.33731         2.04865
LJ          -0.31304        0.499791         1.89709
LJ           1.38321        -2.30542        -2.15819
LJ           2.14876       -0.573034        -1.28122
LJ           1.72546        -1.82433        0.194293
LJ          0.575482        -1.05048        -1.79226
LJ          0.931619          1.2611        0.869193
LJ          0.780782       -0.540295        0.861506
LJ         -0.653368        -1.37593        -1.21249
LJ           1.09436         2.31197        -1.22184
LJ         -0.454767       -0.674133         1.84376
LJ         -0.467986        -1.37389        0.673194
LJ          0.162499        -0.85667       -0.890001
LJ           2.07205         1.36568         1.01354
LJ         -0.218791         2.09192         1.14974
LJ          -1.64787        0.916496         1.16948
LJ          -1.22238       -0.187021        -2.07201
LJ          0.160933        0.204905        0.823448
LJ          -1.24104         2.13764         1.01573
LJ         -0.156521        0.975808       -0.806201
LJ            1.6403       -0.914835       -0.176646
LJ            1.4631        0.428828        0.973507
LJ          -1.68425        0.143032        -1.23917
LJ          0.686107        0.999559        -1.48629
LJ        -0.0312852         -1.8475       -0.422553
LJ           -2.0769        0.610701         2.13651
LJ           2.03531         -1.1648         2.14118
LJ         -0.733903         1.41068         1.68992
LJ          -2.27224       -0.299821        -2.26265
LJ          -1.71688         1.06735        -1.66818
LJ         -0.725581        0.631329         1.00107
LJ         -0.741543        0.458349         -1.4804
LJ          -1.08044        0.810714        -2.31052
LJ          0.130773        -1.39936         1.43045
LJ          -1.31271        0.842764       -0.608929
LJ          -1.45635       -0.787027        0.354069
LJ            2.3516      -0.0221345         1.41032
LJ          -1.05655         2.01939       -0.568759
LJ           1.00131         1.46103       -0.580295
LJ          -2.09222        -2.21641       -0.263922
LJ          -2.29111        0.666862       -0.565177
LJ           1.22055        -1.63647       -0.741516
LJ          0.448221        0.142121       -0.874453
LJ        -0.0786498         1.23135        0.673214
LJ          0.806568          2.3373       -0.112354
LJ          -1.77705         1.69116         1.78847
LJ           1.89253       -0.599474         0.70003
LJ          -1.54902       -0.896248        -1.15867
LJ          -2.24191       -0.293267       -0.390325
LJ         -0.116628        -1.56674         2.36884
LJ          0.731889        0.340013         1.78647
LJ           1.51843         2.05121        0.573643
LJ         -0.609115         2.08799        -2.18866
LJ           1.19128       -0.147971         -1.9461
LJ          0.259194        -1.88505        -1.37233
LJ           1.43558         2.37218         1.60122
LJ          0.501786        0.726564       -0.064478
LJ           2.37279         2.27223         1.02429
LJ         -0.422382        0.383034       0.0358786
LJ         -0.671824       -0.364894        0.854554
LJ           1.71165        0.403696         2.12793
LJ            1.7186         2.12518       -0.481755
LJ          0.182781       -0.512624       0.0475741
LJ          -2.20609        -1.00768         1.27943
LJ           1.14799       -0.553376       -0.921254
LJ        -0.0981058         1.29301        -2.11045
LJ           1.51833        -1.43787        -1.74398
LJ          0.201245         1.89813        -1.19136
LJ          -1.42217        0.139359        0.275226
LJ           2.21167        0.592515         -1.6636
LJ          -2.06426         1.38132        0.238315
LJ          0.512568       -0.599939         2.04527
LJ          -1.71249         -1.0187         2.09342
LJ          -2.21802        -1.25432       -0.563381
LJ           1.43036       -0.397158         1.62323
LJ           2.23616         2.20824        -1.78122
LJ           2.25755         1.40557        -2.25794
LJ           2.10359        -1.93031        -1.05863
LJ          0.886027        -1.54824         2.18836
LJ           1.50812        0.439786        -1.00274
LJ          0.275632         1.38359         1.65665
LJ          -1.08944        -1.67716        -2.07778
LJ          -1.07419         1.26186        0.249516
LJ          -2.10666        -1.49995        -1.85204
LJ          0.851623         1.64058        -2.22697
LJ          0.660094        -2.21169        0.999294
LJ         0.0984339         1.75492       -0.191651
LJ            1.6152         1.38373        -1.53181
LJ           2.33641         -2.3012         2.05603
LJ          -1.40004       -0.137928         1.65115
LJ          -1.97164        -1.62318        0.533232
LJ         -0.873434         1.44542        -1.38546
LJ           1.44153        0.127105      -0.0770383
LJ           2.27206        0.412565        0.402693
LJ          -1.43535        -2.05239        -1.22253
LJ            1.3818         -1.3159         1.19221
LJ          -1.62951         2.16865        -2.06223
LJ         -0.765065        -2.09463          1.7491
LJ          -1.32418         -1.5971        -0.35634
LJ         -0.648373        -2.24971        0.302448
