108
#Comment!
LJ         -0.350105        -1.42224         1.48838
LJ          0.779056        0.296509        -1.28472
LJ           0.36998        0.467531         1.02918
LJ         -0.954269        0.581691       -0.396966
LJ         -0.591592        -0.12673        -2.18428
LJ          0.817527         2.34572       0.0699725
LJ           2.07165        -1.70076        -1.22362
LJ          -1.73516         1.37648        -2.02848
LJ           1.95387         1.88478        0.288329
LJ         -0.245086          2.2676        0.472732
LJ           1.33137          2.3476        -1.35627
LJ            2.0181         1.74726        -1.50357
LJ          0.959292       -0.214101        0.414644
LJ          -1.64967        -1.06452       -0.104116
LJ         -0.945828        -1.82616        0.272094
LJ          -1.52201        0.725731        0.884403
LJ          -2.01255        0.950653          1.6596
LJ          -2.24496        -1.36035        0.960695
LJ          -1.69104        -1.84822         -0.7528
LJ        -0.0566446       -0.941619        -1.88459
LJ         -0.741718      -0.0773986         1.03337
LJ         -0.450206         1.52348       -0.301329
LJ           1.91737        -0.68279          1.5344
LJ           1.03467         1.89982         1.27958
LJ         -0.640249       -0.899871       -0.429701
LJ          -1.89146        0.777654       -0.106163
LJ          -2.15426         1.94044         1.01081
LJ          0.485519       -0.167319        -2.11355
LJ          -2.03693        -2.01635        0.220843
LJ           1.49536        -1.10305        0.597057
LJ          -1.50561        -2.03002         1.03045
LJ         -0.388553        0.829625        0.420571
LJ         -0.829536         1.06454         1.74035
LJ         -0.788599        -2.24023       -0.644192
LJ          -2.02588        -0.94784        -1.04433
LJ           1.26339         1.15768        0.452733
LJ          -1.20002          1.7439         1.11891
LJ         -0.859491        0.644222        -1.55234
LJ          0.183532        -1.66707      -0.0392839
LJ          0.223413         1.74354         -1.9706
LJ            1.9665        -2.09241        -2.13205
LJ           1.87153         1.92317         1.79889
LJ           1.01726       -0.290197         1.68393
LJ          0.531272         1.35186        -0.28211
LJ           1.82194         0.74936        -1.41466
LJ         -0.162092        -1.59116        -1.17684
LJ         -0.451021         -1.0229        0.582071
LJ           1.98206        0.396486        0.157277
LJ           1.45481        -0.16366        -2.15314
LJ        -0.0373634        0.116574         1.85594
LJ          -0.39344       -0.134026       0.0750318
LJ          0.302644         2.27008       -0.787822
LJ            1.9849       -0.226034        -1.28509
LJ         -0.474893         1.86709        -1.28373
LJ           -1.9462         2.30865        -1.73689
LJ          0.247445         1.46241        0.740849
LJ          -1.33423        0.159445         1.93673
LJ           -1.2809       -0.222327       -0.878471
LJ           -1.4322      -0.0727129        0.261541
LJ          -1.84693        -1.46922        -1.91092
LJ         -0.913585        -1.12585        -2.35159
LJ          -1.17511         -1.9969         1.92506
LJ         -0.247334       -0.142812        -1.08349
LJ          -2.26714        -1.60767         1.91221
LJ           1.63741         0.23715         1.12748
LJ           1.38458         1.77437       -0.522183
LJ          0.190612       -0.603796         1.16491
LJ          0.461204        -1.82154          1.0494
LJ         -0.813924         1.85175        -2.31332
LJ          -2.21374       -0.118542       -0.423909
LJ           1.30745       -0.436314       -0.618902
LJ           1.20921        -1.64017          1.9685
LJ          -2.30319         1.80267        -0.56566
LJ           -1.0342        -2.07365        -1.57494
LJ          -1.57907      0.00695618        -1.81506
LJ           0.45348       -0.993974         2.05266
LJ           1.29544         0.73851       -0.527917
LJ          0.360934       -0.630458       -0.400989
LJ           2.37526       -0.470049        0.477989
LJ          -1.38763         1.83891        0.166703
LJ         -0.396625         2.10223         1.55946
LJ          0.567518        -1.86028         -1.8531
LJ         -0.109786          0.8466        -0.92445
LJ          -1.96963        0.687539        -1.17546
LJ          0.541988        -2.30844         1.91014
LJ          0.399977        0.369889        -0.15737
LJ           1.13445        -1.49377       -0.726488
LJ         0.0105942        0.804953        -2.17021
LJ          -2.14096       0.0256509         1.28844
LJ         -0.268322        -2.04065        -2.37055
LJ           1.84606        -2.10408         1.15378
LJ           2.07567         1.14954         2.37924
LJ           1.29967         1.00189         1.68402
LJ          0.837602         1.35415        -1.24248
LJ          0.327152         1.32572         1.77542
LJ          -1.96397         2.14901         2.03037
LJ            1.0806         0.86518        -2.08762
LJ          -1.27644         1.40992       -0.793487
LJ           2.06298       -0.931033        -2.19649
LJ          -1.30507        -1.05669         1.07955
LJ           2.15871         1.03966        0.872958
LJ          -1.70867       -0.761334         1.92814
LJ           1.83259        -2.11057       -0.347301
LJ           2.32639       0.0509231         2.24565
LJ           2.06329        -1.10112       -0.300052
LJ           1.19907         1.89192        -2.16246
LJ         -0.963809        -1.01885        -1.37642
LJ           1.22905       -0.963737         -1.6227
