108
#Comment!
LJ          -2.20341       -0.422119        -1.57191
LJ          -1.24349       -0.342517        -1.56021
LJ         -0.274171       -0.582297       -0.203671
LJ       -0.00429742     -0.00603803        0.435517
LJ           2.08569        0.921909        0.710138
LJ         -0.914871        -1.55392        -1.87071
LJ           2.34201         2.15392       -0.679689
LJ         -0.461946       0.0798729        -1.00465
LJ           1.39448       -0.279721       -0.576996
LJ          0.283885         -1.3099        0.173039
LJ          -1.50489        0.425776        -2.10998
LJ          0.313284         1.02545        0.556258
LJ          -0.65619         2.33612        -1.53983
LJ         -0.922578        0.852982        0.843955
LJ          -1.70666         1.64746        -1.41587
LJ           2.17777         1.88592         0.70194
LJ          0.675526         1.55314       -0.515493
LJ          -1.45764         1.88794         1.18106
LJ          -1.51116        0.625167        -1.18591
LJ           1.51392        -1.78133        -2.32648
LJ           2.05884        -1.70098         -1.1094
LJ         -0.294248       -0.942519        0.936423
LJ           -0.3503      -0.0483436         1.38432
LJ          0.291363        -1.90528        -2.15097
LJ          -1.92226        0.110427        0.739541
LJ          -1.28077        -1.01326         1.01671
LJ          0.650236       -0.661442        -1.17125
LJ          -2.27891         1.11593        -2.19941
LJ           -1.6016       -0.132637       -0.368272
LJ          0.038282         2.10825       0.0520815
LJ          0.851219        -0.49017        0.279504
LJ         -0.801497         1.71079        -0.85331
LJ           -2.1346        -1.64606       -0.297132
LJ          -1.83309         2.23506        0.177183
LJ         -0.972636         -2.0518        0.876024
LJ           1.64453          -1.426         1.33704
LJ        -0.0160673         1.82665        -2.23351
LJ           1.71555         1.43629      -0.0865032
LJ         -0.435266          1.7811         1.04259
LJ        -0.0976577        -1.05488        -1.82556
LJ          0.948694         1.77323        0.561457
LJ           2.14173         1.25439        -1.20199
LJ           1.45707         1.06968        -1.95516
LJ          0.410148        -0.28214         2.06672
LJ          -1.42352        -2.27131       -0.788274
LJ          0.840732        -1.97613         1.72226
LJ           2.09417         -2.2509         1.71157
LJ           1.79681        -2.11904     -0.00812712
LJ          0.818786         2.08983        -1.80372
LJ          -1.31893        -1.43715        0.101647
LJ          0.131572        -2.03843        0.942685
LJ          -1.76301         1.25887        0.513213
LJ          0.866828       -0.945459         -2.1507
LJ          0.385743        0.267672       -0.362642
LJ          0.541804         1.75929         1.59976
LJ          0.442856        0.950569        -1.37004
LJ          0.952426        0.188409        -1.79043
LJ           0.71594        0.206164         1.12628
LJ          -2.33308        0.215833         1.84226
LJ           1.15038         1.08807         1.36486
LJ            2.3598        -1.36298        -2.01097
LJ          -1.83947        -2.17343        -1.79804
LJ         -0.172761        -1.66749         1.77279
LJ           2.11968       0.0361684         0.10265
LJ          -1.64101         -1.6857         1.69304
LJ           1.21519        0.305284         2.00065
LJ          -2.28836       -0.928601         1.18639
LJ         -0.112191         1.02048         1.42879
LJ             2.111         1.28116         1.67624
LJ         -0.837505        0.834063          2.0297
LJ            -1.709        0.962524         1.47896
LJ         -0.924901        -1.10003       -0.736234
LJ          -1.95183         1.17254       -0.454643
LJ           1.92567         0.24806        -1.80946
LJ           1.37963         2.08224       -0.964769
LJ            1.7673       -0.716977         2.22368
LJ           1.17099        -2.01182        0.661685
LJ         -0.899158         -2.3581         1.85669
LJ           2.31101       -0.759482       -0.679403
LJ           1.44546         1.83508         2.17812
LJ          -1.89114       -0.638443         2.18511
LJ          -1.90605          1.8331          2.0559
LJ         -0.235622         1.06024       -0.343279
LJ          0.490327        0.982537         2.31885
LJ         -0.992047       -0.143359        0.421788
LJ           1.67798        -1.12723        0.168753
LJ         -0.383796        0.057211        -2.12797
LJ         0.0261163        -1.39115       -0.845829
LJ           0.17095         2.27886        -0.98438
LJ         -0.556438        -1.90616       -0.276496
LJ           1.97489         2.27436         -1.7848
LJ          -1.04678         1.63304        -2.21239
LJ          -2.37465        0.300227       -0.843316
LJ          0.766311        -1.97648       -0.319954
LJ          0.709761        -1.06924         1.25677
LJ          -2.17328        -1.85831        0.817989
LJ          -1.32428       -0.172235         1.50606
LJ           -1.7124        -1.30357         -1.3205
LJ          -1.20696        0.748293       -0.119462
LJ         -0.631196        0.953438        -1.55179
LJ           1.62657       -0.368369         1.24424
LJ           1.13874        0.497858        0.267826
LJ           1.60758       -0.861159        -1.45681
LJ         -0.745276       -0.853683         2.15605
LJ          -2.03996       -0.776502        0.247132
LJ          0.863644         -1.8207        -1.28989
LJ         -0.950591         1.68399        0.153375
LJ           1.35127        0.667694       -0.869341
