108
#Comment!
LJ            0.6503        -2.37447        0.635911
LJ          -0.61249        -1.45864         1.52954
LJ          0.517359       -0.717972        -1.47929
LJ           1.20029       0.0594084        -2.25491
LJ          0.512201       -0.325074       -0.556027
LJ          0.325671         1.18162        -1.60251
LJ          -1.37195          1.5064        -1.72162
LJ          -1.34079        -1.22736       -0.511018
LJ         -0.380931         -0.5152         1.24991
LJ         -0.241811        0.459807        0.881178
LJ         -0.908699        -1.34424        -2.29817
LJ           1.33183        0.299331      -0.0824444
LJ           1.00252        -1.32657        0.227309
LJ           1.64076        -2.13827         -1.2788
LJ           2.01089        -0.34079       -0.380771
LJ         -0.738372          1.3107         1.15597
LJ         -0.304873        -0.49986        0.222578
LJ           2.32367       0.0483466        -1.80424
LJ          -1.08582         2.17703        0.152568
LJ          0.354153        0.477196       0.0325799
LJ          -0.43111         1.72753        -1.85714
LJ           1.43465         1.68357        -2.20631
LJ           1.11924        -1.28766       -0.782383
LJ            1.5019         1.34542       -0.558786
LJ          -2.33988       -0.505223         2.07913
LJ          -1.73897        0.702496         2.26925
LJ        -0.0788928        -1.87457         -2.0457
LJ          0.865627        -2.22368        -2.11873
LJ          -1.46085         1.61927         1.91028
LJ         -0.477813       -0.572471        -1.66221
LJ          -1.36522         -2.2407        -2.14045
LJ          -1.78239        0.670901        -1.31532
LJ          -1.08926          0.4092          1.5576
LJ           1.38667         2.26954         1.58135
LJ           1.29001        -1.61168         1.16568
LJ          -2.14574        0.264185        0.308034
LJ          0.763086        -2.15728       -0.355117
LJ           1.10538         1.38605        0.414189
LJ          -1.87012       -0.631793       0.0796111
LJ            -2.281         2.13191         1.64972
LJ          0.894367          1.9553        -1.14036
LJ            1.9315         1.48573          1.1512
LJ          -1.03189         2.27408        -1.17392
LJ          -1.65358        0.111771       -0.547168
LJ         -0.194993        0.391876       -0.993679
LJ          -1.99913        0.640212         1.24768
LJ          -1.28773        -2.25626         1.21595
LJ         -0.901635        0.550144        -1.68291
LJ         0.0027774       -0.960429         2.20553
LJ          -2.30528        -1.32255        0.992247
LJ         -0.372161        0.929103         2.21406
LJ          0.880633        0.583186       -0.942164
LJ         -0.121921        -2.37727      -0.0847409
LJ          0.424349         1.50554        -0.39146
LJ          -1.48032        -1.20247        -1.51153
LJ          0.870918         1.03095         2.12277
LJ          -0.44148         2.36933        0.868873
LJ            1.5177       -0.569087         1.53805
LJ         -0.522708       -0.134122         2.17372
LJ           1.42469       -0.276558        -1.27146
LJ          -2.02227         2.31408        -1.42076
LJ          0.526572         1.59627         1.23789
LJ          -1.88218         1.72471        0.601196
LJ          -1.30321        -1.13135        0.824803
LJ           2.20265        0.549803       -0.701305
LJ           1.97425         -2.2365        -2.28868
LJ          -2.07993         2.18175       -0.348601
LJ           1.99589         1.68824        -1.31957
LJ        -0.0507707           2.119        -1.04288
LJ          0.189789         -1.4318        0.779021
LJ         -0.774807        0.388795        -0.14032
LJ          -0.66509         2.29021         1.95875
LJ         -0.672081         1.31176       -0.961652
LJ          -1.28429        0.902132         0.48416
LJ           1.05225        -1.08077         2.34994
LJ           2.00728        -1.24287        -1.76326
LJ          0.589572       -0.916228         1.43192
LJ          -2.14822       -0.676713        -1.03491
LJ           1.72939        0.828228        -1.81836
LJ         -0.690074       -0.553581       -0.679709
LJ          0.843595        0.651821         1.08313
LJ            1.6109        -0.52382        0.555422
LJ          0.209054          1.9167         2.17289
LJ          -1.56701         1.27751       -0.375103
LJ          -1.88223        -1.96324        0.426267
LJ           2.05291         1.12232        0.207937
LJ          0.477062        -1.81011        -1.28939
LJ           1.68948         2.26501       -0.225687
LJ          -2.27694        -1.67311       -0.734423
LJ           1.95414        -1.35858       0.0658981
LJ           2.00221        -2.35611        0.732987
LJ         -0.675059        -1.55504        -1.15956
LJ         -0.700166        -1.65946        0.182836
LJ           1.78894        0.373283        0.860835
LJ          -1.15492      -0.0828452        0.658312
LJ          0.594773       -0.360382        0.520339
LJ          0.539219        -1.86396         1.72729
LJ         -0.377252         1.26377         0.25735
LJ          0.351801       0.0320077         1.69906
LJ          -1.96256       -0.396264         1.15428
LJ           1.92843        0.640344          1.8237
LJ          0.118839         -1.3316       -0.444266
LJ          -1.49945       -0.271634        -1.91128
LJ          -2.25061         1.49522        -2.22557
LJ          0.198023        0.220756        -2.02372
LJ          -1.25462       -0.663045         1.83206
LJ          -1.81448         -1.5858         1.86246
LJ           1.98143        -1.37628         1.97703
