108
#Comment!
LJ          -1.33394        -1.81348        -1.56225
LJ          -1.47179       -0.689518        -1.71389
LJ          -1.48474        -1.10453       -0.705318
LJ         -0.152062        -2.14426        -1.56698
LJ          -1.95704         -1.8732         1.25247
LJ          0.453965        -1.34581        -2.16322
LJ         -0.576762        -1.38328        -2.05899
LJ          0.677766        -2.10013       -0.966863
LJ          0.932296         2.36475        -2.32833
LJ           1.52176       -0.949996        -2.26146
LJ          0.761391       -0.546805         2.02601
LJ           1.13812        -1.39955        -1.41729
LJ          -1.98941        -1.39329        -2.20767
LJ          -1.24607       -0.126314         2.11482
LJ           2.23067       -0.879021        -1.54313
LJ         -0.669816        -1.85914       -0.631459
LJ         -0.129775      -0.0837403         2.18265
LJ         -0.269452         1.36454         1.59383
LJ         -0.773005        0.119274        -1.65942
LJ          0.111728       -0.540604        -1.70177
LJ           1.79442        0.467946         2.16203
LJ          0.968255      -0.0612884        -1.65982
LJ          0.102229        0.602801        -1.88184
LJ          -2.33002        -1.90524        -1.39179
LJ          -1.74933        0.268121        -1.82077
LJ          -1.41667         1.25564         1.77016
LJ           1.98737         1.18429        -1.51904
LJ           1.95511        0.106397         -1.4988
LJ         -0.803998         1.15855        -2.20086
LJ          0.770024         1.69328        -1.32931
LJ          -1.53358         1.17364        -1.44747
LJ         -0.742235         2.15617        -2.21421
LJ           1.10301         0.90479        -1.81924
LJ           1.83708         1.86719         2.34304
LJ           1.63963         2.16056        -1.50352
LJ            1.0277         1.45514         1.87786
LJ            2.0477         1.88288        0.754186
LJ          -1.77614         1.92213        0.469419
LJ          -1.07858         2.11738        -0.17866
LJ          -1.91083        0.122322        0.183636
LJ         -0.938504         1.19312        0.166746
LJ         -0.373245       -0.990175       -0.246201
LJ          0.882579        -1.35256        0.727047
LJ         -0.903296         1.98105        -1.14721
LJ           1.77511         1.49982       -0.441022
LJ            1.9847        -2.29494       -0.543305
LJ           1.82859        -1.47288        0.810585
LJ          -2.24091        -1.98612        0.247758
LJ           1.50647       -0.386437       -0.754107
LJ           -2.3101       -0.347625       -0.754379
LJ           1.54578       -0.400282        0.265381
LJ          -2.06723       -0.996063        0.310523
LJ            -1.178      -0.0250033       -0.575401
LJ         -0.115748         1.44277        -1.33742
LJ          -2.02367        0.393869         1.77438
LJ          0.257368        -1.78155       -0.119528
LJ          0.905997        0.281665       -0.118767
LJ         -0.237095       0.0392742       -0.790532
LJ          0.702384       -0.288595         0.84893
LJ          -1.70777        -2.10282       -0.633312
LJ          0.641557       -0.839901       -0.617865
LJ           -2.0925        0.558163       -0.916698
LJ           1.75678        -2.29099         1.51612
LJ           1.51498        0.656551       -0.794464
LJ         -0.871743        0.884732       -0.776949
LJ          0.551464         0.83211       -0.985453
LJ         -0.139851         2.08164       -0.540805
LJ         0.0737505        0.862139      -0.0689419
LJ           1.78724        0.916886        0.347368
LJ          -1.95989         1.21539       -0.158666
LJ           1.27093         2.30754        0.267461
LJ          0.124593        0.605722        0.911818
LJ          -1.32368        -1.62238       0.0927571
LJ         -0.586264        -1.94695         0.75448
LJ           2.10568        -1.37789         1.79861
LJ          -1.99995         2.07034         1.77731
LJ          -1.06465         2.13901         1.42866
LJ        -0.0520181        -1.19579         1.70121
LJ          0.932792        -1.50894         1.71274
LJ        -0.0823118        -2.13032         2.10728
LJ           1.28341        -1.62141       -0.398825
LJ          -2.19078       -0.589766         1.20882
LJ           1.52006       -0.628602         1.35481
LJ          -2.14808         1.82493       -0.949686
LJ          -1.07182       -0.611377        0.359824
LJ          -2.20836       -0.432129         2.38015
LJ           2.22965         1.27972         1.47745
LJ          -1.15892        -1.85173         2.02601
LJ         -0.130387       -0.996306        0.707138
LJ         -0.670141       -0.805353        -1.13852
LJ         -0.507537       -0.170721         1.25696
LJ          -1.17772       -0.899023         1.35436
LJ          0.587151        0.572161         1.82333
LJ           1.28196        0.511972         1.10432
LJ           1.11668         1.66751        0.924603
LJ           2.19696        -1.30742        -0.66539
LJ           2.18889         0.23371        0.949538
LJ          -1.77226         1.01524        0.866048
LJ          -2.16383         1.04439        -2.25757
LJ         -0.834096        0.781975         1.08119
LJ          -1.46465       0.0653262         1.02166
LJ          0.735145         1.53983       -0.125213
LJ        -0.0309783         1.71591        0.465157
LJ          0.155017         1.65549        -2.31445
LJ          -0.12424       -0.150955        0.267771
LJ          -1.97008         1.96851        -1.92245
LJ            0.4395        -2.20683         1.12758
LJ           1.89561        -1.93593        -2.25212
