108
#Comment!
LJ           1.81706         1.07119         1.95579
LJ          -1.39291       0.0574195        -1.65869
LJ          -1.95718         -1.0499         1.08827
LJ           1.91835        -1.30301        0.712645
LJ           2.29406        -1.95472        0.036543
LJ           1.48582        -2.12323        0.585634
LJ           1.59867        0.284588       -0.926575
LJ           -1.7607         1.86948         1.85429
LJ         -0.584995         2.11283         1.44068
LJ           1.99634         2.37861       -0.852751
LJ          0.592181        -1.46132        -2.13668
LJ          -1.08925         1.33946        -1.37932
LJ           1.98426        0.936172         0.87818
LJ          -1.97437        0.556561       -0.984135
LJ           1.90491          1.4381       -0.916295
LJ         -0.245292      -0.0303376        0.712334
LJ           1.02845         1.52347        0.358608
LJ          -1.11476         1.53189         0.78668
LJ          -1.78699       -0.627402         2.02835
LJ           1.95094        0.823112        -1.78562
LJ          0.392895        -1.15764       -0.476466
LJ          -1.79127        0.649862         2.30492
LJ           2.14472         2.32631         2.11713
LJ          0.862275        0.993962       -0.462593
LJ          -1.46999        -1.81542         1.63091
LJ           2.12479         1.78057        0.012133
LJ           1.79768         1.86824         1.21573
LJ         -0.975411       -0.987504         1.13783
LJ           2.30785        -1.55515        -1.55751
LJ         0.0636136         1.69779       -0.305578
LJ           -1.7929         1.68372        -0.76061
LJ            1.0781         1.06126         1.28694
LJ          0.363886        0.449839         1.58342
LJ          -2.27137        -2.13778         1.04243
LJ          0.724859       -0.227981          0.9868
LJ        -0.0797101        -1.05542        0.588518
LJ          0.510549        -1.26813         1.34502
LJ          0.492634       -0.312233        -1.16037
LJ          -1.65752        -1.39364       0.0989047
LJ           0.68921       -0.521265         2.18377
LJ           2.10233       -0.571645        -2.20797
LJ          0.720389         2.35416       0.0581975
LJ         -0.794964        0.795081        -2.14581
LJ         -0.174539         1.73649        -1.25757
LJ            1.2332        0.155419        -1.86751
LJ          -2.31521       -0.452231           -1.27
LJ           1.31225       -0.852711        -1.58384
LJ           1.27739       -0.631361       -0.613824
LJ         -0.412806         1.81925        -2.31994
LJ        -0.0137401        0.686556        -1.17538
LJ          -1.68921        0.813152         1.21848
LJ          0.653117        0.902812        -2.28859
LJ         -0.818368       -0.251643         2.31049
LJ         -0.228812        -2.04482        -1.96082
LJ          -1.83692        -1.73373       -0.767148
LJ           1.07638             2.1       -0.839959
LJ             1.667           2.098        -1.86078
LJ          0.920036        -1.02241         0.38142
LJ           1.32977        0.188467         1.83666
LJ         -0.158642       -0.427927         1.62306
LJ           1.58031        -1.57898        -2.22529
LJ          -1.02028        0.391359       -0.703607
LJ          -2.28876      -0.0990082       -0.313348
LJ           1.32398        -1.67177        -0.24605
LJ            2.3154        0.126137         1.60781
LJ          -1.47221       -0.495077       -0.781434
LJ         -0.584727        -1.15571        -2.29147
LJ          0.548116        0.696729        0.548466
LJ          -1.39801         2.37443       -0.155306
LJ          -1.81684         2.36707        -1.55929
LJ         0.0159651        -2.00898        0.717534
LJ           1.93705        0.739576      -0.0549898
LJ          -2.12303       0.0083262        0.722921
LJ         0.0486852        -2.09031       -0.950016
LJ            1.0898         1.78622          2.1075
LJ         0.0125988        -1.22214        -1.39855
LJ           1.04951         1.27246        -1.37285
LJ           2.10219        -1.03371       -0.283608
LJ           -1.6681       -0.952223         -1.7969
LJ           1.49623       -0.781978         1.68643
LJ          0.454394       -0.217348      -0.0465843
LJ          0.234664         1.40944         1.64693
LJ          -1.06122         -1.5481        -1.38257
LJ           1.44225      -0.0545277         0.28507
LJ          0.625934         2.14639        -1.82285
LJ           1.03206        -1.75153        -1.27399
LJ         -0.869642         1.46217       -0.384669
LJ          -2.09597         1.45796        -1.95784
LJ          -1.10243       -0.348014        0.241165
LJ          -0.14939        0.578305       -0.209779
LJ           2.37331          -1.465         2.00629
LJ        -0.0132632         1.67202        0.728247
LJ          0.826795         2.12465         1.18939
LJ         -0.691564        -1.44635       -0.303002
LJ         -0.964374         2.29625        -1.00808
LJ           1.36496        -1.89143         1.55901
LJ          -2.09136         1.63935        0.953564
LJ          0.267713          2.3119          2.0524
LJ         -0.328978        -1.74112         1.66524
LJ         -0.430662       -0.331216       -0.493609
LJ          -1.14569        -2.30521        -2.28718
LJ          0.039763       0.0523554        -2.15913
LJ          -1.92264         1.08592        0.146117
LJ          -1.02904        -1.86233        0.734487
LJ         -0.617862       -0.461427        -1.47344
LJ         -0.616329        0.937201         1.46439
LJ          -1.09987     -0.00965864         1.32365
LJ         -0.984456        0.611411         0.36154
