108
#Comment!
LJ           1.12694         2.29548      -0.0796215
LJ          -1.36389          1.1143        -1.57984
LJ          -1.01539       -0.930092         2.17244
LJ          -1.92376         1.03825         1.48512
LJ           1.03565        -1.05429        -1.40359
LJ          0.416188        -1.61545       -0.685146
LJ            2.0301        -1.83683       -0.127576
LJ           1.80871        -1.92998         1.73244
LJ         -0.294618         1.56687         1.30341
LJ          -2.05511         1.45898        -2.21602
LJ          -1.27438         1.69926         1.89268
LJ           2.31782        0.235295      -0.0117312
LJ          -2.02197        -1.90056         0.95291
LJ          0.240464         1.93346         0.56464
LJ          -1.16197         1.36928         0.85201
LJ           1.26125         1.50166        0.546307
LJ         -0.194154       -0.160026         1.96564
LJ           1.51983        -1.63794        -2.11642
LJ          -0.92852         2.35077        0.927087
LJ         -0.131446        0.346789       -0.763663
LJ          -1.38865        0.973237     -0.00263952
LJ          0.829363        -2.11026         1.92366
LJ           1.57181         1.05377       -0.380368
LJ           2.27192         1.83038       -0.261317
LJ          0.598796       -0.279374         1.30204
LJ           2.24023         1.08357        0.532514
LJ          -2.18066        -1.77334        -1.15176
LJ          0.759278         1.31136        -2.20175
LJ         -0.635884         -0.5043          1.0974
LJ          0.239668        0.532785        0.767658
LJ         -0.355882        0.632055          -1.714
LJ          -2.26713         1.08037        -1.16882
LJ         -0.588145        0.496382         1.32438
LJ          -2.11895        0.504385        -1.94756
LJ         -0.322357        -2.02407        0.225884
LJ        -0.0621221        -2.23273         1.34116
LJ         -0.190001       -0.986794       0.0762743
LJ          -1.20593        -1.61488        -1.76163
LJ          0.610309       -0.218966        0.250178
LJ           -1.0535       -0.222258        -1.84621
LJ          -2.07194         2.02648         1.35853
LJ           1.03804        -1.23793      -0.0890257
LJ           1.51006        0.849038        -1.44038
LJ           1.92455        0.797848         1.43564
LJ           2.12004       -0.941595        -1.55423
LJ           1.66713        -2.06863        0.771232
LJ         -0.577901         1.45934        -2.20049
LJ         -0.508214        -1.07794        -1.29921
LJ           1.06269         1.88821        -1.04165
LJ         -0.335766        -1.36139         1.60847
LJ          0.566842        0.828086       -0.118739
LJ         -0.476578        0.080092        0.140548
LJ          -0.25695         2.21982        -1.48495
LJ          -1.70149         2.10078        0.434813
LJ          -1.29289       -0.173791         1.71705
LJ           1.35955        -1.86152       -0.859106
LJ           1.55163       -0.439236       0.0216115
LJ           1.56283       -0.144824         1.53262
LJ          0.676385       -0.975572          2.0827
LJ         -0.827913        -1.41812        0.803956
LJ         -0.935018        0.588641         2.26911
LJ          0.633195       -0.517762        -0.69814
LJ         -0.761216        -1.99716       -0.691752
LJ           0.71572          1.7488         1.42391
LJ           -2.0078       -0.885054         1.47907
LJ           -1.6509        -1.82727       -0.219148
LJ          -1.09797       -0.917609       -0.366906
LJ           1.23415        0.535548        0.546869
LJ           -1.4283       -0.015225      -0.0693477
LJ          0.280786        -1.07412        0.927278
LJ          -1.61212         1.74142       -0.705167
LJ         -0.122702        -1.44107        -2.16903
LJ          0.926779        0.750141         1.53668
LJ          -2.24391       -0.766534       -0.400687
LJ          0.022835        0.815988         2.13023
LJ         -0.411672         1.05891        0.213378
LJ        0.00249135       -0.312313        -1.67836
LJ            1.6773         1.85853         1.47983
LJ          0.718902        -1.85685        0.605178
LJ            1.2695        -1.09138        0.999138
LJ           2.29968       -0.211464        0.838881
LJ          -1.60638       -0.862642        0.560716
LJ           1.72591      -0.0896956        -2.04948
LJ          -2.01794     -0.00129894        -1.08493
LJ          -2.01331        -1.43216        -2.26849
LJ          -2.02787       -0.473712        -2.14281
LJ          -1.10743        0.461669       -0.826612
LJ           1.41648         1.98343        -1.95643
LJ         -0.838918         1.94908      -0.0363486
LJ         -0.883948        -2.25905         2.32566
LJ           2.32529        -2.35982          -2.184
LJ          0.576509        -2.03241        -1.84223
LJ           1.74023       -0.182382        -1.01728
LJ          -1.46761        0.351007        0.851343
LJ          -0.64513         1.48973         -0.9283
LJ          0.856911       0.0420855         2.29741
LJ          -2.25289       0.0480826         1.82007
LJ          0.908231       0.0588557        -1.48697
LJ           1.94316        -1.02496         2.02094
LJ          -1.57905       -0.837423        -1.28155
LJ          -1.52739         2.20539        -1.74266
LJ           2.08221         2.01041        -1.19647
LJ           1.70176         1.05601         2.32595
LJ          0.516891         1.02218        -1.12486
LJ          -1.30499        -1.67777          1.6256
LJ          0.130355          1.7768       -0.422628
LJ           2.17106        -1.07537        0.507039
LJ         0.0897758          2.0615         2.24091
