108
#Comment!
LJ          0.546289         1.45862         1.67643
LJ          -0.93731        0.446149         1.84037
LJ           1.17064       -0.571992        -2.32453
LJ            1.2109        -1.28224       -0.440773
LJ          0.822171        0.994876        0.399905
LJ           1.25858         2.20925        0.859946
LJ            1.8195        0.531368         -1.9403
LJ            2.0465        -1.80383         1.31645
LJ          0.217527       -0.697621        -2.30108
LJ          -1.42188        -1.18056        -1.02795
LJ           -1.3197        -1.81198        0.746304
LJ            1.9805        0.757987         1.84402
LJ          -2.26831        -1.14406         -1.4894
LJ          -1.91107         1.15784        -1.81904
LJ           2.34093         1.98582        0.736408
LJ          -0.60915        0.510758      -0.0905292
LJ         -0.130846         1.47509       -0.203692
LJ          -1.74659          -1.867       -0.435848
LJ          -0.66514        -2.17162         1.34401
LJ         -0.424725        -0.74468       -0.679638
LJ           0.83022          1.8916       -0.163652
LJ         -0.964503       -0.152601        -1.42924
LJ             1.339        0.348461        0.931664
LJ           1.56518           1.237       -0.280721
LJ           1.99929       -0.406069         1.45327
LJ           2.28102       -0.346037        -2.18337
LJ          -0.55196         2.35256        0.361416
LJ          -1.75836       -0.908742        0.303275
LJ          -2.34131        -1.42284         2.14691
LJ           2.23561        0.599865        0.292747
LJ         -0.587259         1.52743         1.64435
LJ         -0.812914         1.38548        0.606926
LJ         -0.959276         1.77875       -0.614724
LJ           1.73206        -2.20035       -0.123248
LJ         -0.768728       -0.363436        0.375008
LJ        -0.0732853         2.31231        -2.22394
LJ          0.330243        0.616745        -0.41775
LJ           1.66942       -0.515379       -0.844069
LJ          -1.53285         2.13556        0.176649
LJ         -0.319832        -1.49149         1.94527
LJ          0.401886        -1.26711         1.32809
LJ         -0.308796        -1.26053        0.639703
LJ          0.405354        -2.25323         1.50971
LJ          0.912275       -0.460575         1.35734
LJ          0.118232         1.70077        0.733653
LJ        -0.0361817         1.29334          -2.285
LJ          -1.32093        -1.42158         1.81016
LJ          -2.19888       -0.183549        -1.23938
LJ           1.56618         1.30072        -1.35826
LJ          0.550516       -0.810342        -1.36968
LJ           1.32116        -1.59861         0.63198
LJ            1.3769        -1.20961         1.69426
LJ         -0.837386        0.718648        -1.97375
LJ          -1.47351       -0.919122        -2.14125
LJ         -0.600134        -1.04929        -1.57754
LJ           1.73843         1.23127        0.892407
LJ          -1.44548        0.683841       -0.897031
LJ          0.374115       0.0283769        0.608268
LJ           0.16554        0.319064        -2.32605
LJ           1.10643        0.152213         -1.3258
LJ           1.35322        -2.31234         1.92452
LJ         -0.497994        0.935094        -1.02748
LJ           0.57442         1.09843        -1.54342
LJ           2.14177        -2.20497        -1.09728
LJ           1.31171           1.286        -2.32999
LJ          -1.93633        0.190451         1.73167
LJ         0.0574343      0.00395385        -1.20308
LJ          0.184485        -1.43171       -0.255087
LJ          0.254196         1.94151        -1.11324
LJ          -2.23026        -1.77954        0.497979
LJ          -1.26273         -0.4801         1.46874
LJ          -2.36507       -0.255939        -0.16435
LJ         -0.756438       -0.386022          2.3744
LJ           1.06602        -2.06917        -1.14346
LJ          0.435095        -2.14196        0.460996
LJ           2.14993         1.86695        -1.94171
LJ           1.03733        0.351477          1.9317
LJ           1.47104        -1.07438        -1.54049
LJ          0.801611        -1.64188        -2.27831
LJ           1.62217       -0.626133        0.344587
LJ        -0.0761207       -0.354519         1.34533
LJ          -1.14688        0.482019        0.802277
LJ           2.17899            1.92         1.76802
LJ           1.33649        0.281057       -0.136261
LJ          0.664022       -0.367354       -0.488075
LJ          -2.32918         1.89072       -0.306792
LJ         -0.644157        -2.08202       -0.959156
LJ            2.2462        -1.24832       -0.545102
LJ          -1.20595        -1.83461        -1.85536
LJ          -1.33498       -0.203588       -0.445958
LJ           1.78058        -1.90658        -2.03726
LJ          -2.02315         1.06825         1.23412
LJ          -2.10348       -0.141383        0.810333
LJ         -0.880418        -1.49595       -0.196081
LJ         -0.962872         2.26622         2.20067
LJ           2.21432        0.674638       -0.763273
LJ          -1.89173         2.29419         -2.3423
LJ          0.622003       -0.955861        0.443331
LJ          -1.69784        0.172386        -2.02245
LJ         -0.804566         1.93501        -1.64233
LJ          -1.46245         1.43608         2.10439
LJ          -1.84185         1.85943        -1.17419
LJ          0.916955         2.13773        -1.95623
LJ          -2.05618        -1.06112         1.24912
LJ          0.193807        -1.73375        -1.45278
LJ          -1.58563         2.20244         1.41566
LJ           -1.6137         1.14874      -0.0347727
LJ         -0.131998        0.775416         1.05132
