108
#Comment!
LJ           1.82202       -0.964848       -0.861199
LJ          0.235236         2.04125       -0.160594
LJ          -2.01154         1.33235        -1.40214
LJ         -0.233628        -1.48571         1.12296
LJ          -2.34112        0.794727        -2.18863
LJ          -1.49972        0.469436        -1.33405
LJ           2.28604         2.04264         1.27962
LJ         -0.422432      -0.0265494         1.10398
LJ           1.66355       -0.803997        0.866005
LJ          0.803869         1.91664        -2.25722
LJ          -1.08509        0.727527       -0.486323
LJ           0.29221         1.24113        0.754541
LJ           2.01232          1.9936        0.169015
LJ          0.190943        -1.53061      -0.0801563
LJ         -0.521896         1.48637          1.8052
LJ           1.62698       -0.303546       -0.118302
LJ         -0.729639         1.65458      -0.0256199
LJ           2.07255        0.280083        -1.38412
LJ          0.178085        0.523172       -0.273171
LJ          -1.37121       -0.297147        0.831805
LJ          -1.39996       -0.597217       -0.103828
LJ          -1.67485        0.767063        0.599368
LJ            2.2359         1.23031        0.744704
LJ         -0.221099        0.518556         2.07672
LJ          -1.75601        -2.02177        -2.32276
LJ           1.65275         1.63964        -1.80759
LJ          -1.87304         1.29169       -0.300872
LJ         -0.559553      -0.0896075       0.0364465
LJ           2.24235        -1.94425       -0.454026
LJ           -2.1879         2.36961        -1.49166
LJ           1.05844        -1.05379        0.192324
LJ         -0.899066       -0.314652       -0.884553
LJ         0.0180274         1.24106       -0.897386
LJ          -2.29208        -1.02159      -0.0423617
LJ           1.72219          1.4675         2.00115
LJ            1.5077        0.458852        -2.34962
LJ          -2.34072       0.0584456        0.807688
LJ          0.312747         -2.1384        -1.12842
LJ          -1.23971       -0.350194         -1.8205
LJ          -0.21359        -2.03161        -1.86412
LJ          0.143838       -0.672207        0.643387
LJ         -0.825113         -1.2981        -1.62039
LJ         -0.549167        -2.17234        0.033464
LJ          -1.79908      -0.0536406         1.84187
LJ          -1.13667        -1.90182        0.776212
LJ           2.14324        0.662225          1.6007
LJ          0.693906         0.99805         2.11041
LJ          -1.80107        -1.52375        -1.17607
LJ         -0.524268        0.819287        0.541523
LJ       -0.00627215       -0.649806       -0.607213
LJ         -0.229851       -0.303333        -2.04333
LJ           1.40053         -1.2192         1.94065
LJ           0.50595         0.46274         1.29021
LJ         -0.713045        -2.37306       -0.914928
LJ          0.957846         1.72495       -0.990374
LJ         -0.378341        -1.23994         2.27293
LJ          0.269582        0.130361        -1.32096
LJ          -1.99683       -0.553501         -1.0265
LJ          0.931302       -0.326168         2.28475
LJ            0.7544        0.121051        0.462589
LJ           1.77294        -2.19137          2.3502
LJ           1.12759         0.25307       -0.872154
LJ            2.1418        -1.50241        -1.71125
LJ          0.890599        -1.42209       -0.846942
LJ           1.16437        -2.14445         1.48404
LJ          -2.11569         1.74486         2.30435
LJ          -1.88457         1.25456           1.492
LJ          0.433311         1.78011         1.56346
LJ          -1.12895        0.558702         1.38274
LJ          -1.34679        -2.37741         1.60962
LJ           1.29561        0.870254         0.77604
LJ          -1.98767       -0.895878        -2.18334
LJ           1.11459        -2.32534       -0.270733
LJ          -2.17042       0.0430638       -0.189869
LJ          0.819612          -1.204         1.17652
LJ           1.37983         1.80451        0.919853
LJ          0.182336        -1.16324         -1.6928
LJ           1.70219        -1.72103        0.410479
LJ         -0.322863        -2.28135         1.96756
LJ         -0.828718        -1.27753       -0.661131
LJ          -1.22541         1.93887        -2.04798
LJ           1.79492        0.942124        -0.55291
LJ          0.615994         1.00086        -1.70431
LJ          0.500236        -1.70868         2.09348
LJ           0.94859         1.29611      -0.0464138
LJ          -1.37648        0.757935         2.36948
LJ          -0.33959         2.12782          1.0183
LJ           2.06218          1.8026       -0.802386
LJ          -1.28334        -1.28834         1.82153
LJ          -2.34015        -1.66652         1.70915
LJ          -2.14226        -2.13856        0.565684
LJ           1.43867     -0.00640221          1.4576
LJ            1.8488       -0.540954        -2.18788
LJ           1.09336       -0.639766        -1.54708
LJ           2.23804       -0.713773         1.67292
LJ          -1.82348        -1.18968        0.978309
LJ          -1.07609         1.45488        -1.11257
LJ          -1.44465         1.88769         0.77146
LJ          -1.61295        -1.73118       -0.139784
LJ         -0.653053        -1.10757        0.345918
LJ         -0.564187        0.630965        -1.62098
LJ           1.09466        -1.61462         -1.8446
LJ           1.55004        -2.22403        -1.12571
LJ         -0.862435       -0.280027         1.99448
LJ          0.690607        -2.26272        0.653813
LJ          -1.66452         2.16776       -0.675929
LJ         -0.147003         1.74599        -1.94849
LJ           0.12989       -0.576452          1.6978
