108
#Comment!
LJ           2.25348         1.32294        -1.29624
LJ         -0.886112         0.97663       -0.739664
LJ         0.0736783         1.76615         2.08604
LJ          -1.31233        -1.35973         1.64093
LJ          0.636053       -0.586624         1.67207
LJ          -1.60114          1.8276        -1.58585
LJ          -2.16895        0.866393        0.513458
LJ          0.604699        0.917825         2.10038
LJ        -0.0833656        -1.53929         1.22718
LJ         -0.578455       -0.198738         1.81699
LJ          0.607719       -0.799929        -2.09444
LJ          -1.63557       -0.208928        -1.59921
LJ           1.67987        -1.76792        0.430293
LJ          0.773463       -0.145577        -1.25838
LJ          0.868172         1.59517         1.37312
LJ         -0.962204       -0.708279        0.901621
LJ          -1.25692       -0.734614       -0.216354
LJ         0.0771653       -0.667407        -0.74724
LJ         -0.392607        -0.51707        -1.78211
LJ         -0.858731        -1.22887        -1.07457
LJ         -0.419148         -1.3021        0.211268
LJ           1.85023        0.203202        0.203581
LJ          0.386975         1.93428        0.537174
LJ          -1.24489         1.19783        0.330544
LJ          -1.31315        0.265216         2.33421
LJ          -0.80179        0.558391        0.971604
LJ          -2.38075         1.79274        0.252595
LJ          -1.70854        0.771751        -1.54658
LJ           1.66971       -0.454849       -0.894572
LJ           2.08547       -0.826342        0.237369
LJ         -0.539662         1.53062        -1.73644
LJ          0.520437        0.871493        -1.57573
LJ          0.151582        -1.76938       -0.487936
LJ          -1.20387         1.68632         1.28453
LJ            2.0534        -1.97399         1.91066
LJ         -0.438142        0.849769         2.17296
LJ           2.15701       -0.465775        -1.82906
LJ          -2.22246        -2.29526          1.1129
LJ          -1.81014         1.21425       -0.540567
LJ          -1.18765         2.00832       -0.508512
LJ           1.57417        0.750913         1.78761
LJ         -0.429867         2.30326         1.11953
LJ           -1.2134        -1.77414       -0.335385
LJ           2.06296       0.0171429          1.1547
LJ           1.13225       -0.124179        0.834661
LJ          -0.25653        -1.08242         2.10357
LJ           1.05864        -2.07374         -0.3516
LJ          -1.90163        -1.30941        -1.37761
LJ           1.79066        0.349883        -1.43356
LJ          0.994399        -1.25242       -0.852279
LJ         0.0629098        0.436335       -0.716321
LJ        -0.0313435         1.44745       -0.910036
LJ           1.08028        -1.89306         1.26704
LJ          -1.92403          1.6145         1.97334
LJ          0.451891        0.403079        0.217336
LJ         -0.506243        0.523357        -1.59561
LJ         -0.871404       -0.184843       -0.945647
LJ          -0.21822        -1.53516        -1.76179
LJ           1.35234         1.21009        -2.07465
LJ           1.18936        0.974436        0.565839
LJ         -0.508704        -2.06784         2.05668
LJ            1.1292        0.427119       -0.559228
LJ          0.806307         -1.8974        -1.70851
LJ          0.512637        -1.82134         2.09118
LJ           1.24419         1.29699        -1.10372
LJ          -2.09766        -1.71136        0.109206
LJ         -0.297833         1.02087       0.0514916
LJ          -1.58156       -0.397666         1.66513
LJ           1.77074         1.09682       -0.263884
LJ           1.35565         1.89728         0.29467
LJ          0.220532        0.290526          1.2766
LJ           2.32635       -0.159137         2.04309
LJ           1.10661       -0.557298       -0.023605
LJ           1.19422         2.24914         2.12072
LJ           1.58216        -1.27972        -1.71825
LJ          0.608814          1.9164        -1.62781
LJ          -1.44789         2.21925        0.463356
LJ           2.31647        0.780553         -2.2619
LJ          -1.20022        -1.66241         0.70271
LJ          0.177026       0.0734601        -2.36138
LJ          -2.19232        -1.16903         1.02545
LJ          -1.44823        0.315517       -0.161874
LJ           1.38827       0.0356888        -2.29028
LJ           1.34632        -1.29746         2.08601
LJ           2.11564         1.81533        -2.19373
LJ           2.35728        -2.03755        -1.80267
LJ          0.130851       -0.722392        0.759427
LJ          0.638152         1.36815       -0.215223
LJ         -0.156706          1.2997         1.11532
LJ          -1.25452        -1.02703        -2.20221
LJ         -0.302217        -2.37319        -1.07148
LJ          -2.21194        -1.14989         2.22204
LJ            1.5627         2.29081        -1.39633
LJ           1.57443        -1.01048         1.08371
LJ          0.496669        -1.58857        0.455833
LJ           1.96687         2.28379       -0.466704
LJ           1.99916         1.44635          1.2589
LJ          -1.68598         0.73162         1.57872
LJ           1.95114        -1.51692       -0.766244
LJ          -1.89143        -2.21808       -0.939381
LJ         -0.533457      -0.0653448      -0.0254484
LJ          -2.31028        0.272185       -0.654515
LJ          -1.09813        -2.07635        -1.70194
LJ          -2.15413        -0.70472       -0.577039
LJ          -1.57733        -2.12399         2.20732
LJ          -1.00029         1.84648         2.22607
LJ          -1.86867      -0.0629531        0.657655
LJ         -0.383742          2.2787       0.0785767
