108
#Comment!
LJ           1.37289        -1.25779        -1.27693
LJ          -1.96413        0.694098         2.30284
LJ          0.335428       -0.608335          2.0819
LJ           -0.9109       -0.225117         1.75734
LJ           1.89823       0.0451274        0.953532
LJ          0.639567         -1.0655       -0.604394
LJ          -2.31444        -1.81202      -0.0280475
LJ          -2.30607        -1.92838         1.83295
LJ         -0.229227         1.33428         1.49704
LJ           1.68546         1.87671        -1.79912
LJ          -1.13875         1.62747         2.10831
LJ          -2.00819        0.967841       -0.884496
LJ          -2.15209       -0.605348        0.655206
LJ          0.171068         2.31956        0.788429
LJ          -1.19914         -1.7789         2.22703
LJ          0.299747        0.705206       -0.424847
LJ          0.469144        0.464958        -2.25661
LJ          -2.37744       -0.816461        -2.21896
LJ          0.157156        -1.57462         1.32187
LJ         0.0431687         1.61973       -0.769459
LJ         -0.605393        0.408211        0.487787
LJ           2.11262       -0.871523          1.5804
LJ          -1.40229         0.99486      -0.0283046
LJ           1.16638          1.1757       -0.173145
LJ           1.08254        -1.43856         1.37984
LJ          -2.18742          1.8375         1.80022
LJ           2.02409       -0.506463        -1.25036
LJ           1.70071        0.917068        -2.23508
LJ        -0.0702442       -0.686422        0.748444
LJ           1.96644        -1.51857        0.825316
LJ         -0.909181       -0.499947       -0.121771
LJ          -1.88343         2.29262        -2.16668
LJ         0.0269047        0.276921         1.47407
LJ          -1.56811       -0.151765        -2.12299
LJ          0.512466         -2.3709       -0.212832
LJ          0.749524        -1.57688        0.246433
LJ         0.0821436       0.0840201        -1.24228
LJ         -0.239354        -1.57496        0.104645
LJ          0.120873       -0.262249       -0.335766
LJ          0.458454       -0.839547        -1.66448
LJ          -1.45609         2.33759         1.37133
LJ           2.12642       -0.611131       -0.221947
LJ           0.99929         1.76204         -1.0731
LJ          0.897896         0.88509         1.63917
LJ           1.28378       -0.886673        -2.29552
LJ           1.63915         1.62055         1.44974
LJ         -0.405003         2.31403         1.99574
LJ         -0.409838      -0.0688788         -2.0685
LJ          0.104215          -1.973         -1.0782
LJ         -0.693625        -2.09294        0.897678
LJ           1.59354        0.969624        0.724217
LJ         -0.974114       -0.499537        -1.25658
LJ         -0.844359        -2.22702        -1.55149
LJ          -1.91295          1.4196        0.867601
LJ          -1.85946        -1.52669        0.985681
LJ            1.3655       -0.767608         0.57996
LJ          -1.76531        -1.04185       -0.576207
LJ           1.30904        0.226733       0.0834562
LJ           1.17836        -2.31997        0.968314
LJ         -0.593705         2.21579      -0.0334789
LJ           1.04848      -0.0651173         1.38456
LJ          0.979012      -0.0311658       -0.844754
LJ          -2.13379         2.20516        -1.21905
LJ          0.716024          1.4936        0.751761
LJ          -1.15745        -1.36797        0.314231
LJ           2.31306        -1.60362        -1.09424
LJ          -1.49229        -2.02976       -0.669992
LJ          -2.00152        0.340149        0.478079
LJ          -0.72129        0.475848       -0.578613
LJ           1.52398         -1.4888       -0.300019
LJ          -1.30552        0.812636         1.47939
LJ           1.41548       -0.021168        -1.83388
LJ          0.441951         0.45269        0.591512
LJ           2.05899       0.0459043         2.02369
LJ         -0.624857        0.805525         2.30562
LJ           -0.9511         1.68292        0.802931
LJ          0.929111        0.781511        -1.44705
LJ          0.781806         1.53484        -2.25783
LJ           1.63629         1.93393        0.253918
LJ          -1.59149        -1.29267        -1.61233
LJ           -1.6476       -0.978253         1.96168
LJ          -1.21199       -0.501559        0.846976
LJ          -1.85706      -0.0249108         1.40207
LJ           2.31205         1.19271       0.0466295
LJ         -0.507566         -1.0359        -2.35766
LJ         -0.809427        -1.17862         1.42443
LJ          -1.30721         1.74677       -0.627392
LJ          0.527797         2.13682         1.73855
LJ          -1.60655         2.36509        0.409674
LJ          0.263625        -1.81173         2.37656
LJ           1.71108        -2.36284       -0.894781
LJ          0.927556        -2.08027        -1.72607
LJ           2.05943        0.361099       -0.676427
LJ          -1.87347        -0.07789       -0.922001
LJ           -1.1205        0.581415        -1.48659
LJ           2.26118        0.878948         1.42959
LJ          -2.20705         1.36505        -1.80768
LJ         -0.137224        0.980466        -1.61297
LJ         -0.735414        -1.44696       -0.926098
LJ          -2.35453        0.392111        -1.62047
LJ           2.11617        -1.86073        -2.04606
LJ          -2.22872         2.02429        -0.28236
LJ           1.86871         1.37746       -0.847559
LJ         0.0663367         2.01688         -1.7594
LJ         -0.931172         1.58668        -1.65612
LJ         -0.174968         1.33202        0.244495
LJ           2.23705          2.3441        0.991115
LJ           1.41879        -2.09843         1.99745
