108
#Comment!
LJ        -0.0423411         1.92368       -0.314483
LJ          -1.61517        0.492316          2.2337
LJ         -0.175803       -0.523001        0.298042
LJ          0.477357        0.100235      -0.0280469
LJ          0.390281         1.11317       -0.181051
LJ           1.55822        -1.31694        -2.04802
LJ          0.166289        -2.29436        -1.14564
LJ          0.361766         2.31893        0.418111
LJ           1.09513       -0.732439        -0.81435
LJ          -1.17736        -1.32198       -0.578985
LJ          0.980298         1.95203       -0.341949
LJ           1.00018        0.431475        0.766031
LJ           1.58149       -0.378161          2.3301
LJ          0.728111       -0.478884         -1.7604
LJ           1.94291         1.98406        -0.17302
LJ          -1.40778          1.0191        0.351557
LJ           1.27445        0.449965        -1.89672
LJ          0.104109        -0.63313       -0.774083
LJ         -0.602911         1.72755        0.452658
LJ          -0.96755         1.96134        -1.40538
LJ          -0.91765        -1.23759        -1.62585
LJ          -1.70935          2.0538        0.220932
LJ           1.33382         2.23314        0.625743
LJ           1.92481          1.0545        -1.10024
LJ        -0.0630019        0.796035        0.761651
LJ          -1.21656        -1.33953         2.04633
LJ           1.84337       -0.582217        -1.49392
LJ          -2.37428       -0.955894         1.72858
LJ         -0.752732        0.350759         1.68099
LJ           1.02467        -1.78355       -0.421713
LJ         -0.108897         1.94372         1.33771
LJ           1.88491        -1.12109        -0.24141
LJ           1.68087         1.71757         1.47723
LJ           1.55645        -2.28335          2.3348
LJ          0.486415        0.126843         2.07076
LJ         -0.944736       -0.391759       -0.342899
LJ          -0.26417       -0.516949        -1.66877
LJ          0.291211        -1.32603         -1.4173
LJ           2.24953        -1.94353        -1.76384
LJ          -2.01312         1.50207       -0.849785
LJ          -1.52325       -0.454513        -1.28306
LJ          -1.21332         1.41186        -2.29201
LJ           1.35478        0.769883         1.71175
LJ          -2.29775         -1.9083         2.01825
LJ          -2.28053       -0.080572        -2.09976
LJ          -1.72602         0.53253         1.27811
LJ          -1.43277       -0.383085         1.55222
LJ           1.42525       -0.372321        0.231907
LJ           1.64929         1.98725        -1.31167
LJ           1.00597          1.2391        -1.09562
LJ          0.648942        -1.03341        0.158692
LJ          -2.04159        -1.04472        -2.08752
LJ            1.9771        -1.95773       -0.814285
LJ        -0.0120561         1.42531        -1.23574
LJ          -2.01624         1.85038        -1.83567
LJ          -2.07577        -1.65968      -0.0562154
LJ           1.02693        -1.94898        -1.52465
LJ           2.33443         1.21534        0.708307
LJ          -2.00517       -0.483806       -0.420753
LJ           1.26074        0.267948       -0.887121
LJ         -0.216287       -0.627235         1.97092
LJ           2.17607        0.268937         1.73949
LJ           2.01506        0.300452        0.768335
LJ         -0.916707         2.16912         1.86043
LJ           1.46017        -1.44056         1.78515
LJ          0.574168        -1.34149           1.113
LJ         -0.564608        0.603515      -0.0620002
LJ          0.757443         1.46107        0.918437
LJ          -2.18896         1.25008         1.79304
LJ           -1.5687        0.841228         -1.4285
LJ          -2.25236        0.826271       -0.188833
LJ         -0.861808        -2.27894       -0.237687
LJ          -1.04534         -2.1953        0.820328
LJ         -0.532497        0.664764        -2.17047
LJ          -1.70327        -2.30428       -0.942794
LJ         -0.994397         1.37763       -0.566837
LJ           1.25578         1.40153        -2.09678
LJ           -2.2079        -1.18441        -1.09635
LJ           1.41303        -1.51463        0.662831
LJ          0.196516         1.11171         1.71917
LJ           2.37529        0.880382        -2.03331
LJ           2.25203         0.15488       -0.995039
LJ          0.482707         1.94952        -2.14371
LJ          -2.28358       -0.705578        0.598677
LJ           2.23702        -2.09535         1.03957
LJ          -1.75696         2.03104         1.25393
LJ          -1.47055        -2.04485        -2.06643
LJ          0.217845       -0.140517         1.15415
LJ          0.371425        0.399347        -1.28454
LJ         -0.165036        -1.50988       -0.493735
LJ         -0.721196         0.27998        -1.26321
LJ          -1.35575        -1.00911        0.293848
LJ            -1.149        -0.42001        -2.28333
LJ         -0.184232        -1.85281         1.73603
LJ         -0.679406       -0.905077         1.12474
LJ           1.53955         1.02614       0.0178803
LJ         -0.316379        -1.59371        0.511869
LJ          -1.84585        0.107103        0.362118
LJ          -1.00393         1.24599          1.2071
LJ         -0.318106        -1.89658        -2.04772
LJ          0.687646        -1.74516         2.31561
LJ          -1.39981        0.473488       -0.558157
LJ          0.801971         2.23871         1.64386
LJ         -0.900383       0.0226867        0.702853
LJ          0.371795        0.904899        -2.13959
LJ           1.57722          -0.512         1.19616
LJ          -1.74534        -1.50423         1.10294
LJ          0.735439       -0.824506          1.9926
