108
#Comment!
LJ          -1.04585        0.731933        0.934034
LJ          -2.21307        -2.16133        -1.61675
LJ           1.36466        -1.02221         1.19264
LJ           2.24735       -0.993371         1.83277
LJ           1.74229         0.31312        0.525845
LJ           1.05886        -2.06999        0.948215
LJ         0.0988783        -2.10099         1.06313
LJ           1.63848         1.38796      -0.0369937
LJ          -1.85949         2.26414        0.941142
LJ         -0.841712        -2.09647        -1.96353
LJ         -0.606751         1.56024         1.84839
LJ         0.0581733         0.69393         1.84576
LJ           1.76412        -1.64367        -2.06375
LJ          -2.19358         0.42074         1.08524
LJ          -1.49003        -1.45332        -2.34049
LJ           2.23903          1.8918         1.66107
LJ           0.61047        0.103661        -1.10062
LJ         -0.251806       -0.199236         1.08046
LJ          -1.05992       -0.610505       -0.676156
LJ          -1.73682          1.2465         1.50868
LJ        -0.0603498        0.573489        0.286041
LJ          0.261548         2.02704         2.14993
LJ           1.74729         1.21197        0.969548
LJ           1.94772      -0.0186462         -2.2598
LJ         -0.796879         -1.9572        0.350434
LJ          0.788879         1.59497        0.430235
LJ          0.161825         1.62334         1.20644
LJ           1.21813        -2.26778      -0.0527973
LJ          -1.39244        -1.68657       -0.400376
LJ          -1.32956         2.20731         2.01839
LJ         -0.373426        -1.20435         1.02541
LJ           1.58702        -1.43429        0.239026
LJ          -1.92731         1.36217        0.574117
LJ           1.98145         1.70063        -1.14572
LJ          -1.65493       -0.254133         2.30551
LJ          -1.14763          1.5206        -2.12625
LJ           0.91801         0.49872       -0.243941
LJ           1.28914        -0.79478         2.22798
LJ          -1.08605        0.460938         1.89036
LJ           0.20719       -0.636692        -2.31571
LJ          0.664846           1.786       -0.726232
LJ          0.286623        -1.72675        -2.12081
LJ          -1.92577        0.683082        -2.12953
LJ         0.0293617         1.01975       -0.813793
LJ          0.919137         1.37266        -1.86283
LJ           -2.0912         1.77848         -2.1835
LJ          -2.32404         2.26323       -0.353429
LJ          0.891459          2.3559        -1.49317
LJ           1.61571         2.09761        -2.19514
LJ          -2.33728       -0.594743         0.86156
LJ          -1.56101       -0.502832        -1.47748
LJ          -1.94121         0.22621        0.136494
LJ         -0.246894         1.59848        0.145414
LJ          0.784764      -0.0302982         1.76257
LJ         -0.145251        -1.32831       -0.122535
LJ          0.273345        -2.27035        0.139958
LJ          -1.25803        -1.43271        -1.35869
LJ          -2.22841         -2.0168         2.02458
LJ          -0.49447        -2.36211       -0.522669
LJ           2.05832       -0.330173       -0.352331
LJ         -0.897915      0.00487838        0.149037
LJ         -0.269331          -1.603        -1.22137
LJ           2.06843         -1.8811         1.17134
LJ           -1.0037         1.75339        0.843418
LJ           1.15162        -1.73698         1.90679
LJ         -0.201034        0.119949         -1.7408
LJ          -1.65457        -1.24857         1.39062
LJ          0.817873        -0.37495        0.673632
LJ          -1.26479        0.952332       -0.185402
LJ          -2.27852        0.983295       -0.347667
LJ          -1.80455        0.222753       -0.835348
LJ          0.998559         1.12921         1.89283
LJ          -1.36542         1.97057      -0.0950482
LJ          -1.91525        -1.49158        0.524761
LJ          -2.25323        -1.07342         -1.8979
LJ           1.13018         2.08077         1.73108
LJ        -0.0570383       -0.654209        -1.14555
LJ           1.82327        0.937519        -1.80607
LJ         -0.657768        -0.85074        -1.94408
LJ         -0.396185        -1.64094         1.93018
LJ          0.878636        0.733728        0.860951
LJ          -1.33638         2.03742        -1.13698
LJ         -0.843741         1.23733        -1.25548
LJ          -1.04981       -0.954373        0.334325
LJ           1.82318       -0.105918          1.5379
LJ           1.72264        -2.07751       -0.948033
LJ           1.28788       -0.386864        -1.54663
LJ       -0.00296916         1.10485        -2.06727
LJ        -0.0717243         2.02493         -1.5969
LJ          -1.93094       -0.882726       -0.247699
LJ           0.62451        -1.31957        0.499612
LJ          0.818646        -1.21633        -1.45309
LJ          0.477762        -1.13202         1.63391
LJ           2.03113        0.875789         1.84765
LJ          -1.02726        -1.99176         1.28338
LJ          -1.35716       -0.279527         1.06683
LJ           1.11158        -0.73575       -0.532866
LJ           1.98485         2.17862        0.481254
LJ            1.6003        0.722235       -0.881134
LJ         -0.769978       -0.510496         1.86467
LJ          0.533775        -1.94852       -0.725604
LJ         -0.652624        0.241383        -0.76671
LJ          -1.89487         1.15847        -1.27386
LJ          0.972558        0.431468        -2.08301
LJ           1.84048        -1.07516        -1.00713
LJ          -1.13339        0.409201        -1.67244
LJ           2.25356       -0.172655        -1.31649
LJ          0.175069       -0.267836       -0.323598
