108
#Comment!
LJ          0.373069        -1.02559        -2.34022
LJ           2.32902        0.182429        -2.24254
LJ          0.616137       -0.726381        0.750329
LJ         0.0521327         0.65971       -0.078377
LJ        -0.0802502       -0.414353      -0.0590202
LJ         -0.611693        0.344585        -1.95511
LJ           1.63452         1.78773          0.3676
LJ          0.784071         1.90097        -1.86425
LJ           1.38835        -1.86077        0.397488
LJ          0.604185        -1.66614         1.31443
LJ          -2.18533       -0.753928       -0.378938
LJ          -2.23923       -0.104454        0.480013
LJ         -0.850811        0.980802        -1.19149
LJ            1.2579       -0.789073         -1.3327
LJ          -2.19381        -2.14848        -0.20253
LJ           2.19081       -0.415974        -1.25405
LJ          -1.47015       -0.736419        0.285963
LJ          0.857664        0.291356         1.87847
LJ          -2.12451         1.61564       0.0299295
LJ           1.77754        -1.21326        -2.33662
LJ          0.435762        0.595749         -1.8318
LJ        -0.0112138        -0.90168         1.49526
LJ           1.04315        0.183215        0.255445
LJ         -0.170776         -2.0498        -1.80848
LJ          -1.60827       0.0980182         1.23787
LJ          0.905981         -1.5023       -0.560436
LJ         -0.671028         1.72053         1.55438
LJ           -1.7976        0.307747       -0.408807
LJ           1.57844         2.35743          1.2191
LJ         -0.274247        -1.96927         1.69801
LJ            1.9325        -1.42768       -0.794018
LJ           2.06935         1.48119         1.18708
LJ          0.480267        -2.35499        0.294859
LJ           1.29548         1.23358         1.72722
LJ          -1.82258         1.70683       -0.880302
LJ           1.53071      -0.0466901         1.04589
LJ         -0.545927        0.767464         1.90427
LJ          -1.82652         1.91499        -2.17721
LJ           1.47377       -0.889426        0.260193
LJ         -0.275192        -2.21763       -0.425282
LJ          -2.27608         1.05212         2.08807
LJ          -1.31982        -1.98308        0.860925
LJ           0.88407         1.33662        -1.03208
LJ         -0.961916        -1.83557       -0.934606
LJ          -2.03812        -2.09152        -1.17634
LJ          -1.20962        -1.62796      -0.0586854
LJ          -2.13503        -1.72096        -2.15768
LJ          -0.94574         1.97848        -1.41002
LJ           1.54929        -2.06046        -1.62528
LJ         0.0575628         1.97769         2.15032
LJ           2.15791       -0.506974         1.68698
LJ          -0.74046        -1.14673        0.824927
LJ          -1.93309       -0.700782        -2.29123
LJ        -0.0435248         1.43955        -1.69075
LJ          -1.47662         1.18049         1.38393
LJ         0.0585919         1.59913       -0.515912
LJ          0.933864        -1.97983         2.28455
LJ           1.91329       -0.036316       -0.355794
LJ         -0.639823        0.872787        0.868778
LJ           1.47454         2.34862       -0.550293
LJ          -1.45677        0.471007         2.22651
LJ          0.189276        -1.40567        0.306048
LJ          0.547533        -2.37248       -0.976522
LJ          0.600383         2.09269         1.30361
LJ            1.3775      -0.0931842        -2.02271
LJ          0.969536         0.94312        0.843802
LJ           1.53815         1.09701        -2.01236
LJ           1.85145         2.07231         2.16262
LJ         -0.817659         1.23309       -0.234268
LJ          0.632361         -1.5227        -1.54502
LJ          0.354331       -0.406605        -1.53706
LJ          -1.64314         2.16898          1.6161
LJ         -0.330111        0.154646       -0.954602
LJ          0.683602       -0.193193       -0.611052
LJ          -1.02518        -1.52649        -1.91397
LJ          -2.26905        -1.66592         1.46957
LJ          -1.73315        -1.12542        -1.29407
LJ         0.0302718         1.49499        0.455183
LJ          -2.29201        -1.40287        0.421792
LJ          -1.73522        0.741089        0.500114
LJ         -0.601353      -0.0881838          1.2534
LJ          0.287464        0.237709        0.930609
LJ           1.80725         1.41618       -0.735561
LJ          0.225116         1.09994          1.4011
LJ          -1.71018       -0.846997         1.46644
LJ         -0.454966         2.36952        0.736056
LJ           1.16229       -0.599177         1.89989
LJ          -1.58022       -0.106983        -1.51047
LJ           1.96722        0.868998         0.12265
LJ         -0.890406         2.29457         2.36532
LJ           2.28255        0.553678         1.25787
LJ          0.942476           1.168       -0.112207
LJ           2.24576        0.617603        -1.09613
LJ         -0.315719        -1.16655       -0.631015
LJ         -0.975394         1.28653        -2.16597
LJ          -1.19605          2.1699       -0.301195
LJ          -1.83545         1.00741        -1.67947
LJ          -1.25113        -1.63568         1.95044
LJ         -0.686585       -0.611433        -1.70643
LJ        -0.0224881      -0.0772796         2.18194
LJ            -2.251         2.32107        0.704214
LJ         -0.948153        -0.52755         2.10674
LJ           1.29981         0.47394        -1.18551
LJ          -1.21934         1.79781        0.645276
LJ          -1.02301       -0.450765       -0.657794
LJ           2.14265          1.8848        -1.60007
LJ          -1.02128       0.0969174        0.174753
LJ           1.60016        -1.30574         1.29506
