108
#Comment!
LJ         -0.123616        -1.70411         1.56046
LJ          -1.28455        0.749896         1.28608
LJ         -0.539621         2.15844        -1.33444
LJ          0.790272        -1.54353      -0.0120952
LJ         -0.920326         1.08318       -0.610319
LJ           -1.9623       -0.240728        -1.57111
LJ          0.808459         -2.3757         0.63786
LJ          -1.21458        -2.24395        0.391556
LJ           1.80301         1.99484       -0.414414
LJ           1.76062        -2.08927         0.32582
LJ          0.508925         0.69508         1.13643
LJ         -0.235934        -1.42574        -1.24247
LJ           1.48342       -0.787264         1.90919
LJ          -0.39076       -0.351104         1.20149
LJ           1.06236        0.387346        0.102169
LJ         -0.315268        0.196021       -0.524514
LJ           1.62984     0.000148978       -0.746446
LJ          0.564108        0.302365       -0.982632
LJ           1.32174       -0.722824        0.052883
LJ          -1.55946         1.80608       -0.187386
LJ          -1.69408         1.22815         2.04896
LJ          -1.93522        -1.80611         1.06693
LJ         0.0864559         1.62617         1.06977
LJ           2.08596        -0.63424        -2.07596
LJ          -2.32231         0.86782         1.08052
LJ          -1.11078        -1.24892         1.88908
LJ           1.78132        -1.49802         1.14989
LJ          0.584032        -1.87712        -1.05049
LJ          -2.08188       -0.857431         1.38712
LJ         -0.767053         1.63801         1.60506
LJ           1.19567         1.42919         1.25183
LJ          -1.43261         1.71598        -1.17328
LJ         -0.170941         1.29725          2.3611
LJ           1.99678         1.38841        0.315506
LJ         -0.079015       -0.407047        -1.42316
LJ          -2.25708        0.328316       -0.653208
LJ          -1.14201       -0.170317        -1.03952
LJ          -2.01225        -1.31878         2.30203
LJ          0.812503        -1.42317          1.3728
LJ          -2.25895          2.2113       -0.989997
LJ          -1.20735        -1.13281        -1.46374
LJ          -2.12137         2.33544         2.05838
LJ           1.12133        -1.33512        -1.71494
LJ           2.07604        -1.73829        -1.70215
LJ         -0.217325        -1.00599         2.31908
LJ          -1.82889      -0.0224443        0.939553
LJ           2.18206       0.0322267         1.54983
LJ           1.95113        -0.87346        -1.08585
LJ           1.16718        0.312973        -1.69791
LJ           1.00016         1.39248        0.271399
LJ           1.88925        -1.71361       -0.554592
LJ         -0.653167       -0.404204        0.168459
LJ          -2.05955        -2.03582       -0.134341
LJ          -1.62761       -0.781619        0.386902
LJ          -1.76217        -2.11652        -1.68725
LJ         -0.999213        -1.07343       -0.462039
LJ         0.0160112        -1.07162        0.617597
LJ           2.08615        0.815897        -1.42622
LJ           2.08659       0.0179185          0.2817
LJ          0.943116       -0.738389       -0.896458
LJ          0.470414        -0.17562         1.59916
LJ           2.10612         1.35956         1.96354
LJ          -1.95958         -0.6258       -0.527098
LJ         -0.410794         1.93754       -0.316236
LJ         0.0138442         1.34872       -0.978711
LJ          0.722455         1.94077       -0.504047
LJ         0.0564232          1.0619      -0.0714057
LJ           1.32553         2.37539         1.51176
LJ          -1.72238        0.805704        -1.55816
LJ          -1.14623         2.03496        -2.26045
LJ           2.27774        -1.22264        0.373602
LJ         -0.987349        -2.15948         1.37006
LJ          -1.03962        0.530601         2.35676
LJ         -0.604296        0.669505        -1.43812
LJ           1.73067        -1.70304         2.05896
LJ           1.53376         2.30792        -1.30093
LJ          0.381379       -0.168684        0.590385
LJ         -0.766426        -1.82635        -2.02242
LJ           -1.6271         0.99595        0.382853
LJ          0.233433        0.458035        -1.95702
LJ              1.16          1.2816        -1.36511
LJ          -1.51158        0.132148       -0.071105
LJ           1.08285         1.17664         2.35897
LJ           1.48238        0.467455        0.987977
LJ          0.423476         2.03703        -1.67418
LJ           2.19726         2.20796         1.14886
LJ         -0.789671         1.65625        0.566085
LJ         -0.184546         -2.2158        0.691269
LJ         -0.529659        0.494795        0.639283
LJ          -1.24068         -2.0883       -0.797359
LJ           1.62657         1.02159       -0.464707
LJ            0.1919       -0.628474       -0.265553
LJ         -0.980336       -0.373312        -2.06318
LJ          0.739763       -0.519592        -2.11022
LJ         -0.916609         -1.2913        0.958435
LJ           1.33266        0.166526         2.08815
LJ         -0.298136        0.519155         1.69903
LJ          -2.23288         1.29214       -0.756701
LJ          -2.37075         0.35288         -2.2751
LJ         -0.310673        -1.78861       -0.153977
LJ          -2.02182        -1.44065        -1.02148
LJ          -1.64495         1.81479         1.02539
LJ          0.388164        -1.85939        -2.19112
LJ          -1.35846        -0.27484         1.78896
LJ          0.376962         1.98868          1.9739
LJ           1.59991       -0.546638         1.00076
LJ           1.23534         2.16503        -2.25965
LJ          -2.24634         1.71725        -1.83385
