108
#Comment!
LJ         -0.233104        -2.09955        0.126764
LJ          0.226197        -1.35472       -0.464895
LJ         0.0896292        -2.19779         1.14167
LJ         0.0753787        0.653251        -2.19962
LJ            -0.778       -0.313066         1.12301
LJ            2.1738         1.64514        -1.78075
LJ         -0.876225        -2.27695         1.08694
LJ           -1.6763         1.83394        -1.38115
LJ          -0.35282        0.968209       -0.328006
LJ          -1.19601        -1.87564        -0.31335
LJ           1.78306        0.826326         1.41141
LJ           1.48534        0.461114        -0.31266
LJ          -1.15853        -1.75887         1.99346
LJ         -0.761534        0.640434         1.01376
LJ          -1.28493          1.2222       -0.614978
LJ           -1.9365         2.30016        -2.18467
LJ          0.583635        0.724654      -0.0323968
LJ           2.28288         0.84239         2.28755
LJ           1.41404       -0.352975        -1.88017
LJ          0.821841        -1.84596        0.399847
LJ           1.56379        -1.11316         2.25128
LJ          -2.08522        0.202084         1.37117
LJ          -1.93906        -1.41254        -2.25485
LJ          0.861383         1.65964        -1.42949
LJ           1.47387        -1.60393        -0.55294
LJ         0.0471953         1.71052        -2.02469
LJ           2.01246         1.08626        -0.91351
LJ            1.2344        -1.25612        -1.50859
LJ           1.05221       -0.316208       -0.737939
LJ           2.26841      -0.0776972        -0.80495
LJ           1.72251        -2.12791         1.09781
LJ          0.708556         2.15228         2.06568
LJ         -0.212838         1.77128       -0.972512
LJ           1.00372       -0.969391        0.105637
LJ          -1.68338        0.769958        0.624078
LJ         -0.503751        -1.29482         1.39647
LJ          0.236194       0.0597969        -1.18885
LJ          -2.25629         2.05809       -0.486884
LJ           2.00142         1.78791         1.84533
LJ          0.492741       -0.195548        -2.17776
LJ           2.23809        -1.53065        0.340764
LJ          0.107509       -0.110092        0.707223
LJ           1.03569      -0.0657549         1.45319
LJ          0.135994         1.77255       0.0810363
LJ          -1.50824        -1.88269        -1.50803
LJ         -0.725408        -1.02162        0.432175
LJ         -0.385894        -2.01597       -0.853269
LJ          -1.61075          1.9969        0.455802
LJ         -0.896327        0.265491       -0.926688
LJ           0.24484       -0.716278         1.71107
LJ         -0.663577         1.56872        0.627386
LJ          -1.69302        -1.68969        0.850735
LJ          0.377362        -2.01867        -1.62136
LJ         -0.576012      -0.0354369        -1.85784
LJ           2.08643        0.304369        -1.67023
LJ           1.67122         2.28185       -0.952823
LJ         -0.853583         2.10134        -1.83027
LJ           1.19114       -0.042737        0.448149
LJ          -1.73652        0.175157       -0.231637
LJ          -1.44441       -0.941573         1.47964
LJ         -0.846985        0.118637        0.222757
LJ           -2.2608         1.06396      -0.0808092
LJ           2.24981        -1.85588         -1.6441
LJ            1.1509         1.41475       -0.525346
LJ          -1.48694         1.23826        -2.17285
LJ         -0.178524         1.59309         1.63169
LJ           1.98812       -0.662407      -0.0899895
LJ           1.32322        -1.17149         1.02992
LJ           1.91829       -0.421005         1.26429
LJ         -0.749724        -1.00597       -0.513269
LJ          -2.04874        -2.34765         1.49338
LJ          0.321712        0.948695       -0.957184
LJ          0.695886        -2.36226       -0.468273
LJ          -2.01761         1.19861         1.46547
LJ           1.34335        0.415629          2.3142
LJ          -1.83317       -0.307919        0.621396
LJ           1.05295        0.523218        -1.56538
LJ         -0.595709        -1.57863        -1.96953
LJ           2.26897       -0.847785        -1.54491
LJ           2.35503        -1.37986         1.41409
LJ            1.3479        -2.25439        -1.82176
LJ         -0.765299        0.680258         2.06811
LJ          0.259913        -1.08478        0.792186
LJ            2.1859         1.72875        0.641955
LJ         -0.883806         1.96872        -0.22103
LJ          -1.14116         1.97052         1.87769
LJ           -1.5968        0.210013        -2.18857
LJ         0.0241731       -0.983237         -1.3233
LJ          0.708497        -1.64098            1.68
LJ         -0.246506        -2.24492         2.08689
LJ          0.828494         1.03222         1.64529
LJ          -1.83896        0.725544         -1.2812
LJ          -1.66325       -0.900848       -0.155876
LJ          0.279214         -1.3119        -2.22209
LJ           1.31865        0.989415        0.542805
LJ        -0.0229191       -0.289894        -0.31746
LJ          0.927576         1.88629        0.848577
LJ         -0.672225         1.01014         -1.6389
LJ          -2.18817         -0.5112         2.19382
LJ         0.0890517         0.32819          1.6057
LJ          -1.53641       -0.923136        -1.24816
LJ           2.15124        0.292607        0.512193
LJ          0.155965         1.03865        0.868774
LJ          -1.13193       -0.694384        -2.22841
LJ           1.91137        -1.98811         2.04189
LJ           1.26416         1.41096        -2.29725
LJ           1.59115         2.37294       0.0116168
LJ          -2.22577        -1.66931       -0.585139
