108
#Comment!
LJ       -0.00967178         1.74095         1.20604
LJ         -0.493572        0.741555         1.67772
LJ           1.53719        -1.04356        -2.12524
LJ          0.497772         -1.2838        0.202396
LJ          0.254502        0.667455         1.09139
LJ          0.696437         1.43175        0.423496
LJ           1.24614        0.741899       -0.344016
LJ          -2.01035         1.90558         1.87714
LJ          0.615695       -0.785643        -1.75532
LJ          -1.75461        -1.23667       -0.870064
LJ          -1.37164        -1.90462        0.922019
LJ           2.18336        0.443839          2.1601
LJ           2.37152       -0.655587        -1.67279
LJ          -1.98669         1.08159         -1.9041
LJ           2.29389        -2.30697        0.638223
LJ          0.254211         0.89844       -0.392453
LJ           0.58439         1.31491        -1.36484
LJ           1.95676        -2.13631       -0.401854
LJ         -0.638785        -2.32858        0.354416
LJ         -0.374974       -0.847468       -0.371498
LJ            1.1325         1.68666       -0.419163
LJ         -0.698287        -1.38589        -1.26419
LJ          0.553996         1.18871         1.97906
LJ           1.96768         1.55695       0.0600188
LJ            1.1115          0.3114         1.38464
LJ           1.38526       -0.105761         -2.0644
LJ          0.200563          1.9925       -0.538829
LJ          -1.23174       -0.492216      -0.0554604
LJ           2.28767        -1.76837        -2.30257
LJ           2.32539        0.581359        -0.10152
LJ         -0.983199         1.97033         1.44307
LJ         -0.530748         1.50596       0.0967496
LJ         -0.826627         2.28467       -0.578939
LJ          0.939517        -2.11729       -0.326307
LJ          -0.24366       -0.612314         1.18888
LJ          -0.48065         -1.8147         2.30062
LJ           1.82923        0.429674        0.726038
LJ           1.41649       -0.667515        -1.16917
LJ          -1.58066         1.93779        0.427078
LJ         -0.888957        -1.22082         1.65704
LJ        -0.0806944        -0.98993         2.16924
LJ         -0.497649        -1.40162         0.60127
LJ         -0.379503        -2.06619         1.31447
LJ         0.0828227      -0.0557962         1.95496
LJ         -0.966302         1.17634        0.897109
LJ          -0.49584         1.51056         2.31709
LJ          -1.59983         -1.9435         1.86937
LJ          -1.15902       -0.395035        -1.24851
LJ          -2.33355         1.38452       -0.751514
LJ          0.534811       -0.866021       -0.784168
LJ           1.37776         2.22103        0.577715
LJ           1.45558        -1.51918          1.6221
LJ          -1.08527        0.748631        -1.87596
LJ          -1.95395       -0.901754         2.22493
LJ          -1.10006       -0.994599        -2.02936
LJ           1.18834         1.31629         1.25867
LJ          -1.82051        0.628719        -1.03073
LJ           1.07655       -0.684888         1.00071
LJ         -0.449833      -0.0565526        -1.84754
LJ          0.978599        0.299842        -1.19158
LJ          0.873389         2.31434         1.74839
LJ         -0.430091         1.48937        -1.14685
LJ          0.294634        0.557067        -1.94491
LJ          -2.27142         2.14911           -1.86
LJ           1.40055        0.980566        -1.86859
LJ          -1.71568      -0.0665745         1.72783
LJ          0.138995       0.0350651       -0.798688
LJ         -0.138039        -1.81348       -0.333379
LJ          0.451711         1.91398        -2.15494
LJ          -2.14751        -1.22947        0.137897
LJ           1.83805       -0.357023         1.59308
LJ          -2.09963       -0.165918        -0.62315
LJ         -0.879132       -0.240521         1.98937
LJ          0.693705         2.32891        -1.32586
LJ          0.382148        -2.34902        0.536055
LJ           1.41683         1.62054         2.16678
LJ          0.848307       -0.672288         1.95741
LJ           1.24813        -1.71081        -1.20008
LJ          0.540159        -1.70252        -2.28397
LJ           1.42462        -1.59519        0.529699
LJ          -1.57411       -0.883041        0.849832
LJ          -1.03752        0.118751        0.988728
LJ           1.91946         2.37111         1.65073
LJ           1.77316       -0.239507      -0.0496444
LJ          0.679455        0.127117        0.343961
LJ          -1.40559          1.4848       -0.417879
LJ          -1.53805          -1.836        -1.63832
LJ           1.63477         -1.1644       -0.348247
LJ          -1.81369        -2.33821        -0.58473
LJ         -0.801164         0.42899        -1.00987
LJ           1.46756        -2.21554        -2.22589
LJ          -1.93073        0.553877        0.733889
LJ            2.3302       -0.420865        0.756853
LJ          -1.12473        -1.55932        -0.24687
LJ          -1.20152         2.17711        -2.24977
LJ           1.97684        0.138427        -1.28034
LJ           2.22261        -1.74764         -1.2838
LJ          0.495005        -1.39217         1.24043
LJ          -1.82166       0.0686969        -2.01683
LJ         -0.384518        -2.36485         -1.6701
LJ          -1.67549        0.956979         1.78751
LJ          -1.46402         1.81798        -1.38664
LJ           1.63614         1.96264        -1.27874
LJ          -2.32237        -1.55099          1.2352
LJ          0.227123        -1.62388        -1.25942
LJ           2.26007         1.45074         1.07014
LJ          -1.03766         0.51107      -0.0230693
LJ         -0.338756       -0.113977         0.31679
