108
#Comment!
LJ          0.552137         1.10305         1.62632
LJ         -0.922058        0.653181          1.7784
LJ           1.20638       -0.901238        -1.76234
LJ          0.663107       -0.979342       -0.155414
LJ          0.734641         1.15732        0.675238
LJ            1.3048         2.27074         0.83973
LJ           1.80557        0.530994        -1.09424
LJ           2.22821        -2.10945         1.50643
LJ           0.43041       -0.450012        -2.17513
LJ          -1.54263       -0.920189        -1.04681
LJ          -1.23177        -1.42974        0.602585
LJ           1.82818        0.890181         1.93985
LJ           2.23656       -0.572838        -1.54175
LJ          -2.32045        0.366844        -1.93464
LJ           2.31032         2.12106        0.526122
LJ        -0.0350385        0.768698       -0.114517
LJ          0.373269         1.40905       -0.796045
LJ          -2.08929         2.29782       -0.646331
LJ         -0.690775          2.3031        0.833693
LJ         -0.421057       -0.856847       -0.667931
LJ          0.771056         1.95313      -0.0281787
LJ         -0.631094       -0.547578        -1.64936
LJ           1.40691        0.476677         1.06214
LJ           1.83814         1.37351       -0.295421
LJ           2.08786       -0.326086         1.37639
LJ           1.95063       -0.245859         2.34018
LJ         -0.257284         2.33327       -0.230865
LJ          -1.15874       -0.502277       0.0590725
LJ          -2.32341        -1.22981        -2.26701
LJ          -2.24208        0.517264        0.846255
LJ         -0.747204         1.60641         1.55118
LJ          -0.94523         1.58948       0.0648541
LJ          -1.13924         2.07606       -0.780466
LJ            1.7365        -2.29227       -0.387393
LJ          -0.09963        -0.34433        0.258188
LJ         0.0655738        -2.29282         2.37174
LJ           1.05611        0.782454       -0.295979
LJ           1.39659       -0.340762       -0.922129
LJ          -1.62479        -2.23846        0.214747
LJ         -0.118397        -1.63057         1.50744
LJ          0.324405       -0.679747          1.5985
LJ         -0.259057        -1.32988        0.177901
LJ          0.206062         1.99939         1.30944
LJ         0.0205102        0.230983         1.74158
LJ         -0.255946         1.28408        0.715735
LJ         -0.361045         1.60436        -2.20654
LJ          -1.08461        -1.49758         1.60521
LJ          -1.69134        0.044945        -1.13426
LJ           1.46402         1.70917        -1.12334
LJ          0.379321       -0.808101        -1.26986
LJ           1.83257        -1.69919        0.488409
LJ           1.59497        -1.07969          1.8388
LJ          -1.41243        0.979154        -2.07292
LJ          -1.32754        -1.19593        -2.08741
LJ         -0.175334        -1.34536        -2.18031
LJ           1.73633         1.34089        0.704089
LJ          -1.39742         1.05306       -0.963962
LJ          0.828938       -0.376109        0.660894
LJ         -0.422017        0.412524        -2.13412
LJ          0.868068         0.26783        -1.60825
LJ           1.29216         2.34781         1.81056
LJ         -0.442032         1.23559        -1.30987
LJ          0.423147         1.11066        -1.81536
LJ           2.22729         2.28766        -1.57194
LJ           1.53589          1.0757        -1.89942
LJ          -1.96329        0.562579         1.84504
LJ         0.0294686        0.156359        -1.27113
LJ          0.124037        -1.67363       -0.796982
LJ         -0.174503         2.17569        -1.38413
LJ          -1.92123        -1.36462       -0.209559
LJ          -1.74213       -0.746177         1.85777
LJ          -2.25954       -0.466489        -0.58553
LJ         -0.672164       -0.480128         2.14818
LJ          0.736923         2.34758       -0.949185
LJ           0.39358        -2.04047        0.451552
LJ             1.938         1.83159         2.34196
LJ           1.12405        0.041235         1.92681
LJ           1.26335        -1.56016        -1.03499
LJ          0.792089        -1.59992         2.05908
LJ           1.65007        -1.05583       -0.227979
LJ         -0.617215       -0.721005         1.13493
LJ          -1.47566       -0.260765        0.969663
LJ           2.31099         1.64815         1.42708
LJ           1.69189       0.0620647       0.0943844
LJ          0.532247      -0.0556214        -0.46732
LJ          -1.92617         1.38956       -0.134211
LJ          -0.71258        -1.52365        -1.36636
LJ           2.27761        -1.48592        -1.07594
LJ          -1.66204        -1.86487        -1.41471
LJ         -0.675215        0.131966       -0.541258
LJ           1.50797        -1.90006        -2.14137
LJ          -1.54837         1.28585        0.921451
LJ          -2.32845       -0.540718        0.476028
LJ         -0.958595        -1.78964       -0.420044
LJ         -0.901099        -2.12594         2.36871
LJ          -2.27637        0.474308       -0.343052
LJ          -1.91333        -2.25457         2.38096
LJ          0.942325        -1.30081         1.11438
LJ          -1.53349       -0.106132         -2.1643
LJ          -1.21701         1.82782        -1.75479
LJ          -1.64253         1.55966         2.00396
LJ          -2.36017         1.29742        -1.09233
LJ          0.932587         2.01201        -1.94341
LJ          -2.28962        -1.29278          1.1146
LJ           0.61096        -1.73038        -1.69894
LJ          -1.56396         2.29818          1.3478
LJ          -1.35607        0.518684       0.0925832
LJ         -0.610233         0.32129        0.762984
