108
#Comment!
LJ          0.787354        -2.34996        0.666388
LJ         -0.620087         -1.5278         1.38346
LJ          0.618746       -0.759329        -1.47264
LJ           1.02228       -0.153729         2.12856
LJ          0.480053       -0.333236       -0.555867
LJ          0.286282         1.39714        -1.55472
LJ           -1.3544          1.5365        -1.56782
LJ          -1.24321        -1.61039       -0.461519
LJ         -0.406292       -0.567834         1.13539
LJ         -0.310621        0.347236        0.788534
LJ         -0.841113        -1.26374        -2.16868
LJ           1.20941         0.23477      -0.0872157
LJ          0.958949        -1.41419        0.279901
LJ           1.63881        -2.04502        -1.34519
LJ            2.1027       -0.405688       -0.436062
LJ         -0.568388         1.56201         1.39761
LJ         -0.286785       -0.458217         0.10832
LJ          -2.32074       0.0822589        -1.86805
LJ         -0.961524         1.92663       0.0631596
LJ          0.266689        0.523596        -0.10936
LJ           -0.5389         1.86365        -1.97745
LJ           1.42994         1.44653          2.3391
LJ           1.30138        -1.28711       -0.701166
LJ           1.41561         1.25151       -0.528699
LJ          -2.28302       -0.573624         2.22613
LJ          -1.71116         0.48309         2.23697
LJ        -0.0717689        -1.91492        -2.10879
LJ           1.00177        -2.27849        -2.11304
LJ          -1.32572         1.59709         2.12304
LJ         -0.331903       -0.574393         -1.7112
LJ          -1.30559         -2.2985         -2.0335
LJ          -1.75609        0.691346        -1.24244
LJ          -1.13602        0.326996         1.29783
LJ           1.20374         2.14468         1.66254
LJ           1.44445        -1.70966         1.19408
LJ          -2.37226        0.295481         0.46642
LJ          0.812671        -2.14881       -0.330795
LJ          0.963292         1.45664        0.398221
LJ          -1.92609       -0.848307       0.0369945
LJ          -2.12007         1.94217         1.62617
LJ          0.909943         2.01375        -1.12547
LJ           1.84373         1.29348         1.26564
LJ          -1.21163         2.37549        -1.03633
LJ          -1.76854        0.125332       -0.313476
LJ         -0.160456        0.306989        -1.07368
LJ          -1.96346        0.899382         1.31753
LJ          -1.20801         2.28107         1.06716
LJ         -0.920207        0.436742        -1.69072
LJ          0.196404        -0.98895         2.33372
LJ          -2.35535        -1.37288         1.07624
LJ         -0.596076        0.921928         2.11845
LJ          0.875857        0.530342       -0.989583
LJ        -0.0915779        -2.36935      -0.0773108
LJ           0.34812         1.39122       -0.605319
LJ          -1.65214        -1.53055        -1.43128
LJ          0.519726         1.06475         2.06349
LJ         -0.199053        -2.33236        0.922584
LJ           1.72752       -0.590796         1.55889
LJ         -0.621566       -0.186571         2.22367
LJ           1.61036       -0.483086        -1.33314
LJ          -2.13733         2.21273        -1.50339
LJ          0.453374         1.66732         1.21889
LJ           -1.9476         1.69032        0.686175
LJ          -1.22964        -1.10214        0.797615
LJ            2.2197        0.679417       -0.549966
LJ           1.99717         2.33805        -2.35782
LJ          -2.10351         2.16813       -0.333081
LJ           1.86798         1.68779        -1.38385
LJ        -0.0917752         2.18543        -1.12778
LJ         0.0814311        -1.29661        0.684585
LJ         -0.731778         0.44608       -0.204609
LJ         -0.654539        -2.34385         1.97784
LJ         -0.612632         1.26397       -0.964922
LJ          -1.22592         1.06554        0.482063
LJ           1.17803        -1.14372        -2.22633
LJ           2.10955        -1.20583        -1.84457
LJ          0.799796       -0.864387         1.35623
LJ          -2.07802       -0.609068        -1.15085
LJ           1.46527        0.540869        -1.77892
LJ          -1.00688       -0.472819       -0.981218
LJ          0.683207        0.616591        0.940453
LJ           1.64364       -0.581043        0.572335
LJ          0.261694          2.0794         2.10564
LJ          -1.61925         1.30706       -0.485791
LJ          -1.83682        -1.86367        0.338406
LJ           1.93411         1.16808        0.260214
LJ          0.517438        -1.77226        -1.25958
LJ           1.74681        -2.32606       -0.160663
LJ          -2.31847        -1.77919       -0.720294
LJ           1.97389        -1.34163       0.0761832
LJ           2.00962         2.25877         0.80109
LJ         -0.581207        -1.67984        -1.32158
LJ         -0.788902        -1.80538        0.365857
LJ            1.6182        0.266514         1.07535
LJ          -1.19528       -0.133523        0.437726
LJ          0.665487       -0.284951        0.520178
LJ          0.513278        -1.78846         1.69631
LJ         -0.166977         1.42552        0.484104
LJ          0.161894        0.109967         1.70881
LJ          -1.96237       -0.426061         1.02991
LJ           1.94442        0.565794         2.09349
LJ         0.0596012        -1.31277       -0.472628
LJ          -1.43137         -0.3547        -1.95835
LJ          -2.29248         1.40439         -2.1478
LJ          0.238491        0.248764        -2.01818
LJ          -1.27348       -0.726353         1.73199
LJ          -1.78779        -1.87449         1.99701
LJ           1.91888         -1.4583         2.01475
