108
#Comment!
LJ           1.90183        0.306395        0.945502
LJ          -1.03631       -0.107773       -0.708506
LJ           1.94685       -0.876501        -2.36211
LJ           2.32768       -0.291654         1.74077
LJ           1.18563       -0.411169        -1.36611
LJ          -1.71881         1.94302        -1.07923
LJ          -1.61211         2.34664        0.846694
LJ           2.21463         1.72876         1.16197
LJ           1.13255        -2.22414         0.90159
LJ          -1.34287        0.450587         2.30947
LJ          0.421908         1.40495        -2.37088
LJ           2.18441         1.23352         2.22352
LJ           2.21131        -2.09383        0.771737
LJ          0.336549        -0.69504         1.28851
LJ        -0.0340162         1.24028         1.33734
LJ           0.95969        0.102924        0.526386
LJ         -0.237418       -0.383391        -2.22467
LJ           1.28792         1.34955        -1.87078
LJ           0.22639         2.20882         1.39094
LJ           2.03851       -0.728525       -0.908876
LJ          0.128147       -0.619453         -1.0754
LJ           1.13677         1.47149         1.69524
LJ         -0.987486        0.846724       0.0303418
LJ         -0.520578         1.55209        0.485522
LJ         -0.525134        0.166996         1.81094
LJ         -0.368994       0.0476169        0.832148
LJ          -1.14779         2.29325      -0.0798412
LJ         -0.133598         0.64495        -2.02869
LJ           -2.3364        -1.59557      -0.0417625
LJ           1.99496       -0.503659        0.141703
LJ         -0.684056         1.22197         2.10919
LJ           1.80925        0.142363        -1.91675
LJ           0.30662        -1.64456        -0.73171
LJ           -2.0334        0.878638         1.45308
LJ          0.732974        -2.12154          2.2231
LJ          -1.05969        -1.99869         2.12146
LJ          -2.00885       -0.182003        -2.07585
LJ          -1.24571          1.4979        -1.92016
LJ          -1.18181       -0.329977        0.244392
LJ          -1.19016        0.556696        -1.49833
LJ         -0.242699         2.32466         2.28661
LJ          0.964991        -1.94609      -0.0430947
LJ          -2.01883        0.124316        -1.04586
LJ          -1.97784       -0.739097        0.807499
LJ            1.6492        0.484607         1.87934
LJ         -0.098866        -2.14335       0.0693005
LJ           1.06821         2.08127       -0.741321
LJ          -1.42518        -1.81631       -0.755956
LJ           2.16002         1.13699        0.251243
LJ          0.554423       -0.722438        0.246843
LJ           1.36944        0.565914        -1.13274
LJ          0.256731         0.63692        0.063518
LJ           1.71129        -1.97976       -0.680895
LJ         -0.872541         1.85673         1.39144
LJ           1.37067       -0.425992         1.56707
LJ         -0.702779        -1.34938        -1.83368
LJ           1.70786         0.32898       -0.197471
LJ          0.606497         -1.3223        -1.77876
LJ          0.830156        0.501008        -2.32081
LJ           1.53318        -1.30371        0.538417
LJ        -0.0398297         -1.3783         2.02867
LJ           1.14332        -1.11361       -0.538314
LJ         -0.585028        -1.22964       -0.713602
LJ           2.15323        -1.20941         1.43181
LJ           1.16543         1.04183        0.700788
LJ          -1.52887        -1.26361         1.54141
LJ          0.731134       -0.112503       -0.487485
LJ          -1.37751     -0.00567701         1.32846
LJ          0.456538        0.223081         1.54053
LJ          -2.19282         2.00775     -0.00854385
LJ         -0.647559        -0.85154          1.2711
LJ           1.01329        -1.30831         1.68996
LJ           1.69957        -1.34565        -1.53856
LJ         -0.946639       -0.447729        -1.59647
LJ          0.224378        -2.21743        -1.60532
LJ         -0.772261         1.43136       -0.824052
LJ         -0.286803        0.571667       -0.859864
LJ          -1.75415         1.71029         1.77367
LJ           -1.6657         1.33908        0.709053
LJ         -0.502616        -1.14619        0.306786
LJ          -1.79111        -1.41074        -2.32062
LJ          -1.73077       -0.997746         -1.4094
LJ          0.879547       -0.515954        -2.31053
LJ           -2.0515         2.05775        -2.10018
LJ           1.55293         2.28598          1.7565
LJ           1.27184        -2.28135        -1.65186
LJ         -0.295987          1.6623        -1.65241
LJ          -2.06131        0.988724        -1.61092
LJ          0.545316         1.81786        0.406256
LJ          -1.19904       -0.630403         2.25937
LJ          -1.85199         1.05796        -0.46605
LJ          -1.65666       -0.816354        -0.41524
LJ          0.553317         1.14488        -1.28769
LJ           1.60311         1.99083         0.11424
LJ          0.103789         1.63023       -0.522909
LJ           1.98064         1.57965       -0.978585
LJ            2.1113        -1.87712        -2.28676
LJ         -0.938524        0.812086         1.19369
LJ          -1.46657         -1.4231        0.341915
LJ          -1.09178        -2.29503        -1.71718
LJ           1.26332         1.18595       -0.401142
LJ          -1.91091        0.297575        0.485467
LJ           -2.3266        -1.93503        -1.38281
LJ          0.339302        -1.65869        0.987894
LJ          -2.06517        -2.04754         1.68871
LJ         -0.767183        -1.87351          1.0186
LJ         -0.253537       -0.262244       -0.132825
LJ         -0.416913         2.37988       -0.843033
