108
#Comment!
LJ          -1.49909         0.81629         1.05849
LJ           1.96029         2.32563        -1.24223
LJ           1.20548       -0.898775         1.10673
LJ          -2.23252       -0.848351         1.86861
LJ           1.29133      -0.0112784        0.378983
LJ           1.20122        -2.02887        0.755358
LJ         0.0198639        -2.13556         1.43806
LJ           1.46067         1.00335        0.354171
LJ           -1.7496        -2.36017        0.749972
LJ         -0.430809         2.24842        -1.45726
LJ         -0.867811         1.66184         1.63218
LJ         -0.200186        0.962295          1.8938
LJ           1.72193         -1.6008        -2.03382
LJ          -2.25151        0.187426         1.54187
LJ          -1.26796        -1.04306         2.13367
LJ           1.95834         2.12245         1.37655
LJ          0.496938        0.100495        -1.11036
LJ         0.0555325       -0.249618        0.880406
LJ         -0.885974       -0.695241       -0.825908
LJ          -2.15106         1.28589         1.70832
LJ         -0.502763        0.576992        0.791055
LJ          0.405905         2.31308        -2.14543
LJ           1.51177         1.26898         1.26515
LJ           2.12638         0.21084        -2.36007
LJ          -0.62533        -1.60354        0.230703
LJ           0.80479         1.78581        0.677731
LJ         0.0824621         1.67427         1.22417
LJ           1.42613        -2.04701       -0.416073
LJ          -1.46707        -1.79267       -0.602991
LJ            -1.631         2.26754         1.92852
LJ         -0.741861       -0.980986         1.11524
LJ           2.24939        -1.61128        0.698532
LJ          -2.34614         1.37841        0.785448
LJ           2.00696         1.54757       -0.608953
LJ          -1.62156       -0.153776        -2.25039
LJ          -1.20917          1.6089         -2.0501
LJ          0.497406        0.648144        0.130879
LJ            1.3715       -0.616222         2.27431
LJ          -1.08307        0.623196         2.17647
LJ          0.434757        -0.27931        -2.07906
LJ          0.954418         1.25043       -0.539971
LJ        -0.0738541        -1.64928        -1.90163
LJ          -2.08871        0.940008        -1.98468
LJ        -0.0423325         1.09193       -0.719218
LJ          0.980732        0.874352        -1.49044
LJ          -2.36468         2.02185        -2.16536
LJ           2.35627        -2.04917       -0.393795
LJ           1.02971        -2.08558         -1.4398
LJ           1.38667          2.0774        -2.23447
LJ           2.14474       -0.618424        0.949594
LJ          -1.45788       -0.884974        -1.58279
LJ            2.2478        0.284557        0.427794
LJ        -0.0739869         1.46794        0.259993
LJ          0.467137       -0.574654         1.71556
LJ          0.197814        -1.26324       -0.414289
LJ          0.121202        -2.23106        0.296058
LJ          -1.23655        -1.79115        -1.83326
LJ          -2.07826         -1.6279        -2.25487
LJ         -0.677153         2.22491       -0.482059
LJ           1.98499         -1.1763       -0.118023
LJ          -1.45001      -0.0376066          0.2969
LJ         -0.547157        -1.60688       -0.993045
LJ           1.84111        -1.59833         1.64431
LJ         -0.946786         1.83866        0.546532
LJ          0.704645         -1.5248         1.86704
LJ         -0.304426        0.332264         -2.0228
LJ          -1.70581        -1.59628          1.5128
LJ           1.05601        -0.42814       -0.480421
LJ         -0.856184        0.879773       -0.167094
LJ          -1.84599        0.914107      -0.0277716
LJ          -1.80093        0.172581       -0.715382
LJ           0.68333         1.35918        -2.37432
LJ          -1.59044         1.85947       -0.240095
LJ          -1.54985        -1.11657        0.516833
LJ           2.33383        -0.79586        -1.87298
LJ           0.92215         2.19975         1.62798
LJ          0.150562       -0.888763        -1.30671
LJ            2.1451        0.290984        -1.33272
LJ           -0.5908       -0.601602        -2.01024
LJ         -0.656724        -2.29351         2.17958
LJ          0.496249        0.666707         1.18047
LJ          -1.50104         2.15004        -1.24751
LJ         -0.954136         1.34958        -1.01115
LJ         -0.765935       -0.585187        0.144973
LJ           1.45002        0.126491         1.46034
LJ           1.34098        -1.18149        -1.06988
LJ           1.32356       -0.300121        -1.50056
LJ         -0.130865         1.40739        -1.90243
LJ          0.602036          1.7458        -1.32183
LJ          -1.80648       -0.794367       -0.366336
LJ          0.203212        -1.30871        0.870754
LJ          0.794714        -1.26119        -1.95891
LJ         -0.269842        -1.15558           2.021
LJ           1.78298         1.16617         2.34178
LJ         -0.879394        -2.01922         1.11426
LJ          -1.46152       -0.348823         1.36698
LJ           1.02549        -1.27402        0.133582
LJ            1.7652          1.9753        0.336715
LJ           1.57619        0.479011       -0.505689
LJ         -0.471964       -0.146621         1.78655
LJ          0.245412        -2.23972       -0.775995
LJ         -0.499657        0.188175       -0.792225
LJ          -1.92097         1.17641        -1.08162
LJ           1.09233        0.385475         2.34932
LJ           2.37528        -1.49587        -1.24317
LJ          -1.20054        0.602532        -1.62429
LJ           2.17007       -0.439138       -0.740479
LJ          0.113921       -0.238351       -0.200129
