108
#Comment!
LJ          0.296184        -1.29448        0.928264
LJ           1.67773       -0.987492         1.92756
LJ          -1.66202       -0.244971       -0.408415
LJ         -0.619829        0.879557        0.679931
LJ          -0.84027        0.434189        -0.19293
LJ         -0.149546        0.241491         2.11017
LJ          0.826058         1.56147      -0.0125544
LJ          0.466452         1.76319         1.80364
LJ           2.17601        -1.59366        0.804503
LJ          0.419349     -0.00214025        -0.39039
LJ          -1.75909         -1.2661        -0.57315
LJ           1.38871        0.232771        0.962962
LJ         -0.455155         1.14973        -1.41353
LJ           2.06073       -0.968487        -1.02614
LJ           -1.7868        -2.19224        -2.12308
LJ           2.01621        0.832626       -0.979899
LJ           2.18736        0.184718       -0.206253
LJ          0.731326       -0.404746        0.476931
LJ            1.8989         1.76942       -0.607106
LJ           1.74588       -0.293303        -1.85228
LJ           1.45377        0.900408        -1.92854
LJ          0.288754        -1.16423       -0.133975
LJ          0.314453        0.587217        0.517194
LJ        -0.0433556         -2.0712         1.54449
LJ          -1.85751        0.437246         1.81495
LJ           2.28559        -1.84948       -0.258892
LJ         -0.990937        -2.21671       -0.391396
LJ          -1.66948        0.753679        -1.32961
LJ           1.10873         2.06185        -2.23951
LJ          -1.05807        -2.16976          1.9261
LJ           1.54687         2.17828        0.245575
LJ            1.7561         1.98256          1.2516
LJ           1.12925        -1.48979        0.257374
LJ          0.767548         2.09404        0.903696
LJ          -1.86268        0.858445        -0.32474
LJ           1.99914        0.111225         2.05032
LJ         -0.396943        0.013669          1.0806
LJ          -1.67289         1.62485         2.18587
LJ           1.59749       -0.609108       -0.234061
LJ         -0.386055         2.07568        -1.14757
LJ           1.37112          1.2849         1.88673
LJ          -1.28282       -0.696617         1.59161
LJ          0.863528         1.14746        -1.00267
LJ        -0.0391733         2.33816        -2.04379
LJ          -1.02929       -0.804043        -1.42344
LJ         -0.925544        -1.85784        -1.29884
LJ          -1.93855        -1.25955        -1.56283
LJ          -1.10409         1.90948        -1.80523
LJ           1.88585        -1.38693        -1.98071
LJ          -1.31961         1.57939       -0.799852
LJ           2.08766        0.962377         1.32334
LJ         -0.743033        -1.22533       -0.474117
LJ         -0.142861       -0.636622        -1.93776
LJ          0.320604         1.18872        -2.09861
LJ           2.10885         1.65822        -2.27536
LJ         -0.378963         1.79258       -0.200007
LJ           0.73031        -1.82144         2.32284
LJ          -2.31705       -0.950186        0.126651
LJ         -0.873192        0.670761         1.61927
LJ           1.43081        -2.09695       -0.569186
LJ         -0.982691        -2.37079         0.96117
LJ          0.984928       -0.797718       -0.994274
LJ            1.0776         -1.6684        -1.41405
LJ         -0.209321         1.78825        0.756814
LJ          0.696245        -1.01335         1.75854
LJ          0.564259       -0.114518         1.46077
LJ          -2.20822        0.825311        -2.15735
LJ          -1.84431        -1.31457         2.18889
LJ          -1.23856         1.51142        0.183952
LJ          0.784756       -0.906995        -1.97732
LJ          0.088632         -1.5946        -1.53443
LJ          -2.12189         2.01633       0.0342568
LJ        -0.0328283        0.900978       -0.497034
LJ          0.344611        0.331761        -1.33091
LJ          -2.06539       -0.293428        -2.21228
LJ          -2.26249        -0.57034         1.43713
LJ          -2.25365      -0.0638494        -1.26254
LJ          0.365733        -2.04638       -0.528968
LJ           1.76409       -0.686127        0.771349
LJ          -1.58917         1.31924         1.22602
LJ         -0.728517        -1.31782        0.883355
LJ         -0.512357       -0.511514        0.159503
LJ          -2.17991         1.62502        -1.31666
LJ          0.233111        0.871072         1.49327
LJ          -2.34059        0.197723        0.766073
LJ         -0.239123        -2.00388         0.29897
LJ           1.24357        -1.71454         1.33726
LJ          -1.08842       -0.152635        -2.30665
LJ           2.10907         1.05233        0.312298
LJ           1.86784        -2.02666         2.05891
LJ           1.04648         1.12081        0.997933
LJ          0.616694         2.10126        -1.32443
LJ           1.19383        0.546942     -0.00700078
LJ        -0.0471816       -0.651089       -0.935853
LJ         -0.615069         1.57091         2.02038
LJ          -1.81964         -2.2548       -0.996075
LJ          -1.01683          0.9032         -2.1586
LJ          -0.79667        -1.35507        -2.28934
LJ         -0.752776        0.151569        -1.16098
LJ          0.908728       0.0544753        -2.36606
LJ          -1.73008        -1.68671         1.30743
LJ         -0.318244         -1.0297         1.73166
LJ            1.2824        0.178355       -0.945333
LJ          -1.63923        -1.91994        0.309047
LJ            -1.499       -0.707034        0.571045
LJ           1.83866         2.34077        -1.61005
LJ          -1.32574        0.227098        0.775514
LJ          -2.13089         2.20965         1.03657
