108
#Comment!
LJ           2.32043       -0.423144        -0.18433
LJ          -1.95396        -0.74815        0.627747
LJ          -2.37915       -0.175929        -1.97607
LJ          -2.23023         1.31213      -0.0677536
LJ          -2.28623        0.770029       -0.920306
LJ            1.6642        -2.00172         1.28755
LJ           1.34401        -2.16527        0.406061
LJ           1.34576       -0.475792        0.106335
LJ        -0.0398977        -1.38971        -1.47532
LJ         -0.974897        -1.71763        -1.61603
LJ           2.31216        0.444004         2.02721
LJ          -1.42962        -1.93429         2.14941
LJ           1.94338      -0.0110259        -1.11642
LJ           2.31136        -1.68604         2.08939
LJ          -1.30397        0.984737        -1.41469
LJ           -1.8942        -2.05954        -1.06482
LJ         -0.636482        -1.24342         2.25596
LJ          0.929187         1.23766         2.08246
LJ           1.94535        -1.35322       -0.015158
LJ          -1.94122        -1.43807        -1.86658
LJ           2.37173       -0.922728        -1.07301
LJ          0.528509        -1.83027         1.32652
LJ          -1.90203          2.0761         1.60277
LJ           2.17901         1.68957        -1.18192
LJ           2.17312       -0.846612         1.43586
LJ          -1.27025        -1.34057         1.34345
LJ          0.445285        0.842279         1.12721
LJ           1.29266        -1.04872        0.980713
LJ          -1.48322         1.72515        0.517689
LJ          0.693391        -2.16505        -1.24434
LJ           -1.7411     -0.00169165         1.37416
LJ          -1.14461        -2.28842         1.08797
LJ         -0.500907         1.54639         1.04855
LJ           1.30503       -0.228154         1.51954
LJ       -0.00847094        0.739641       -0.706245
LJ           1.19262        -1.42662         1.93403
LJ         -0.546489        -2.26091        -2.36462
LJ           1.37575         1.33627       -0.538758
LJ          -2.14361         1.18302        -2.17518
LJ          -2.22846        -1.71354        0.883908
LJ          -2.16016         -2.0685      -0.0345863
LJ          -2.33117         1.03875         1.11918
LJ         0.0895076          2.0671         1.77482
LJ            1.1827          1.6387        -1.60826
LJ          -1.74383       -0.864114         2.09179
LJ          0.560522       -0.241584        0.855622
LJ           0.37506        -1.90608         -2.2167
LJ           1.40409         2.35417         2.19632
LJ           1.35509         1.60173        0.422308
LJ           1.20879       -0.660246       -0.931391
LJ          0.361135       -0.163036        -1.26226
LJ          0.307948         1.31291        0.074105
LJ          0.348329         1.62219        -1.07538
LJ           1.15297        -1.64499       -0.527817
LJ          -1.45801        0.240379        -2.24946
LJ           -1.2356        0.650948       -0.400838
LJ            1.7247         2.29784       -0.423597
LJ           1.02617        -1.29696        -1.76157
LJ           1.49554        0.609019         1.01955
LJ          0.377588       -0.938162          1.8077
LJ          0.285816          1.8835         -2.0257
LJ            1.1005        0.388842       -0.758515
LJ           1.09608         1.94996         1.38932
LJ          -0.49537        0.479737         1.37773
LJ         -0.385004        -0.90625          1.0894
LJ         -0.698862        0.203047        -1.31671
LJ           2.01514       -0.132738        0.811536
LJ          0.591295         -1.5055        0.383544
LJ          -2.27472         2.30712        -2.06886
LJ         -0.971598      -0.0585711        0.590328
LJ          -1.35874        -1.47497        0.350716
LJ         -0.439832         1.17798        -1.82007
LJ          0.124059        -1.74603       -0.472243
LJ         -0.915093         1.60096           2.123
LJ          0.583122        0.183517         2.01861
LJ           1.76603        0.734192         -1.8445
LJ         0.0724047       -0.586365        -2.11312
LJ           1.72356        0.482121       0.0591759
LJ          -0.39391        -1.10842         0.12247
LJ         -0.741346         1.54143       -0.856853
LJ          -1.40173         1.06836          1.4697
LJ          -1.42326       -0.358004        -0.28456
LJ          -1.28431         2.18821        -1.70298
LJ          0.745167        0.439624        0.202588
LJ          0.430561         2.01294        0.706612
LJ           1.66337        -2.12144        -1.54516
LJ          0.618461         2.18436       -0.307828
LJ          -1.28784        -1.08138       -0.895623
LJ         -0.796478       -0.328095         1.84395
LJ           1.22771       -0.257492        -2.14487
LJ          0.470228        0.695357        -1.74821
LJ          -1.71053      -0.0461344        -1.28824
LJ           2.18076          2.1208        0.746339
LJ         -0.714564         1.06209        0.282045
LJ         -0.600051         2.06396      -0.0247302
LJ         -0.385312        0.348451        -2.30365
LJ         -0.319048        -2.37185        -1.24238
LJ          -1.87278        0.450907        0.463633
LJ         -0.371674       -0.664984       -0.871518
LJ           1.89802        -1.07082        -2.05704
LJ          -1.00906        -1.96347       -0.576646
LJ           0.46637        -0.73796       -0.385668
LJ          -1.69304         1.64045       -0.788625
LJ           1.89406         1.50072         1.82599
LJ         -0.170059        -2.04782        0.588351
LJ           -1.1701       -0.730016        -1.86129
LJ        -0.0639872         1.13342         1.96997
LJ          -0.12231      -0.0373492      -0.0304268
