108
#Comment!
LJ          -1.65126        0.554411       -0.156611
LJ           0.14701        0.403638        0.351061
LJ         -0.562953        -2.14773        -0.27249
LJ         -0.637417         1.27024       -0.242286
LJ           2.09208        0.496393       -0.272898
LJ          -1.23795        -1.12023        -1.34898
LJ            1.4916        -2.20775         1.58388
LJ        -0.0642299       -0.506339         -1.0126
LJ           1.32919        0.690533        0.481847
LJ          -0.67234        -1.15153       -0.511655
LJ          -2.31891        0.418404         -1.2651
LJ          0.561124        0.949264       -0.392107
LJ         -0.404253        -1.85512        -2.37754
LJ          -1.19831        0.401584         1.91221
LJ           1.93405        -1.30372        -1.75081
LJ          -1.30507        -1.39991        -2.32633
LJ         -0.236545        0.378068       -0.607163
LJ           2.32103        0.629371        -2.29577
LJ         -0.771559         1.58169        -1.23103
LJ           1.57091        -2.15265        -2.23353
LJ            1.9099        -2.26541        -1.35287
LJ         -0.970398        -1.73182         1.44888
LJ         -0.155677       -0.963626         1.76744
LJ           1.00611       -0.188885         2.33933
LJ          -2.07748       -0.658364       0.0363092
LJ          -1.28031       -0.674645         1.58653
LJ           1.68161         2.29171        0.349933
LJ         -0.811259        0.642072        0.601545
LJ          -1.86638        0.956606         1.30022
LJ           2.32949         1.12529        0.487131
LJ           1.41801        -1.03037        0.885246
LJ          0.483488          1.2884        0.735124
LJ          -2.05094        -1.79473        -1.45329
LJ          -1.10303        -2.06077        -1.14556
LJ          -1.57088         1.01456        -1.79487
LJ          -2.13863         2.22875        -2.25928
LJ          0.769864        0.491484         1.42807
LJ          0.035489         1.93811        -0.64674
LJ         -0.662619         1.18929         1.56954
LJ          -1.35607       -0.185507        -1.89433
LJ          -2.17402         2.31284       -0.254203
LJ          0.327306        0.897388        -2.27383
LJ           1.29623        0.710975         -1.9933
LJ          0.743305       -0.102729       -0.433623
LJ          -2.02764         1.92107         -1.2773
LJ          0.654613        -2.01104         2.16844
LJ          -2.20446       -0.622815        -1.18781
LJ           2.34599         1.80366         1.63771
LJ          -1.09603        0.705296       -0.971191
LJ          -1.56767         1.52096         2.04845
LJ         -0.589628           2.185         1.81725
LJ          0.850509       -0.201452        0.615687
LJ          0.508273       -0.914948         -1.8465
LJ          0.341625        -1.89776         0.16743
LJ          0.453036        -1.25029        0.908331
LJ          0.348053        -1.37121       -0.680889
LJ           1.67488       -0.323255         1.58466
LJ        0.00293408       -0.611716        0.222376
LJ           1.77873         0.61197         1.53855
LJ          -2.13962       -0.853315        -2.25395
LJ          0.814675        -2.13427        -1.57791
LJ          -1.75006        -1.48003       -0.559723
LJ          0.755845          1.8302     -0.00596681
LJ          -1.49224         1.47195        0.452032
LJ         -0.186524         -2.3086        0.982257
LJ          -2.14939         1.31376       -0.515319
LJ          -1.18079         2.29881        -1.99792
LJ         -0.434541       -0.171187         1.03768
LJ           1.66365         1.57433        -2.34129
LJ         -0.599805         1.23648         -2.0638
LJ           2.20923        0.120454        0.738846
LJ         -0.441801         1.58342        0.678395
LJ          -2.20377         2.20326         0.72667
LJ           1.61158       -0.345649        -1.64375
LJ           1.25998         1.37047        -1.08167
LJ          -1.98309        -2.00373         1.61874
LJ         -0.434841        -1.41731        0.577373
LJ          0.293802         1.58381         1.79331
LJ          -1.36309        -1.10802        0.574627
LJ           1.43809          1.5305          1.3417
LJ           1.99806         -1.5498       -0.504819
LJ           2.02578         1.22513        -1.54133
LJ          -1.34896         1.98874       -0.532908
LJ         -0.333322        0.230116        -1.84049
LJ          -2.08074       -0.121104         1.84249
LJ          0.808701         2.18282        0.935049
LJ          -1.36522       -0.262576        -0.88127
LJ           1.20984        -1.20945        -1.02589
LJ           1.19138        -2.15773       -0.487911
LJ         -0.298818        -1.54323        -1.41174
LJ          0.104464         1.14125        -1.30211
LJ          0.532497        0.199317        -1.50521
LJ           1.42635        0.376409       -0.995821
LJ           1.03002        -1.01547      -0.0467158
LJ           2.35323       -0.852317          1.1095
LJ          -1.36199         1.97594         1.21405
LJ         -0.510742       -0.806319        -2.08327
LJ          -1.31571        -2.09192        0.475378
LJ         -0.966158       -0.271184        0.141855
LJ          0.708998         1.71606         -1.9784
LJ             1.866        -1.34058         1.91106
LJ           1.59145         1.41735       -0.154784
LJ          0.875267       -0.992039         1.79018
LJ         0.0378788     -0.00179225         1.96716
LJ           2.22558        -1.64851        0.588223
LJ         -0.179245         2.30187        -1.61979
LJ          -1.60715       0.0232376        0.932168
LJ           1.77387       -0.552971       -0.473526
