108
#Comment!
LJ            0.8752       -0.516994        -1.04538
LJ          -0.53684         1.38644         2.07263
LJ          0.138135         -1.6461        -2.03077
LJ         -0.661234       -0.830013        -2.36402
LJ          -2.00534       -0.208821         1.03301
LJ           1.08321        -1.50039        0.201623
LJ           2.19483        -1.63583        0.137066
LJ           1.93795        -1.97461         1.82887
LJ          0.584005         1.23535         2.16304
LJ           2.07231         1.37878        -1.55021
LJ          -1.16685        0.866139         1.45244
LJ            -1.808        0.843259       -0.787222
LJ          -1.77026        -1.06451        0.287567
LJ          0.758722        -2.34129        0.627294
LJ           2.29296         -1.4184        -2.15565
LJ          0.951215         0.51578       -0.827163
LJ         -0.164978        0.652347        -2.06406
LJ           1.44175        -1.35567        -1.58534
LJ         -0.512385         2.33565         1.63685
LJ          0.243469         1.22172        -0.82031
LJ         -0.610732         0.25316        0.367856
LJ           1.99683       -0.910588         1.74043
LJ         -0.792247        -0.31201       -0.776103
LJ           1.80691        0.943302       -0.621416
LJ          0.124647        -1.35649        0.785167
LJ          -2.06043         1.20792         2.15762
LJ           2.37878       -0.751327        -1.29556
LJ           1.63831        0.834679        -2.35476
LJ        -0.0345149       -0.613704         1.40773
LJ           2.07741       -0.799163        0.746703
LJ         -0.538622        -2.04639         0.44357
LJ          -1.75295        -1.87195         2.02302
LJ         -0.151901        0.405549         1.51891
LJ           1.92715       -0.328059        -2.15278
LJ          0.834715         1.16187      0.00612189
LJ          0.615143         2.27441       -0.428456
LJ         0.0916486      -0.0862522        -1.43974
LJ         0.0172841        -1.66562        -0.28306
LJ          0.127823        0.401702       -0.319859
LJ          0.565617       -0.765641        -1.94215
LJ         -0.645121        -1.44196          1.4254
LJ           1.62513       -0.873435       -0.473025
LJ           1.30562         1.68773       -0.898051
LJ           1.14148        0.781132         1.50312
LJ           1.32525         -1.4744         1.17884
LJ           1.96914         1.57422         1.60176
LJ         0.0585526         2.11542        -2.36982
LJ         -0.823722      -0.0773771        -1.75975
LJ         -0.366436         1.98584       -0.687807
LJ          -1.69533         1.85659         1.46303
LJ            1.5194        0.530511        0.380187
LJ         -0.805665        -1.20481      -0.0532315
LJ         -0.766165        -1.85816         2.36236
LJ          -2.28782        0.878226       0.0748652
LJ          -2.04594          -2.063        0.943458
LJ          0.271442       -0.428518        0.459007
LJ         -0.994094        -1.98696       -0.734606
LJ           1.05213       -0.162439      -0.0986848
LJ           1.70999         2.34634         0.96484
LJ          -1.03889         1.96794        0.755997
LJ           1.21191       -0.329705        0.897034
LJ            1.7937       0.0388736        -1.09153
LJ          -1.75866       -0.670833         2.18319
LJ            1.2655         1.52412         0.87459
LJ          -1.46983        -2.07448        0.112393
LJ          -2.06792        -1.76162       -0.699252
LJ          -1.81431        -1.93585        -1.66311
LJ          -1.51157      -0.0364458        0.125574
LJ         -0.719526         1.19336       -0.190029
LJ           1.53406        -1.93608       -0.601772
LJ          -1.42948         1.04588        0.480205
LJ           1.11651       -0.711703         2.02941
LJ           0.41488        0.527775        0.655972
LJ           1.90817        0.136638         1.77704
LJ         -0.994461      -0.0689396         1.75065
LJ       -0.00899323         1.38978         1.21858
LJ           0.98632         1.09928        -1.61565
LJ           1.35358         1.87079        -2.13059
LJ           1.48098         2.05906       0.0229492
LJ          -1.33193        -1.13871        -1.61546
LJ          -1.72324        -1.18421          1.2666
LJ          -1.06891       -0.568819        0.824216
LJ          -1.87389        0.346263         1.84619
LJ          -2.30273       -0.415393       -0.272732
LJ         -0.250656        -1.04412         -1.3095
LJ          0.229688        -1.83659         1.69524
LJ         -0.349824         1.48415        -1.59701
LJ          0.886396         2.10156         1.66102
LJ           -1.4779         1.76898       -0.653498
LJ         -0.398709        -2.30799        -1.54039
LJ           2.29068          1.8857       -0.687806
LJ          0.642797        -1.70379        -1.01953
LJ          -2.30903        0.450147        -1.99213
LJ          -1.53103       -0.883317       -0.682458
LJ          -1.68577      -0.0294893        -1.30329
LJ           2.25562        0.802478         1.08251
LJ          -1.17112         2.04249        -2.32522
LJ         -0.923448        0.763106        -1.23937
LJ         0.0910544       -0.651481        -0.44525
LJ          -1.13175        0.805385        -2.15515
LJ           1.94309        -2.25168        -1.45159
LJ          -1.72887         1.64617         -1.6256
LJ           1.13634        0.134779        -1.79628
LJ          0.543316         2.01575        -1.47653
LJ          0.567925        0.176195         2.17667
LJ        -0.0545927          1.8838        0.295488
LJ          -2.15662         1.80361        0.354009
LJ           1.04614        -1.78828         2.24352
