108
#Comment!
LJ          0.386185       -0.999034        0.196326
LJ            1.4727       -0.884593         1.77411
LJ          -1.47885       -0.177808       -0.884533
LJ           -1.2072        0.390382        0.703218
LJ         -0.813519        0.536605        -0.45032
LJ        -0.0640301       0.0597453        -1.98393
LJ           1.17413         2.08749       -0.454981
LJ          0.959543         1.91366        -2.05617
LJ           1.79118         -1.8584        0.285204
LJ          0.400614         0.43139        0.221441
LJ          -1.00425        -1.25466       -0.695574
LJ           1.19816        0.607395           0.837
LJ         -0.220582         1.70455        -1.26083
LJ           1.42117        -0.56358        -1.43052
LJ           2.12845         2.33682        -2.11752
LJ           2.13914        0.246447       -0.818466
LJ          -2.00609       -0.206948        0.443648
LJ           1.38434        -1.04528        0.774173
LJ           1.91729         1.17207        -1.03879
LJ            2.1898       -0.845523        -1.95492
LJ           1.86917         1.33339        -1.99218
LJ          0.642713        -1.90488        -0.27222
LJ         -0.358507        0.924263        0.518963
LJ         -0.385521         2.37743         1.52047
LJ          -1.24182         1.05717         1.46899
LJ          -1.99057        -1.51408       -0.561018
LJ          -1.60663         2.34515       -0.886511
LJ           -1.7074        0.838549        -1.14225
LJ          0.359032        0.964498        -2.15737
LJ         -0.940516        -1.80576         2.26192
LJ           2.22782          2.3161       -0.427245
LJ           1.39935         2.06058        0.764636
LJ           2.05229       -0.892505       0.0176289
LJ          0.752641        -1.97187        0.677087
LJ          -1.78393        0.585348      -0.0539862
LJ           1.84883        0.154372         2.08213
LJ         -0.714968         0.20235         1.59918
LJ          -2.36725         1.50408          1.8276
LJ           1.26417       -0.275917       0.0124164
LJ         -0.286118         2.27853       -0.418527
LJ           1.44529        0.993864         1.77364
LJ          -1.34204       -0.514524         1.18264
LJ          0.766077         1.18426        -1.29536
LJ          0.242275        -1.93133        -2.26822
LJ          -1.39669       0.0710277        -1.82371
LJ         -0.651911        -2.12632        -1.61189
LJ           -1.5878        -2.19099         -1.9603
LJ          -1.01879         1.55924         -1.8783
LJ            1.2476        -1.76875        -2.15261
LJ         -0.615966        0.766021        -1.38085
LJ           2.20385        0.900396         1.08787
LJ         -0.630955        -1.36831        0.332788
LJ         -0.421096        -1.04479        -1.97607
LJ         -0.748407         0.75762         2.37245
LJ           1.58295         2.08031         1.84702
LJ          0.091078         1.18632       -0.463595
LJ          0.622202       -0.881265         2.31649
LJ           2.20949        -1.27863         1.13057
LJ         -0.305419          1.2892         1.62541
LJ          -2.31213        -1.73669        -1.45897
LJ          -1.32036        -2.13398        0.934561
LJ          0.624031       -0.612241       -0.677511
LJ          0.597948        -2.22704        -1.29527
LJ         -0.897287         1.73686        0.781915
LJ          0.634449       -0.434297        0.986033
LJ          0.187076        0.456346          1.2572
LJ           2.32903        0.198819        -1.80895
LJ           2.06516        -1.63277         2.00812
LJ          -1.09102         1.52826       -0.488074
LJ          0.464886         -1.1959        -1.50815
LJ        -0.0934767        -1.62834       -0.885374
LJ          -2.05625         1.49229       -0.434791
LJ          0.172638         0.27329        -1.06834
LJ           1.17528        0.347602       -0.913402
LJ          -2.24244       -0.538416         1.85059
LJ          -1.77116        0.308079         1.79185
LJ           2.25032       -0.769464       -0.928786
LJ           1.39133        -1.42847       -0.765969
LJ           1.96783       -0.152061         1.15433
LJ          -1.81487         1.34041        0.610865
LJ         -0.715596        -1.39745         1.32896
LJ         -0.444696       -0.348009        0.822717
LJ          -1.80476        0.968963         -2.1517
LJ          0.584491         2.24285          1.7719
LJ           1.99824        0.382285        0.183951
LJ         0.0141758         2.01466        0.629167
LJ           1.35389         -1.8627         1.35915
LJ         -0.092735       -0.611249         1.68014
LJ           2.00079         1.50145        0.275329
LJ           2.33252        -2.35757         1.26323
LJ          0.615675          1.4396         1.17819
LJ         -0.117289         1.84915        -2.31228
LJ           1.21625        0.920265       -0.107812
LJ         -0.178053       -0.211551       -0.241606
LJ          -1.35598         1.91638         1.99776
LJ          -1.99547         1.74264        -1.55377
LJ          -1.18757       -0.723165         2.24303
LJ          -1.44316        -1.08417        -1.58917
LJ         -0.590499        -0.46282         -1.1077
LJ            0.8166     -0.00614062          1.8924
LJ          -1.75076         -1.4308         1.68869
LJ          0.345048         -1.5019         1.56632
LJ           1.25482        0.414317        -1.91568
LJ          -1.20087        -2.23841      -0.0298498
LJ          -1.74042        -1.18469        0.477693
LJ           1.63315        -2.30238        -1.29921
LJ          -1.14298       -0.416154      0.00623713
LJ            -2.024         2.27575        0.378757
