108
#Comment!
LJ           1.45413        -2.27682        0.012385
LJ          -1.06473        -2.22768         2.05289
LJ           2.14826        -1.68267       -0.746423
LJ          0.053916       -0.706813       -0.383901
LJ           1.17273         1.50732         1.25054
LJ           1.06017       -0.767746         1.46609
LJ           1.97191       -0.165738        -1.76253
LJ          0.380533        -1.73295       -0.170639
LJ            1.1739        -1.23772       -0.381377
LJ          -1.05124        -1.12358         2.35136
LJ          -1.14956         2.28907       0.0917625
LJ          -1.96436         0.31968         1.09239
LJ           1.97159       -0.284561       -0.782078
LJ           1.27085        0.814089        0.112641
LJ           1.91405         1.69252         1.94675
LJ          -1.68382       0.0307811       -0.893391
LJ           0.98748        -2.01341          1.7187
LJ           1.46479       -0.275107       0.0630369
LJ         -0.640272        0.476428       -0.405436
LJ          0.104382         2.15103        -1.10934
LJ         -0.573768        -1.84936       -0.650257
LJ          -1.54192        0.867157        -1.60207
LJ          0.655698         2.13171        0.627943
LJ           1.90243         1.65254        0.352656
LJ          -1.00369        0.887585          1.0796
LJ          -1.97126         2.08501         1.99205
LJ          -2.05727         1.92764       -0.623477
LJ          -0.97325      -0.0333996         1.68481
LJ         -0.425574       -0.375234         2.37665
LJ           1.81797         1.64754        -1.59657
LJ           1.96948       -0.162767         1.39518
LJ          0.296348        -1.34722        -1.05937
LJ          -1.87432         1.22114        0.402024
LJ         0.0196789         1.30369        -0.56852
LJ            0.5392        0.294462        -2.07497
LJ           -1.0761         -0.4487       -0.234364
LJ          0.549745        -1.85828        -1.98351
LJ           1.07895        -2.06193         -1.0717
LJ           2.24531        0.778473         -1.2058
LJ          0.737174         1.04765         2.00912
LJ         -0.398244        -1.06786        -1.66306
LJ           -1.0045           1.769         -1.0337
LJ         -0.827211         1.69823         1.58777
LJ           1.47061         0.78618        -1.86622
LJ          -1.32426        0.778515         2.15735
LJ         -0.888377         1.76483        -2.04257
LJ          -1.01125       -0.592773        0.866244
LJ           1.99813        -1.34534        0.174655
LJ          0.578286          1.2748        -1.38117
LJ          0.710268        -0.74522        0.499044
LJ         -0.513518        -1.22259        0.319964
LJ          -1.57366        -1.99861        -1.26456
LJ          0.724513         1.97766       -0.368311
LJ           -1.2581       -0.184292        -1.92546
LJ          -1.91276         1.74705        -1.59841
LJ          -1.64459         1.02955       -0.602058
LJ           0.13302         1.58426        -2.21229
LJ          -1.77657         -1.7682         1.51758
LJ           -1.2264       -0.971867         -1.1169
LJ           1.51823         1.40314        -0.60453
LJ         -0.895217        -1.47694         1.29458
LJ         -0.291931        0.721389          2.2665
LJ           2.17174       -0.860916         2.27844
LJ          -1.92814        -1.75204        -2.23183
LJ           1.26338        -1.54244        0.800287
LJ        -0.0165579        -2.21535         2.00283
LJ          0.341474      -0.0409847         1.73614
LJ           1.95193        -1.96363        -1.68513
LJ           2.33765        0.473722       -0.250112
LJ          -2.37193       -0.358159        0.446972
LJ           1.82861        0.754398        0.892601
LJ          -2.08404        -2.21952        0.326719
LJ          -1.90085         1.25265         1.48347
LJ           1.79179         2.27462         1.12603
LJ           -2.2126        -1.02585        -1.46081
LJ          0.466639       -0.720055        -1.99282
LJ          -2.36196         1.06138         -2.1504
LJ           1.31172        -1.31006        -2.29393
LJ          -1.78796       -0.595274         1.43778
LJ         -0.174928         2.10193       0.0235517
LJ         -0.576605        0.883661        -1.36897
LJ           1.31302       -0.275187         2.24595
LJ         -0.487406        -2.03804        -1.90923
LJ           1.55882        -1.07856        -1.38885
LJ         0.0379589        0.867244          0.2781
LJ         -0.803971         1.36384        0.153387
LJ          -1.55829         2.09962         1.06316
LJ          0.101043        0.707887         1.22418
LJ          0.810524       -0.429718        -1.08477
LJ         -0.396476        -2.35072         1.07693
LJ         -0.353375      -0.0936821        0.278047
LJ         -0.513848       -0.260505        -1.11231
LJ           2.06895        -1.80236         2.02488
LJ        -0.0553183       -0.696769         1.11912
LJ          -1.48643        0.320602        0.164669
LJ           -2.0638       -0.874536       -0.410099
LJ          -1.78327        -1.17916        0.651642
LJ           1.69452        0.791492         1.88342
LJ          0.119597         -1.2197         1.97312
LJ          -1.47864        -1.67336        -0.31804
LJ          0.177126         1.69495          1.5171
LJ          -2.07464       0.0292794         2.30371
LJ          0.388359        0.289347       -0.373907
LJ           1.01364         0.11592         0.96613
LJ           1.21436        0.505022       -0.943213
LJ           2.10895        -1.14933         1.17707
LJ           1.10578         2.13533        -2.25036
LJ          0.290527        -1.74773        0.875792
