108
#Comment!
LJ          -1.72588         1.97566         1.98008
LJ         -0.519518         1.62672          1.8292
LJ          -2.26414       -0.202749         1.11979
LJ          0.664561       -0.499566        0.372989
LJ           2.19489        -2.34831       -0.791545
LJ          0.188443         1.40057       -0.396409
LJ            2.2212        0.331596         2.08989
LJ           1.55213        -1.80193        0.224613
LJ           1.98117         1.03539        0.143474
LJ           1.30524         -1.8612       -0.820504
LJ          0.235414        0.826725         1.74932
LJ          -1.29104        -2.26739        -2.03314
LJ          -1.79592        0.949079        -2.37406
LJ          -2.13615         1.27497       -0.715562
LJ           2.20569        0.715135         1.03281
LJ          0.836337        0.436894        0.763563
LJ           1.89901         1.98484        0.141527
LJ           1.43974         1.60275       -0.899519
LJ          -0.91997       -0.988102        0.565943
LJ         -0.959212        0.604392         2.19234
LJ         -0.361712        -1.37098       -0.153488
LJ          0.267344         1.25393         -2.0587
LJ           2.26589         1.35929         1.82025
LJ           1.54129         2.08833         2.11207
LJ           1.14863        -1.22767        0.979299
LJ           1.97013       -0.326079       -0.913824
LJ          0.588875         1.85468         1.58092
LJ          -1.35548      -0.0381143        0.457043
LJ           1.82927       -0.457108        -1.97139
LJ           1.43524         2.31641        -1.65123
LJ         -0.910331         1.43219        -0.83686
LJ           1.06701         1.35671        0.114806
LJ         -0.649612        0.718038         1.11675
LJ          0.829754        -2.37824        0.772803
LJ           1.52575      -0.0848623         1.55796
LJ         -0.822622        -1.06671         1.64383
LJ         -0.216105         2.23015       0.0634345
LJ          0.796649       -0.130096        -1.55865
LJ          -2.20833        -2.12728        0.367274
LJ          0.263357       -0.953185         -2.1574
LJ           1.19561       -0.886973         2.08571
LJ          0.319124        -1.85088       -0.970817
LJ         -0.633605         1.67682        -1.78204
LJ          0.526608         1.98238         -1.4046
LJ            1.4938        0.468111        -1.97031
LJ         -0.119821        0.360172        -2.14276
LJ           2.14089        -1.50877        -1.75196
LJ          0.696709        0.162144       -0.368039
LJ          0.146493          2.2406        -2.28679
LJ           0.91642        0.747949         -1.1098
LJ          -2.17138         1.77983        0.973748
LJ          0.719316       0.0543982         2.16836
LJ           -1.1516          1.6181        0.986976
LJ          -1.10817      -0.0412437        -1.73479
LJ          -1.41696        -1.73451       -0.296098
LJ          -2.37439         2.19115        -2.07557
LJ          -1.58272         2.02201        -1.21106
LJ          0.117245        -1.37401        0.860911
LJ          0.616359       -0.441142         1.32311
LJ          -1.75874        -1.06812         1.10434
LJ           1.75022        -1.66325         2.00304
LJ         -0.949875        0.431897       -0.405304
LJ           1.92531        0.659339       -0.892358
LJ          0.623375        -1.41932       -0.099609
LJ          -1.72561        -0.34709         2.35884
LJ            -2.311        0.353381        -1.71701
LJ          -1.21014       -0.228134         1.40854
LJ        -0.0638812        0.584729        0.223757
LJ          -1.47173         1.95695       0.0785258
LJ           2.19259         -1.3634       -0.810991
LJ          -1.01498        -2.08803        0.632205
LJ          -1.75826       0.0704901       -0.932952
LJ          -1.49002        0.990602        -1.39265
LJ          0.737351        -1.78961        -1.87851
LJ           1.28694        0.870948         1.83251
LJ         -0.484954        -1.65241        -2.37512
LJ           2.20219         1.32375        -1.67246
LJ           1.37238       -0.775697       -0.311147
LJ           1.26937        -1.06441        -1.40914
LJ          0.615152        -1.62231         1.82168
LJ         -0.187249       -0.291655       -0.216261
LJ         0.0486312         1.41515        0.896123
LJ         -0.271382       -0.308008         1.86428
LJ           1.64913       -0.269216        0.585236
LJ          0.749238         2.21185       -0.248184
LJ          -1.94359        -1.65376         2.20196
LJ         -0.508299        -2.37838        -1.09932
LJ          -1.73898        -1.74435        -1.22481
LJ          -1.40696       -0.686919       -0.373438
LJ        -0.0735691        0.548432       -0.950243
LJ           2.25135       -0.759436         1.93866
LJ         -0.674778           1.355        0.148405
LJ           -1.5463        0.929579         0.36423
LJ         -0.260844       -0.481861        -1.35612
LJ          -0.75799        -1.35825        -1.16535
LJ           1.46056         1.34771        0.990099
LJ           1.70144        -2.38002         1.17744
LJ         -0.137382        -2.20298         1.38062
LJ          -1.10164         -1.0308        -1.96914
LJ          -1.92456       -0.793611        -1.50534
LJ          -1.19052        -2.03669         1.60331
LJ           1.25332         1.36073        -2.04369
LJ           -2.2673       0.0375328       0.0619868
LJ          -2.19405        -2.06557         1.35531
LJ          0.498429       -0.705863       -0.805244
LJ           -1.5712        0.760654         1.40188
LJ          -2.16811        -1.09186        0.163719
LJ         -0.260533       -0.187169        0.794058
