108
#Comment!
LJ           1.54138        -1.29242        0.876633
LJ          -2.21844         1.71217        -1.82244
LJ          -1.78961       -0.696758       -0.563291
LJ           2.18521        0.213997        0.882546
LJ          0.065793       -0.337534        -1.19112
LJ           1.33434        -2.08861       -0.800219
LJ          -1.16839         1.74948        -1.28942
LJ          -1.19703       0.0912051        -2.04139
LJ          -1.63732      -0.0690935        0.278497
LJ          -2.24935       -0.390097        -2.10616
LJ           -1.0175        -1.90946        -1.71666
LJ          0.476214        0.353817        0.604894
LJ           1.82907         1.86653       -0.434522
LJ          -1.07695        0.293213       -0.422291
LJ         -0.820261       -0.992718        -2.04853
LJ          -1.55264        0.921277        0.354465
LJ           2.10407       -0.740753       0.0539499
LJ          -1.56534       -0.681004          2.0324
LJ          -2.05633         2.17094       0.0194969
LJ           0.51286        -1.80108        -2.27482
LJ           1.60469        -1.13967        -2.15518
LJ          -1.68505        0.881038        -2.29789
LJ           1.27715         2.10184         1.78411
LJ         -0.799838        0.674458        -1.30148
LJ           1.83955         -2.0986         1.17981
LJ           2.26319          2.1344         1.96857
LJ          -0.78142         1.24224        -0.46029
LJ           1.54714         1.78911        0.851068
LJ           -0.8003        -1.30917       -0.774939
LJ         0.0109543        0.297155         -1.9353
LJ         -0.718351       -0.557143       -0.120154
LJ         -0.708317         2.24394       -0.644971
LJ          -2.16554         1.50549           1.201
LJ          -1.65509         2.29464          1.5532
LJ           1.41621        -2.06965        -1.83078
LJ           1.17413       -0.462319        -1.63211
LJ          0.118395         1.71128       -0.432959
LJ           1.01292        -1.48537      -0.0202605
LJ          -2.18523        0.436317       -0.407362
LJ          -1.24091        -1.99945       0.0148447
LJ           1.61019         1.11584        -1.29497
LJ          -1.20842         1.80679        0.335624
LJ          0.858824        0.414951         -1.1829
LJ           1.11146       -0.063505         2.22059
LJ           -1.2255       -0.334998         1.14794
LJ           1.24971       0.0200795         1.09159
LJ           1.34874        0.853549        0.548114
LJ          0.447312         1.96271        -2.38066
LJ          0.487932         1.46535        0.546052
LJ          0.714398       -0.772881         1.59355
LJ         -0.311604       -0.612286         1.89715
LJ             2.184        -0.14786        -1.16314
LJ           1.55674         0.29505       -0.477547
LJ           1.05404       -0.391323        0.289845
LJ           2.23274        -2.28641        -1.25401
LJ          0.167182         1.10458        -1.30911
LJ          -1.42118        -1.03237        0.435413
LJ         -0.714024        -1.44459         1.05161
LJ           1.71538       -0.686038         1.74715
LJ          -2.19997       -0.710249         1.12532
LJ           1.30571         1.14365         1.60991
LJ          0.836462         2.27044       0.0853633
LJ           2.35522          0.2001         1.87124
LJ          0.570385        -2.19932         1.08792
LJ          -1.70541       -0.995723        -1.54075
LJ          -2.22642        -1.53621         1.78465
LJ           2.08098          0.4882         -1.9271
LJ         -0.592203        -2.37957         1.34756
LJ          0.886673        0.830614        -2.17984
LJ          -2.11949        -1.55261       -0.186749
LJ          0.214454       -0.732066       -0.148969
LJ         -0.452265         1.47052         0.94198
LJ         -0.169687         2.24778        0.341874
LJ           2.19131          1.1833         2.07645
LJ          -1.94748        -1.91913        -2.09552
LJ          -1.10273         1.30484         1.82145
LJ           1.12935         1.17181       -0.419443
LJ           1.82816        -1.09109        -1.03997
LJ           1.48186         1.64832         -2.0864
LJ         -0.100163        -1.44737        -1.46599
LJ         -0.994946       -0.396171        -1.27086
LJ           2.22085         1.18164        0.247693
LJ         -0.385305        -1.42309        0.135693
LJ         -0.577983        0.534291        0.709406
LJ          0.836993         1.85922        -1.13124
LJ          -2.11505         1.39055       -0.722824
LJ         -0.223408         2.00991        -1.47333
LJ          -1.63155        -2.05765       -0.910893
LJ          -1.17062          -1.593         1.94914
LJ          0.120369        -1.52442         1.66374
LJ            1.8238        -2.09185        0.179295
LJ          0.349265        0.560381       -0.342405
LJ          -2.07127          -1.811         0.88828
LJ           1.18785        -1.61126         1.80097
LJ          0.355868         1.53275           1.517
LJ          0.462166        -1.28273        0.755343
LJ         -0.423806          1.1372        -2.15773
LJ           0.37291        0.435421          1.5492
LJ           1.04363       -0.569937       -0.652467
LJ         -0.187044       -0.563769        0.906257
LJ          0.848344        -1.34229        -1.30527
LJ          -1.40012         1.90946        -2.30884
LJ          -1.80548         0.59153        -1.34047
LJ          0.410737       -0.685784        -2.21125
LJ         -0.534593         2.23326         2.33396
LJ          -1.63535        0.580854         1.26471
LJ         -0.614647        0.412082         1.78832
LJ          0.167751        -1.91942       -0.532074
