108
#Comment!
LJ          0.265732       -0.877409        -1.67287
LJ          0.632403        0.127951         1.68131
LJ           1.09969       -0.400886        0.576521
LJ          -1.05525       -0.534878        -0.54109
LJ         -0.731211        -0.30371        -1.50053
LJ          0.553839          1.9817       -0.553295
LJ           1.67254         1.61356       -0.911986
LJ         -0.906184         2.06005        -2.17523
LJ            1.4079         2.33163        0.198992
LJ         -0.582183        -1.60035         1.31543
LJ           2.11925        -1.34199       -0.722458
LJ          -2.19887        -1.22699        -1.89184
LJ          0.589312        0.105264        -1.66963
LJ          -1.55814        -1.90718        -1.55096
LJ          -1.28563         2.35632       -0.438584
LJ          -2.21676       -0.517249         0.88895
LJ          -1.35465        0.134179         1.03773
LJ           1.81477       -0.997056         2.23953
LJ           2.26765        0.753467       -0.593617
LJ        -0.0536419        -1.28852         2.12084
LJ         -0.543019         -0.5491         1.44507
LJ          0.332639        -1.73339        0.722469
LJ           2.12926       -0.348157        -1.63334
LJ           2.22291        -2.15052        -1.58194
LJ         -0.619925        -1.32974        -1.55151
LJ           1.20915         1.31161       0.0734095
LJ          -0.09072         0.14913        0.779025
LJ          -1.41037        -1.06983         1.31827
LJ          -1.92335         1.49556       -0.589308
LJ           1.82547        -2.00664         2.07378
LJ          -2.36059        -1.48902         1.32242
LJ         -0.961809        0.840258        0.323129
LJ         -0.900871         1.83556        0.741241
LJ        -0.0784804        -2.03837        -1.95278
LJ          -1.97471       -0.258067       -0.890032
LJ           1.96928        0.394041        0.760404
LJ         -0.786764        0.618453        -1.97429
LJ          -1.51607         1.25106        -2.27153
LJ          -1.07158        -1.72368        0.355441
LJ          0.668432         1.74242         2.38097
LJ          -1.93185        -2.31983        0.265604
LJ          -1.95515        -2.36475         2.32293
LJ           1.51874        0.264692        -2.18327
LJ         -0.147797         1.51109        -1.69944
LJ           1.32883         1.30821         -1.8019
LJ         -0.531169        -1.49485       -0.556045
LJ           2.19181        -1.53974        0.343517
LJ          0.571185        0.975393         -1.1977
LJ          0.910436       -0.554034         2.35547
LJ         -0.325586        0.429737         1.70075
LJ          0.533911       -0.854897         1.25866
LJ           2.25623         2.37278       -0.554535
LJ          -2.22496        0.547016         2.25733
LJ         -0.643272         1.63732        -0.22036
LJ          -1.69795      -0.0345665       0.0744566
LJ         -0.100679         1.23412        0.926107
LJ            1.8186        0.889713         1.59361
LJ          -2.05814       -0.604968         1.99547
LJ          0.194351         1.01598      -0.0948059
LJ          -1.87976         1.72613        -1.48985
LJ          -1.02161        -1.74841         2.24721
LJ           2.16625         2.37998         1.05181
LJ           1.43528        -1.59881        -1.85022
LJ           1.48615         1.80702         1.84762
LJ           1.41226        0.350928       -0.124849
LJ           1.58853         1.51824        0.873684
LJ           2.02988       -0.425724      -0.0311589
LJ           1.24781        -2.18026         1.11515
LJ         -0.961259         1.48649        -1.18496
LJ           1.18481       -0.694543        -1.36828
LJ           1.42452        0.424066        -1.10424
LJ           1.76593       -0.179748         1.64448
LJ           1.03269       -0.648614       -0.437103
LJ          0.838596         2.14107        -1.49637
LJ         -0.174992       -0.212102        -2.34895
LJ           -1.4958        -2.05548         1.13388
LJ         -0.393268        -2.32686        -1.05442
LJ         -0.894035       -0.638217        0.453179
LJ           1.34325        -2.16907       -0.820622
LJ         -0.409367       0.0414461       -0.129392
LJ         -0.231347         1.57096         1.97012
LJ           0.54254        0.203838       -0.524266
LJ          -1.28437        0.445497       -0.672797
LJ           2.14713         1.59613       0.0269206
LJ           1.51411        -1.02226         1.10974
LJ          -1.74028         1.44466        0.387198
LJ          0.307987       -0.856594        0.155572
LJ          -1.67104        0.185785        -1.74044
LJ           1.13316        -1.44618         0.18654
LJ         -0.762043         2.25919         1.59738
LJ          0.737764         1.29282         1.46409
LJ           2.19468        0.891183        -1.58328
LJ           2.30804         1.53401         2.28698
LJ          -0.30083        -2.26363       0.0803847
LJ          0.402877         0.81202        -2.37758
LJ          0.729489        0.674481         0.74373
LJ          -0.34925        0.505145        -1.09623
LJ          -1.04052         1.07124         1.38126
LJ          0.482229        -1.83166        -1.06501
LJ          -1.24544       -0.831442        -2.17788
LJ          -1.69508           1.853         1.54583
LJ          -1.15268       0.0396351         1.99146
LJ          0.565226         2.00724        0.554894
LJ          -2.02839         0.91084         1.17045
LJ          -1.72059        -1.21729       -0.169078
LJ          0.435129         2.23889         1.56457
LJ         0.0752768        -0.70645       -0.752662
LJ          0.927275        -1.55394         1.85542
