108
#Comment!
LJ           1.50081         1.44686         1.29429
LJ         -0.546347          1.0457        -2.22325
LJ           0.29039         -2.1734        -2.03648
LJ           2.15334      -0.0518576         1.93392
LJ          -1.05976       -0.690938       -0.371035
LJ           1.17631        -2.04251         2.11442
LJ           2.11812       -0.836285        -1.45469
LJ           1.43785         -1.5726        -1.31705
LJ          0.344788         2.35325        -1.04192
LJ            2.2748        0.360881        -1.94212
LJ          -1.05817       0.0344243         1.00089
LJ           0.28236       -0.633972      -0.0291488
LJ         -0.140993         -1.5698        0.992276
LJ           2.23294        0.914838          1.7319
LJ         -0.536368         2.20432       -0.470348
LJ           2.24265        -1.53355        0.827859
LJ         -0.391113         1.22427         1.55239
LJ           1.35607       -0.216467        -1.90748
LJ           2.03995        -2.27793         1.55412
LJ           0.73734        0.753425        0.553552
LJ           1.91405         -1.0768         2.28769
LJ          -1.71176        -2.27332          1.5625
LJ          -1.55715        -1.27567         1.05746
LJ          -1.03176         1.91309          2.3728
LJ        -0.0662598         1.27301         0.23193
LJ          -2.08401         1.98963         2.34932
LJ          -1.07565       -0.724613        -1.45464
LJ           1.84138         1.21583        -2.12805
LJ          0.118182       0.0752393        -2.32419
LJ          0.762168       -0.370962       -0.902515
LJ          0.396343        -1.35206         1.85624
LJ         -0.176724         2.26454            1.96
LJ         -0.649441        0.151303       -0.943764
LJ           1.56656        -1.81763       0.0957717
LJ           -1.2764       -0.678409         1.83036
LJ            1.8792       -0.623048         1.17177
LJ          0.378935          1.3369         -2.0085
LJ           -2.1068         1.77437         1.04095
LJ           1.28684       -0.621067        0.339241
LJ           1.13189         0.60912         2.01992
LJ         -0.124921       -0.563321         1.48919
LJ          0.724294        -1.52809        0.414738
LJ            2.0598        0.124562        0.217687
LJ          -1.84424        -1.22076       0.0513856
LJ           2.14837        -1.80099       -0.654524
LJ           1.51914        0.358779         1.09503
LJ          0.781939         2.26764         1.21121
LJ        -0.0677086        -0.42866        -1.41449
LJ          0.164643        0.580289        -1.45356
LJ          -1.77608        -1.81915        -1.69334
LJ          -1.65922         1.01501        0.155162
LJ           1.43005         2.21965       -0.780228
LJ          -1.82861        -1.13122       -0.959139
LJ         -0.679184         2.30457         1.14522
LJ          -1.37543         1.31269         1.68559
LJ           1.16447          2.1535        -1.78583
LJ         -0.681295        -1.72008        -1.83253
LJ           0.11299        -1.42294        -1.33599
LJ          -1.66495          2.1173       -0.516477
LJ          -1.22471         1.90535        0.419261
LJ           1.35542         1.10594       -0.329318
LJ          -1.85357        -2.11778        0.339185
LJ           0.54479         1.30947         1.39465
LJ           1.15362        0.599717         -1.3498
LJ         -0.827309        -1.65733         1.85518
LJ           1.79352         2.10069        0.532302
LJ            1.7764         1.34455        -1.19622
LJ         -0.184088        0.303059        0.480094
LJ            1.8896        0.040855       -0.967174
LJ          -1.09208        -1.79318         -0.8657
LJ          -1.83613         1.12753       -0.792187
LJ         -0.245282         -1.5271       -0.423309
LJ           1.42046        -1.46144         1.37735
LJ          -1.94491        0.546781        0.973072
LJ          -2.00834       -0.549147        -2.17916
LJ           1.48763       -0.904103       -0.569285
LJ          0.176176        0.566163       -0.477502
LJ          -1.84972        -1.41757         2.10076
LJ           2.09493         1.10832        0.433774
LJ         -0.909856        -1.82933        0.344504
LJ          0.829936        -1.12599        -2.02214
LJ          -0.38934       -0.868906        -2.35189
LJ           1.15402        0.206589       -0.167376
LJ           -1.9226       -0.445654        0.671087
LJ          -1.12451        0.837748        -1.40973
LJ           1.14028         1.72101         2.07204
LJ          -1.71755       0.0927967        -1.15768
LJ          0.782147        -1.66661        -0.56116
LJ          0.773163           1.489        -1.10425
LJ        -0.0602611        -2.35801        0.391574
LJ          0.870439         2.03012        0.183161
LJ           2.26805         2.18609        -1.31867
LJ          -1.21621        0.203041       -0.136364
LJ         -0.537491        -0.80113        0.618136
LJ          -2.15643       -0.398261       -0.417023
LJ           -1.4977        0.309694         1.86826
LJ         0.0769846        0.397615         1.48425
LJ          0.539778       -0.273388         0.86886
LJ           1.14604       -0.534554         1.86626
LJ         -0.174133         1.34101        -1.01379
LJ          -1.05344      0.00380417        -2.03507
LJ         -0.861846         1.25917       -0.350496
LJ          -1.80109          1.0567         -2.1844
LJ          -1.54932         1.91249         -1.4763
LJ           2.13915        -1.99874        -2.22106
LJ           2.24489         1.63921        -0.33937
LJ         -0.952901          1.0069        0.823652
LJ         -0.439774         2.12738        -1.57709
