108
#Comment!
LJ           1.18633         1.59063         1.18695
LJ         -0.373518         0.72269          2.2241
LJ          0.303918        -2.16395        -1.71285
LJ            1.6964       -0.025284         1.61031
LJ          -1.00362       -0.805132       -0.807178
LJ           1.00928        -2.25887         2.15011
LJ          -2.30613       -0.629864        -1.56329
LJ           1.67345        -1.24737        -1.62302
LJ         0.0846844        -2.09639        -0.72726
LJ           1.91326        0.481162        -1.98856
LJ         -0.749261        0.476546         1.19728
LJ          0.397695        -0.71492       -0.487265
LJ          -0.25145        -1.17241        0.785338
LJ           1.77191        0.920661         1.64414
LJ          -0.80476         2.20895       -0.551388
LJ          -2.36418        -1.86057           1.465
LJ         -0.482182         1.39425         1.52502
LJ           1.27125       -0.291028        -1.86355
LJ           1.79882         2.22266          1.6622
LJ          0.497802         1.03112        0.541592
LJ           1.84739       -0.812665         2.26957
LJ           -1.5767         2.33955         1.60861
LJ          -1.45001        -1.45134         1.26213
LJ          -1.02314         1.64374         2.32958
LJ         -0.286741         1.56435        0.209696
LJ          -2.24552         2.04268         2.32831
LJ            -1.207        -1.05605        -1.88698
LJ           1.65481         1.51879        -2.27662
LJ          0.105181       -0.152062        -2.32565
LJ          0.461323       -0.584219        -1.44254
LJ          0.420551        -1.47153         1.57082
LJ       -0.00981619        -2.21214         2.07757
LJ          -0.85009        0.172652       -0.729433
LJ           1.59993        -1.48386        0.205676
LJ         -0.958791       -0.436833         1.68389
LJ            2.1311       -0.843994         1.01288
LJ        -0.0916303         1.47166        -1.95288
LJ          -2.21533         2.08862         0.92441
LJ           1.57742       -0.257062        0.300307
LJ          0.946892        0.606243        -2.27311
LJ        -0.0343381       -0.267028         1.28849
LJ          0.915155       -0.889566        0.739944
LJ           2.19875        0.580941       -0.130619
LJ          -2.27749       -0.644363        0.107238
LJ           2.01333        -1.79536       -0.783795
LJ           1.26741         0.44312        0.852464
LJ           0.98996         -2.0176        0.956911
LJ          -0.58744       -0.330224        -1.67148
LJ          0.185544        0.621863        -1.58828
LJ           -1.8836        -1.76926        -1.69636
LJ          -1.95733         1.49702        0.203773
LJ           1.09959        -2.29983       -0.534887
LJ          -1.91544         -1.0415       -0.696617
LJ         -0.669281        -2.27143         1.18864
LJ          -1.86104         1.24201         1.58431
LJ           1.25545        -2.16323        -1.65349
LJ         -0.230899        -1.26952        -1.60344
LJ           0.90048          -1.458        -1.04137
LJ          -1.77758         2.21652       -0.565716
LJ          -1.32505         2.25534        0.549654
LJ           1.20847         1.08377       -0.344999
LJ          -2.16542        -1.77334        0.473049
LJ          0.251039         2.12843         1.04255
LJ           1.21179        0.793238        -1.26288
LJ         -0.968874        -2.11229           2.331
LJ           1.68101         2.24104        0.403542
LJ           2.10912          1.2606        -1.36531
LJ         -0.508985        0.578936        0.198698
LJ             1.981       0.0644904        -1.02804
LJ          -1.26118        -1.77742        -0.97174
LJ           -1.9329         1.16305       -0.731705
LJ         -0.380344        -1.39296       -0.297106
LJ           1.46337        -1.41917         1.56448
LJ          -2.36161       0.0793364        0.759205
LJ          -2.06337        -0.49745         1.91712
LJ           1.72969       -0.798061       -0.606917
LJ          0.081666           0.625       -0.611834
LJ          -1.76846        -1.45085         2.15065
LJ           1.97918         1.16335        0.605469
LJ          -1.22952        -1.33594        0.130839
LJ          0.766581        -1.24514         -2.1195
LJ         -0.387795        -1.22418         2.11162
LJ           1.03406       0.0650755       -0.651393
LJ          -1.49883       -0.496603        0.711329
LJ         -0.871481        0.812128        -1.64923
LJ          0.656049         1.48511         2.11683
LJ          -1.89557        0.401733        -1.36332
LJ          0.613315        -1.66192        0.120234
LJ          0.989842         1.77665        -1.21253
LJ         -0.154447        -2.22678        0.190991
LJ          0.745748         1.92905        0.197745
LJ           2.24952         2.28731        -1.42862
LJ          -1.54291        0.494289        0.319499
LJ         -0.492293        -0.42812         0.11184
LJ          -1.79168      -0.0635202       -0.478338
LJ          -1.64755          0.1875         1.40745
LJ          0.482152        0.675317          1.4682
LJ          0.524178      -0.0470204        0.349928
LJ          0.896419       -0.626716         1.64825
LJ        -0.0422911         1.60028       -0.831256
LJ          -1.38472       0.0179471        -2.19746
LJ         -0.927445         1.18484       -0.701501
LJ          -1.90441        0.910622         -2.2468
LJ          -1.73766         1.71582        -1.62923
LJ           2.01418        -1.88342        -2.30962
LJ           2.03895         1.99133       -0.462767
LJ          -1.10797         1.27444        0.728056
LJ         -0.630966          2.1989        -1.52222
