108
#Comment!
LJ          -2.36081        -2.34305       -0.148427
LJ         -0.478685         1.93392       0.0522283
LJ           2.23399       -0.700148         1.02651
LJ          -1.18783        -1.75539        -2.34736
LJ          0.681556        0.156415        -1.97432
LJ          -1.44936         2.00141       -0.460238
LJ          -1.90637         1.56518         1.18392
LJ           1.18858          1.1308       -0.101999
LJ          0.346606         2.14658        0.614366
LJ          0.179564         1.48344         1.52914
LJ         -0.827039         1.16877        -1.88647
LJ         -0.039327        0.831702         0.52785
LJ           1.56115        -1.82359        0.291977
LJ         0.0270013       -0.740667        -1.80111
LJ         -0.688364         1.86924         2.14975
LJ         -0.616055         -1.0376         1.07775
LJ          -1.44517       -0.914385        0.497126
LJ         -0.664925       -0.854101        -0.08481
LJ            1.8678          1.1248        -1.36716
LJ          -0.70011       -0.428404        -1.18517
LJ         -0.259617        0.491343        -1.35955
LJ           1.66776       -0.414725       0.0913594
LJ           1.25548          2.0206        0.161802
LJ         -0.761183         1.82552          1.0557
LJ          -1.72579        0.329759         1.33279
LJ          -2.29775        0.687832        -2.20997
LJ           2.34674        -1.22679      -0.0486517
LJ          -0.87056         2.12115        -1.59956
LJ           1.24825       -0.559748         1.66565
LJ          -1.39566       -0.101647        -0.39588
LJ          -0.46553        -2.02417         1.37814
LJ        0.00500588        0.705508         2.21936
LJ          0.170713         2.19377        -1.31608
LJ          0.911817        0.120151       -0.286268
LJ           2.19062         2.36209          1.3974
LJ           -1.7581         1.30043        -1.54416
LJ            -2.203         0.46667        -1.16881
LJ           2.11692         1.53745       -0.356783
LJ         -0.460891         1.40525       -0.900946
LJ          0.700335        -1.78528        -1.75257
LJ          -2.14206       -0.163834        0.305173
LJ          -1.42231        -2.22502         1.50121
LJ           -1.5482          -1.583       -0.178743
LJ          -1.72853       -0.934974        -2.11297
LJ           1.75861        -1.46942         1.53922
LJ         -0.555109       -0.955799         2.12731
LJ          0.326433       -0.359417         2.04417
LJ           2.07633       -0.489298       -0.912512
LJ           1.02305        0.734543          1.8119
LJ         0.0991989       -0.290422       -0.621985
LJ           2.00898         0.52435       -0.283158
LJ           1.08334        -2.14011         1.08256
LJ          0.159744        0.315228         1.39432
LJ           1.11687         1.05591        -1.98138
LJ          0.926706         1.37896        0.846973
LJ         -0.228298        -1.96644        -2.11708
LJ          -1.37251         1.42485        0.362225
LJ         -0.600294      -0.0423989        -2.13652
LJ           1.15587       -0.915676        -2.16852
LJ          -1.61954       -0.734093         1.47347
LJ         -0.992135        -1.37398        -1.40713
LJ           1.52907        0.204384        -1.29174
LJ          0.416903        -1.36022         2.05249
LJ           0.43485         2.37921         2.10935
LJ          0.347433        -2.20669       -0.371026
LJ           2.28522        -2.04141        -2.11595
LJ         -0.745243        0.903658           1.376
LJ         -0.385017        -1.73231        0.248485
LJ           -1.5754        0.908683       -0.542445
LJ           2.00711         1.65345        0.618124
LJ          -1.03627        0.309827        0.574018
LJ           1.85606        0.228969        0.949748
LJ         0.0356199        -1.43546       -0.980039
LJ          0.320432        -1.51094         1.00209
LJ           2.15465       -0.603678         2.02785
LJ          0.380605         1.60548       -0.305618
LJ           1.46273        -2.20281       -0.649584
LJ            1.3258         1.74079         1.63415
LJ           -2.1519        -1.68438        0.834915
LJ          0.135781         1.49537        -2.06596
LJ           1.21474         2.05551        -1.84559
LJ         -0.316971        0.526124       -0.372047
LJ          0.910941       -0.657835         0.68532
LJ           0.95697        0.394451        0.725008
LJ           2.17356         1.80475         2.22437
LJ          -1.65835        -2.10888        -1.27838
LJ        -0.0842683       -0.340614         0.55904
LJ           1.14967         1.67476       -0.975933
LJ          -1.43924         -2.3758        0.449703
LJ           2.07187        -1.04118        -1.81058
LJ          -2.04915        -1.60883         1.88438
LJ           2.05017         1.04483         1.43642
LJ           1.40589        -2.15662         2.10665
LJ           1.27532        -1.24862       -0.504397
LJ          -0.70357       -0.142236         1.47988
LJ          0.830427       -0.630959        -1.23635
LJ            2.2135         2.09141         -1.3064
LJ          -1.68145         2.11299        -2.19057
LJ           2.26476         -1.6166        -1.03933
LJ           -1.7822       -0.872875        -1.02794
LJ          0.575702        0.869173        -1.00482
LJ           1.64778         0.13278        -2.34937
LJ          -1.38027        0.993716         2.13804
LJ            -1.379        0.291241        -1.61054
LJ         -0.742514         -1.9743       -0.663998
LJ          -1.51207      -0.0482441         2.18908
LJ          -2.16133        0.826315        0.467659
LJ          0.472426        -1.30882       0.0364581
