108
#Comment!
LJ         -0.541133          1.5971       -0.325688
LJ         0.0182498       -0.551884        0.772729
LJ          -0.72057           1.673        0.684378
LJ          0.361647         1.51919       -0.953017
LJ           1.71242        -1.39315        0.182421
LJ          -1.61053        -1.93827        -1.19597
LJ             1.966        -1.91688         1.25826
LJ           1.01582        0.175707       -0.981425
LJ           0.69758        0.249559         0.24215
LJ          0.236495        0.702971       -0.490159
LJ           1.92125        0.787109        -1.28782
LJ           1.88358        0.501575      -0.0333756
LJ         -0.846288        -1.39461        -1.80198
LJ          -1.57835       -0.359852        0.998535
LJ          -1.79263        -1.26363        -2.10286
LJ          -1.27657       -0.438947         2.30999
LJ          0.737537         1.54552        0.100182
LJ          -2.14312        0.228692         1.63818
LJ         -0.992819         1.65271        -2.02556
LJ           1.26921        -1.60899         2.00768
LJ           1.98248        -2.10651        -1.57428
LJ          -0.71486        -1.15463         1.87114
LJ          0.182088        -1.23262         -2.1991
LJ            0.6699       -0.741008        -1.40811
LJ         -0.478201        0.991627          1.4942
LJ         -0.959773        0.558765        -1.84148
LJ           1.31582         2.22711         0.58661
LJ         -0.123169       -0.281846         2.29331
LJ          -1.37279        0.846115         1.03922
LJ          -1.92273        0.295601        0.223819
LJ             1.029        -1.66139        0.983989
LJ          0.675109         1.20158         1.06772
LJ          -2.37615         1.72352        -1.27113
LJ          -1.29169       -0.973552       -0.675863
LJ           -1.2738        0.809061       -0.342548
LJ           2.20634        -1.92015         2.25453
LJ           1.33652        0.227926         1.37772
LJ         0.0954124         -2.3029       -0.467659
LJ          0.943042         1.23482         2.15381
LJ          -2.03003        0.164142        -2.03019
LJ         -0.785377        -1.88023       -0.284459
LJ           0.18572         1.61616        -1.94573
LJ            1.8632        0.863004         2.35123
LJ           1.23985         1.07764       -0.620839
LJ          -1.90829          2.1494        -2.01777
LJ          0.296842        -1.89838         1.78501
LJ           -2.1887        0.157525       -0.828111
LJ           1.71851          1.4502          1.5617
LJ          0.122225        0.271889        -1.42174
LJ          -1.23483        0.493291         2.03369
LJ          -1.22942         1.72699         1.58337
LJ           1.01551       -0.737448        0.587824
LJ         -0.434424       -0.499415         -1.5117
LJ          0.274163         2.12428        0.769343
LJ          0.638265        -1.55762      -0.0185287
LJ        -0.0527573        -1.55878        0.664825
LJ           1.81552       -0.107351        -1.73593
LJ          0.368915        -0.51471       -0.232537
LJ          -1.76407        0.920057        -1.36911
LJ          -2.18826       -0.751411        -1.15358
LJ           1.07138        -1.68227        -1.72466
LJ           -1.3717       -0.313143        -1.48449
LJ           1.18692        -2.15583       -0.622919
LJ          -2.01144         1.63493        0.789034
LJ         -0.405213        -2.33416        -2.25979
LJ           -2.2159         1.24804       -0.388166
LJ          -1.40707        -2.04484         2.09105
LJ          0.688622       -0.827626         1.52665
LJ           2.21375        0.761048        0.924812
LJ         -0.437886         1.08279        -1.17008
LJ           1.88718       -0.238494        0.686959
LJ        -0.0689927        0.850515        0.524639
LJ           2.18143        -2.30801         0.25316
LJ           1.87978        -1.12407        -1.85229
LJ            1.0825         1.14188        -1.62565
LJ           1.66721       -0.914426         1.37382
LJ         -0.576478        -2.02413         1.38818
LJ       -0.00409919         1.90885         1.69019
LJ         -0.533331       -0.903595       -0.027542
LJ           1.87114         1.43487        0.380071
LJ           2.22839         -1.8143        -0.67248
LJ          -1.94151          1.1922          2.0407
LJ          -1.44514         1.94286      -0.0601142
LJ        -0.0561824        0.774186        -2.32648
LJ          -1.37385         1.79934        -1.06896
LJ           1.04508         2.21387         1.54043
LJ          -0.96659       0.0727964        0.315577
LJ         -0.175714        -1.40306       -0.953074
LJ           1.43238        -1.15521       -0.933204
LJ           0.28854        -2.30671         -1.4554
LJ         -0.714039        -2.25398        -1.28488
LJ          0.932349        0.342815        -2.17395
LJ           1.72867       -0.418438       -0.305921
LJ          -2.10407        -1.19421        0.735216
LJ          -2.04089       -0.723349       -0.146456
LJ          -2.21741         2.08925          1.6545
LJ         -0.508642      -0.0699576       -0.542213
LJ          -1.53675         -2.2243        0.754445
LJ         -0.600756       -0.132729          1.4329
LJ           1.88052         1.91756        -2.33574
LJ            2.3075       -0.655396         2.05313
LJ           1.78954         1.84286       -0.530185
LJ           1.12576       -0.632719        -2.37109
LJ          0.370748        0.401423         1.57949
LJ          -1.70507        -1.19054         1.68619
LJ          0.886896         2.23821        -2.26656
LJ          -1.10236        -1.21176        0.794324
LJ           -1.7224        -1.66601       -0.114621
