108
#Comment!
LJ          0.754474         1.30962        0.215745
LJ          -1.71176          1.4446         2.06231
LJ           1.87761         1.74113        0.618489
LJ          0.482511        0.798332        -1.53923
LJ          0.291881         1.75813         1.56906
LJ         0.0768021          2.0333       -0.102615
LJ           1.58575        0.914479         -1.3568
LJ          0.951558     -0.00639795        -1.26362
LJ         -0.468629       -0.787095         0.80754
LJ           1.42221       -0.756673         2.30423
LJ          -1.31685        0.845173        -1.74917
LJ           1.35049       -0.695072         1.34958
LJ          -1.44067         2.33354         1.49711
LJ           2.28766          2.2207         1.81841
LJ          -1.96431         2.30467        -2.07227
LJ           2.10099         -1.2609        0.899078
LJ          0.332905       -0.244287         1.29429
LJ         -0.201452         0.58972         1.59041
LJ           -1.5406        -1.42026       -0.294577
LJ           2.13119          1.2386        -2.26569
LJ           2.14343        0.534833       -0.556345
LJ          0.535271       -0.183218         2.30803
LJ          -1.03708       -0.571702        -0.72239
LJ          0.979247         2.26613       -0.128102
LJ          -1.99589       -0.794949         0.32157
LJ          0.848623       -0.129847       0.0412425
LJ          -2.37116          1.2346         1.24175
LJ           1.66648        -2.07059        0.473242
LJ         -0.420259       -0.986049        -2.20435
LJ           -1.3957         1.43786        0.855928
LJ          -1.09091        -1.87316        -2.22594
LJ         -0.323032         1.38661        0.632753
LJ          -1.50601         1.07365       -0.865842
LJ          -2.20257        -1.91828        -1.08875
LJ           1.84894         2.20592        -2.02773
LJ           2.36876         1.65738        -1.38107
LJ           2.16258        -1.47756       -0.120984
LJ          0.841434       -0.875852       -0.744565
LJ           1.70729       -0.475479       -0.438077
LJ        -0.0479072        0.246503        0.463495
LJ           1.05773        0.704935       -0.535965
LJ         -0.472151        -2.33484        -1.58978
LJ           1.24304        -1.22278        0.170245
LJ        -0.0990215         1.24424        -2.17275
LJ          0.432485         1.94405        -1.73667
LJ           1.16898        -1.73779        -1.93885
LJ           2.20168       -0.233393        -1.27978
LJ           1.88858       -0.303378        0.538735
LJ          -1.08707         0.23729           1.169
LJ          0.105432       0.0793241       -0.594579
LJ          -1.51233       -0.635991         2.16229
LJ          -2.09972        0.448548        0.550251
LJ         -0.916314         2.26325        0.624789
LJ          -1.07756       -0.265961        0.224641
LJ           1.36629         1.65038         1.56406
LJ          -2.10728         2.33889       -0.246618
LJ          -2.23076        0.673161        -1.46931
LJ          0.791595        0.806294         1.97662
LJ          -1.25558       -0.216679        -1.81337
LJ          0.665687       -0.886575         -1.8115
LJ          -1.77032      -0.0176442       -0.521228
LJ          -1.22203         1.80653        -0.16193
LJ          0.467837       -0.991637        0.735876
LJ           1.72286         1.63399       -0.401499
LJ           1.69475        0.532755         1.46748
LJ        -0.0464506         -2.1252        0.896961
LJ           1.45404        0.323475        -2.22733
LJ          0.989421        -1.67363         1.21374
LJ         -0.491318         1.62004       -0.831984
LJ           1.66195        0.744166        0.458523
LJ          -2.17447         1.32458       -0.149962
LJ           2.23545       -0.310387         1.56782
LJ          -1.94959       -0.929199       -0.962709
LJ        -0.0812366       -0.818366       -0.129618
LJ          0.533279        -1.12546         1.99866
LJ         -0.535352       -0.451028         1.75974
LJ          -1.14874        -1.48363         -1.3146
LJ          -1.04335        0.499825         2.07608
LJ          -1.02668         1.71478        -2.02299
LJ          -1.40651        -1.67238        0.770554
LJ         -0.380963        0.277199        -1.96549
LJ          -1.40614         2.31307        -1.15808
LJ           1.16175         1.52887        -2.27192
LJ           1.66006        -1.09827        -1.25884
LJ          -2.20763        -2.26966        0.779052
LJ           1.30334         2.04834        -1.22885
LJ          -2.30749         -1.3698        -1.95133
LJ          0.972596         -2.3603         2.07479
LJ         -0.592498          -1.995       -0.253269
LJ           1.56805        -1.96156       -0.699047
LJ         -0.805671        0.334862       -0.871363
LJ          0.556936         1.59379       -0.878954
LJ          -1.45938        -0.76723         1.18182
LJ           1.93904        -1.49229         1.83391
LJ          0.420414        -2.18829       -0.934182
LJ           2.37437       -0.421139        -2.25079
LJ          0.684432        0.707279         1.01508
LJ        0.00312721        0.996174       -0.317757
LJ          0.851313         2.07974        0.898216
LJ         -0.420171        -2.37139         1.92477
LJ         -0.775946        -1.45777         1.66476
LJ         -0.167961       -0.710982        -1.14874
LJ          -2.08285        0.492194         1.97973
LJ         -0.786151         1.44573         1.63427
LJ          0.382796        -1.68913      -0.0566921
LJ          -1.22034        0.766847      0.00558372
LJ          -1.81414        -1.52516         1.78424
LJ          0.178741        -1.73814        -2.00522
