108
#Comment!
LJ          0.357153        -1.22319        -2.37021
LJ            2.1866        0.492888        -2.34656
LJ          0.622418        -1.07275        0.617475
LJ        -0.0266495        0.689666       0.0943256
LJ         -0.081035       -0.365862        0.400886
LJ         -0.591257        0.538822        -1.96553
LJ           1.50571         1.96136        0.425184
LJ           1.31854         2.19545        -1.69944
LJ           1.40128        -1.74074        0.426129
LJ          0.710093        -1.82138         1.26321
LJ          -2.07227       -0.559719       -0.661323
LJ           2.21721       -0.104165        0.736485
LJ          -1.12862        0.821026        -1.08409
LJ           1.26244       -0.777749        -1.18358
LJ           2.29942        -1.82606       -0.411232
LJ           2.07153       -0.152463        -1.60704
LJ          -1.61237       -0.344575        0.290304
LJ           1.28238        0.381047         2.08571
LJ          -2.06675         1.85168     -0.00469754
LJ           1.98572        -1.32774         2.28429
LJ          0.530926        0.886546        -2.24841
LJ         -0.144889       -0.974468         1.57222
LJ           0.80115        0.096323        0.166966
LJ          0.205557        -2.26603        -1.92735
LJ          -1.71073        0.215749         1.43253
LJ          0.869878        -1.52951       -0.460645
LJ         -0.533226          1.9137         1.43626
LJ          -1.85794        0.566281       -0.355012
LJ           1.57156        -2.31158         1.35879
LJ        -0.0720001        -2.09205         1.84126
LJ           2.19254        -1.34696        -1.49836
LJ           2.34002         1.48482        0.936492
LJ          0.492815         2.29932        0.166071
LJ            1.4701         1.51912         1.73845
LJ          -1.65086         1.58614       -0.820255
LJ           1.24225       -0.183717           1.042
LJ         -0.648218        0.379919         1.83953
LJ          -1.56889         1.81002        -2.04367
LJ           1.66222       -0.792373        0.158371
LJ         -0.357938         2.30612        -0.40906
LJ          -2.14299         1.65684         1.89933
LJ          -1.36455        -1.77459        0.966827
LJ           1.08781         1.39624        -1.02264
LJ          -0.55319        -1.78785        -1.08886
LJ          -1.70384        -2.11111        -1.03373
LJ          -1.34376        -1.25483       -0.230438
LJ          -1.88315        -1.62151          -2.216
LJ         -0.709064         2.00141        -1.37079
LJ           1.18926        -1.64643        -1.58283
LJ          0.657635         1.83752         2.21954
LJ           1.92928       -0.404311         1.70966
LJ         -0.658562         -1.2403         0.58149
LJ          -1.95828       -0.581131         -2.2781
LJ          0.182265         1.53759        -1.59314
LJ          -1.26988         1.17458          1.7023
LJ          0.021278         1.43527       -0.578125
LJ           1.19089        -1.88496         2.24739
LJ           1.69258      -0.0874272       -0.622973
LJ         -0.602588        0.959422        0.999692
LJ           1.49497        -2.29908       -0.785344
LJ           -1.5449        0.334939         2.33281
LJ        -0.0327073        -1.64362      -0.0836637
LJ           0.51306        -2.33888       -0.979701
LJ          0.691159         1.86468         1.20657
LJ           1.29752       -0.465365        -2.14543
LJ          0.894862        0.846737        0.814817
LJ           1.46006         1.27166        -2.06245
LJ           2.18039         2.36152        -2.27176
LJ          -1.08034          1.3355      -0.0277059
LJ          0.309841        -1.17215         -1.4228
LJ          0.325714       0.0686826        -1.65186
LJ          -1.44086         2.30578         1.69961
LJ         -0.316896          0.3268       -0.880304
LJ          0.633311        -0.11492       -0.745829
LJ         -0.603401        -1.30288        -2.10983
LJ          -2.21929        -1.88298         1.59207
LJ          -1.45817        -1.09561        -1.48612
LJ         -0.172021         1.65093        0.437134
LJ          -2.17826        -1.30713        0.435595
LJ          -1.73389        0.840317         0.61736
LJ         -0.841369       -0.275804         1.14739
LJ          0.210505        0.215344         1.13837
LJ           1.86433         1.54721       -0.435432
LJ         0.0884457         1.16084         1.64517
LJ          -1.75592       -0.868021         1.30571
LJ         -0.537902        -2.16259        0.552415
LJ          0.881434       -0.751818         1.75955
LJ          -1.73187      -0.0488722         -1.4028
LJ            1.7742        0.708715        0.188775
LJ         -0.831227        -2.29802        -2.30205
LJ           1.91639        0.650407         1.33501
LJ          0.976916           1.225      -0.0476682
LJ           2.12445        0.740005        -1.01638
LJ         -0.279595       -0.610051       -0.602602
LJ          -0.61774         1.49053        -2.26326
LJ          -1.25039        -2.28925       -0.124849
LJ          -1.98507         0.97804        -1.67669
LJ          -1.16659        -1.48614         1.85526
LJ         -0.575438       -0.416289         -1.5456
LJ          0.201445       -0.098452         2.13182
LJ           -2.3252        -2.33125        0.720716
LJ         -0.930581       -0.546708         2.10855
LJ           1.23926        0.444602        -1.42025
LJ           -1.4287         1.88489        0.789151
LJ          -1.14607       -0.110525       -0.543363
LJ           2.26904         1.75424        -1.38794
LJ         -0.930835        0.339286        0.326742
LJ           1.60315        -1.29177          1.3881
