108
#Comment!
LJ         -0.779618        -1.75039       -0.963256
LJ          -1.30073        0.631665         1.72866
LJ         -0.148999        -1.28797       -0.244529
LJ          0.589477      -0.0123107        0.889321
LJ         -0.315184         2.02098        -1.39275
LJ           2.09857        0.014991         2.23162
LJ          0.682012         2.11047        -1.38218
LJ         -0.385546        -2.13462        0.168143
LJ          0.852741        -1.67412        -1.46116
LJ           1.73434        -1.73469        0.426262
LJ        -0.0229421          1.6033       -0.497561
LJ            0.5409       -0.780227        0.295482
LJ           1.60221        -1.19479        -2.16076
LJ          0.495083       -0.821908        -2.04588
LJ           2.19585         1.11161       -0.674408
LJ          -1.36083        0.965724        0.717789
LJ          0.662662       0.0862915       -0.202918
LJ          -0.26396       -0.127623       -0.493162
LJ         -0.178101        0.384778        0.421226
LJ          -1.95141        -1.56094       -0.765232
LJ          -1.41569         1.86708        -1.58408
LJ          -1.35821          2.0397        0.600119
LJ           1.23634         1.89998        0.633486
LJ           2.20224          0.7142        -1.62878
LJ           1.69013         1.12713         0.99211
LJ           -1.9608        -1.74046        0.470367
LJ           1.99253        -1.66249         1.81608
LJ           1.48612       -0.334107         1.46961
LJ         -0.877523       -0.242028         2.08866
LJ          -1.10442        -1.46153      -0.0106211
LJ          0.586856         1.00675        0.589488
LJ             1.908        -1.12335        -1.14165
LJ           1.29871         1.67007         1.75279
LJ           1.12944         2.12893       -0.476521
LJ           0.14399       0.0466228         2.25045
LJ          -1.03812       -0.768286       -0.648157
LJ          -1.13935         0.16847       -0.996551
LJ          -1.17212       -0.826405        -1.70841
LJ          -1.93382        -2.13792         1.54656
LJ          -1.54967        -2.32061       -0.314053
LJ          -1.93718       -0.410121         1.63604
LJ          -1.57897          1.9356         2.15574
LJ           1.14256        -0.25072        -2.37644
LJ           2.08135         1.91063         2.32026
LJ          -2.00808       -0.706697        -2.17309
LJ          -1.10128       0.0505667        0.838393
LJ           2.20586        -1.04827         1.04506
LJ          0.926389       -0.649631       -0.943431
LJ           1.46847       0.0679024        -1.46086
LJ            1.0509        0.888371        -1.13735
LJ          0.740034         -2.0654        0.395786
LJ         -0.443484        -1.11734         2.30316
LJ           1.91101        -1.92781       -0.604763
LJ         -0.326263        0.937907        -1.16962
LJ          -2.24439         2.08706        -1.01374
LJ          -2.37698       -0.919738       -0.100997
LJ           1.07494        -1.43166       -0.288749
LJ          -2.17211         0.49771         1.20623
LJ          -2.30174       -0.338059        -1.28647
LJ           1.33961         1.15906      -0.0405695
LJ          0.584926        -1.65664         2.02218
LJ            2.1034        0.919386         2.09437
LJ           1.54199        -0.79612        0.253111
LJ         -0.547091         1.54946        0.372853
LJ           1.17433        -2.26454         -2.2316
LJ         0.0175248         -1.4857        0.742477
LJ         -0.892645        0.811117       -0.278667
LJ          0.318168         2.13261         2.11731
LJ          -1.72047         1.11633        -2.11764
LJ          -1.75773         0.91821         -1.1268
LJ           2.26827        0.850999        0.290722
LJ          -1.08436        -1.75972         1.09673
LJ         -0.746586         1.62038          1.3189
LJ         -0.432661       -0.173777        -1.72916
LJ          -2.15049        -1.99258        -2.20839
LJ          0.265066         1.32069        -1.89694
LJ            1.0997        0.608977         1.60865
LJ          -1.23963        -1.92551        -1.84845
LJ           2.26554         2.08764      0.00983513
LJ         -0.647473        0.717087        -2.23923
LJ           1.14305        0.957611        -2.23444
LJ           1.68608      -0.0956397       -0.546981
LJ         -0.520684         1.76355        -2.29719
LJ          -2.23955       -0.116461        0.450601
LJ           2.00999         2.25503         1.07009
LJ          -2.17311         1.52843         1.46534
LJ           -0.3007        -2.09592         1.52386
LJ         -0.495179       -0.876993           1.391
LJ          0.482225        0.121204        -1.51837
LJ          0.285013        -2.12704       -0.618091
LJ          -1.96114       0.0629393       -0.479156
LJ         -0.534746       -0.658563        0.368283
LJ          -1.66458        0.174132        -1.84693
LJ          0.458881       -0.734164         1.68167
LJ          -1.36144        -1.13005         1.94318
LJ           1.54275        0.176042        0.616371
LJ          0.133762         1.85743         1.02954
LJ          -1.72868         1.36937       -0.147878
LJ         -0.342879        0.473025         1.43037
LJ       -0.00165335        -1.19815        -1.21024
LJ           1.87226        -2.17892        -1.55139
LJ         -0.987639         1.75767        -0.69557
LJ         -0.245191        -1.91699        -1.95497
LJ          -1.58247       -0.844859        0.853897
LJ          0.250695          1.1627          1.8189
LJ           1.02117        -1.35401         1.06192
LJ          0.893751          -2.263         1.38906
LJ           1.71419         1.57505        -1.51003
