108
#Comment!
LJ           1.80832        0.243089        0.605347
LJ          -2.18418         -1.2668        0.527161
LJ           1.81517        0.024558        -1.68179
LJ           2.29335         1.49539       -0.184264
LJ          -2.38004        0.981434        -0.94904
LJ           2.16999         1.95939        0.885755
LJ           1.26104         2.21942        0.300106
LJ          0.412735       -0.745886        0.415671
LJ          0.354619        -1.75871        -1.56576
LJ          -1.77354         -2.0017        -2.02483
LJ           2.13576        0.852888        -2.10888
LJ           -1.2155        -2.28326         1.96697
LJ          -1.91233       -0.470317       -0.721527
LJ          -2.09523        -1.79998         1.43838
LJ          -1.75188        0.862118        -1.74637
LJ           1.92127       -0.569996       0.0604736
LJ         -0.440433        -1.56649          2.0267
LJ           1.41318        0.476731         1.50988
LJ           1.32326        -1.34201        0.181405
LJ           2.12423        -1.75755         2.26937
LJ          -1.69269        -1.49998         -1.1736
LJ           0.56481         -2.2847         1.73424
LJ          -1.87403         1.12914         2.02751
LJ           1.61278          2.0443        -1.54839
LJ          -2.24433       -0.867152         1.67644
LJ          -1.26209        -1.20835         1.30415
LJ          0.566362        0.999024          1.0553
LJ           1.69493        -2.02418         1.10672
LJ          -1.15094         1.70554        0.336826
LJ           1.06699        -1.65269       -0.829015
LJ          -2.17785       0.0898641         1.49838
LJ          -1.31276        -2.09253        0.779839
LJ         -0.332021         1.30823        0.717529
LJ           1.75262       -0.821626        0.969792
LJ          0.771794        0.464257       -0.732318
LJ           1.35011        -1.12736         1.81569
LJ          -0.42191          2.3446        -2.18712
LJ          0.792729         2.17633       -0.990865
LJ          -2.23666         1.71193         -1.6188
LJ          -2.24277        -2.27123        0.166802
LJ          -1.04273         2.28826       -0.474467
LJ          -1.26271        0.992022         1.25906
LJ         -0.421584        -2.37537         1.33815
LJ          0.562902         2.16932        -2.04612
LJ          -1.69575       -0.952709        -2.20803
LJ         0.0454253       -0.989772       -0.571318
LJ           1.23625        -1.63269        -2.00227
LJ           1.55131         2.13712         2.22957
LJ           1.11725         1.41443        -0.48386
LJ           1.84225       -0.764598         -1.0642
LJ           0.24686        0.305312        -1.50483
LJ          0.329632        0.963149       0.0532207
LJ          0.406124         1.27328        -1.19092
LJ          0.885183       -0.841692        -1.44795
LJ           -1.9615      -0.0528004         -1.6205
LJ           -1.2297        0.326399       -0.643202
LJ           1.75946         2.23679       -0.606007
LJ           2.17161        -1.88362        -1.44905
LJ           1.97936         1.27299         1.68414
LJ          0.279812        -1.63097        0.991912
LJ         0.0924635         1.59351         1.70976
LJ           1.80228        0.211299       -0.547123
LJ           1.20342         1.79485         1.37241
LJ          -0.13942       0.0912139        0.533191
LJ          -1.07898        -0.32922        0.103223
LJ         0.0148618         1.08754        -2.17394
LJ           -2.1161        0.861547        0.725398
LJ          0.468307        -1.79793       0.0411951
LJ           -2.2432          2.0448         2.09606
LJ          -1.11937      -0.0110015         1.38924
LJ          -1.48989        -1.68667        -0.11778
LJ         -0.735163          0.9396        -1.36009
LJ         -0.807139         -1.4492        -1.75551
LJ         -0.843744         1.56142         2.02036
LJ          0.727508       -0.170294         1.17972
LJ           1.50783        0.873765        -1.36793
LJ          0.386432       -0.956935        -2.29919
LJ           1.52576         1.28607        0.534221
LJ         -0.212619        -1.95288        -0.71996
LJ         -0.658296         1.37938       -0.450285
LJ          -1.08804        0.564044        -2.37524
LJ          -1.91725       -0.251157        0.646104
LJ           -1.2007         1.78537        -1.81332
LJ          0.945049        0.289818        0.279875
LJ          0.413377         2.05881        0.882372
LJ           2.25532        -1.45735       -0.405165
LJ          0.155509         2.04709       -0.254442
LJ         -0.943808       -0.863303       -0.909856
LJ         -0.169389       -0.811721         1.39613
LJ           1.82723       -0.260724         2.04648
LJ          0.990844        0.341902        -2.20613
LJ         -0.951371      -0.0242005        -1.55899
LJ          -1.69049         1.89601         1.31176
LJ          -1.01789        0.717303        0.306059
LJ         -0.504884        -2.06367        0.193096
LJ          0.150858      -0.0619424         2.08363
LJ         -0.326296         1.86356        -1.22062
LJ          -2.05477         0.43389      -0.0606558
LJ         -0.189479        -0.66544        -1.53002
LJ           2.02152       -0.973413        -1.99588
LJ          -1.97884         2.34324       -0.813824
LJ          0.982959       -0.559913       -0.394069
LJ           -1.5173         1.45901       -0.949525
LJ          0.938532         1.28672         2.18576
LJ         -0.646867        -1.08275        0.500905
LJ         -0.704237       -0.546568         2.30168
LJ         -0.308882        0.637111         1.54249
LJ         -0.228586        0.317898       -0.653978
