108
#Comment!
LJ           2.28507       -0.198393       -0.113262
LJ          -1.19289        -1.07904         -1.6684
LJ           -1.8569        0.516801       -0.419774
LJ          -2.19889         2.33094       -0.495072
LJ          -1.17497        0.946422        -1.11971
LJ           2.20749        -1.32914         2.28163
LJ          -1.50441        -2.33683        -1.20175
LJ         -0.682678         1.94424        -1.65339
LJ          0.734164         1.62019       -0.866299
LJ          0.499033        0.642026        -1.19585
LJ           1.31574         1.98131        -1.83538
LJ        -0.0888716        0.832191         -2.2742
LJ          -2.05508        -1.65165        -1.66889
LJ         -0.810176         1.79844         0.75861
LJ          -1.60177         1.47377        -1.82447
LJ          -1.16947      -0.0576458         1.26795
LJ           1.47015        0.121099         0.45091
LJ          -1.06364        0.768693           1.901
LJ           -1.3389      -0.0435061        -1.23752
LJ           1.48264        -2.29462          2.0026
LJ           1.75895       -0.690243        -1.26628
LJ          -1.49696        0.953741        0.715879
LJ           2.30638         1.98396         1.01639
LJ         -0.360733        -1.74337        -1.94623
LJ           2.01757       -0.675566         0.77174
LJ         -0.200406        -1.46527         1.81501
LJ          -0.17081         2.05803       -0.435966
LJ           1.17049         1.80425        0.831274
LJ         -0.897769        0.215466         -2.1156
LJ           1.13353        0.797158         1.29379
LJ          -1.94414        -1.01255        0.352454
LJ          0.502025        -2.18795         -1.1611
LJ          0.204598        -1.50233         0.79548
LJ           1.43529       -0.831055        -2.17737
LJ           1.38235         0.96371        -1.20445
LJ          0.505585        -1.05471        -1.93502
LJ          0.158168         1.55485        0.621257
LJ          0.398653        -1.51843       -0.147268
LJ           2.29592         2.03063         2.34915
LJ          -1.15957         2.03919        -0.29126
LJ           1.75979        -1.27548       -0.346717
LJ         -0.288414         1.25818        -1.05698
LJ          0.639953         2.34092        0.241016
LJ           0.83654        0.233541         1.98846
LJ          -1.41098       -0.567272          2.2616
LJ          0.454423        0.267004        0.746908
LJ           1.57644         1.46615         1.87508
LJ          0.224904         1.75617        -1.74269
LJ         -0.419248          1.8173         2.08127
LJ           -2.3492       -0.435576        -1.99027
LJ          -0.38126       0.0868005       -0.792518
LJ           1.80771         2.01458        0.160513
LJ           1.90088         1.05401       -0.371687
LJ         -0.549093        0.691403        0.833904
LJ          -1.94131        0.511474        -2.00698
LJ          0.623382       -0.318973        -1.00822
LJ           1.69351        -1.84058        -1.71963
LJ          -1.25069        -1.38207         1.03312
LJ           2.06434         1.21145         -1.8715
LJ           -2.3685        0.212267        0.863009
LJ          0.965601          1.0439        -2.09502
LJ           1.09896         1.05624        0.209434
LJ           2.03824         1.12059        0.551809
LJ           1.31194        -1.60093        0.439135
LJ          -1.18007       -0.798663       -0.561241
LJ           1.85347       -0.446436         1.70673
LJ           -1.9817         1.42339       0.0336515
LJ          0.864692         -1.4779         1.57687
LJ           1.91721        0.466903         2.23518
LJ          -1.42648         -1.7881      -0.0857424
LJ         -0.517709        -2.05039        0.312809
LJ          0.424606         -2.3803         1.29105
LJ           -0.6805        -2.21538         1.36316
LJ          -1.48111         1.73205         1.52392
LJ          -1.94639        0.163694         1.86167
LJ          0.126025         1.02828         1.45882
LJ           1.28781        -2.10957       -0.465274
LJ            2.2034        0.409779        -1.07522
LJ           1.84409         1.91462       -0.982228
LJ          0.214779       -0.012382        -1.91129
LJ         -0.664144        -1.87608       -0.748405
LJ            2.3561        -1.94374        0.470937
LJ           1.01738        -1.31585        -1.08766
LJ          -2.25726         1.03745         1.46128
LJ           1.01243       -0.719144     -0.00038869
LJ          -1.58395        -2.37778        0.709511
LJ          -2.05784         1.40358       -0.921123
LJ        -0.0414316        -1.15111        -1.03063
LJ         -0.232254        0.157189         1.74656
LJ         -0.191691       -0.533179        0.993216
LJ           -2.1663       -0.924264       -0.816257
LJ          -1.51948      -0.0995574        0.354061
LJ          -2.17422        -2.07614         1.65151
LJ          0.439616       -0.635042         1.88955
LJ           1.83513        -1.50567         1.24591
LJ           1.05152       -0.590381         1.02458
LJ          0.640559         1.77465         2.03336
LJ          0.251678        0.725167       -0.258717
LJ           1.42854        0.196832       -0.538156
LJ          -0.70091        -1.00954        0.288222
LJ         -0.719378         1.11037      -0.0957174
LJ         -0.458723        -0.74563        -2.25561
LJ          -1.42453         2.28632         2.34267
LJ           1.28033       0.0419325        -1.70192
LJ          0.504553        -2.14686        -2.27338
LJ          -1.27818        -1.53813         2.01604
LJ          -2.01545       -0.817086         1.40337
LJ          0.121674       -0.393303     0.000542941
