108
#Comment!
LJ         -0.642234      -0.0886895         1.13713
LJ          -1.31104         1.87477        -1.61292
LJ           1.10326        -2.20269        0.790177
LJ         -0.308011         1.09078         1.71935
LJ           1.93769         1.23485       0.0262355
LJ           1.80774         1.92089         1.06117
LJ           1.61227         1.90376         2.04246
LJ           1.50104      -0.0502149         1.09339
LJ          -1.28134         2.35068         2.15382
LJ           1.02059       -0.972666         1.93493
LJ         -0.223371         2.19146        -2.13952
LJ          -1.61954        0.645707         1.01231
LJ         -0.155779        -1.99618        0.935065
LJ           2.14864        0.926552        0.995947
LJ         -0.934708        -2.04975        -1.17126
LJ           -1.7357        -2.18675        0.312637
LJ          0.227756        0.467632        -1.78641
LJ          0.034502         -1.3338       0.0871628
LJ          -1.57591         -1.6579        -1.86219
LJ          -2.03009        0.924902        -1.83319
LJ          -1.20048         1.02977      -0.0427771
LJ          0.480541         1.36211        -2.27034
LJ          0.331483       -0.304423         1.68853
LJ           1.37888        -1.58036         -1.2243
LJ          -2.08991        -0.49099       -0.322806
LJ           1.14251        0.953796        0.938955
LJ         -0.314619         2.14844         1.67431
LJ           1.87979         2.18525       -0.341219
LJ          -1.69444        -1.54675       -0.845651
LJ           -1.7498          1.6272        0.584607
LJ          -1.27804        -1.43534          1.9009
LJ           0.98121         1.68539      -0.0460048
LJ         -0.565718         0.81388         0.68387
LJ           1.48621         -1.9162        -2.19716
LJ          -1.50408        0.138231         -1.9634
LJ          -1.09607        0.818658        -1.05502
LJ           2.36449        0.287648        0.275982
LJ           1.59795       -0.892394        -1.95435
LJ          -1.08537       -0.726478        -2.12287
LJ          0.486513         0.15937       -0.780586
LJ         -0.407035       -0.418981        0.226832
LJ          0.915555         2.20908       -0.888841
LJ           1.84856       -0.560851        0.274759
LJ          0.523173         1.26755        -1.10687
LJ           1.18712          1.9483         -1.8336
LJ          -2.19574        -2.08479         2.28937
LJ          0.672515       -0.897234        -1.11105
LJ           1.81149        0.536376       -0.762701
LJ          0.574706         1.68004         1.61034
LJ          -2.11438       -0.407304        0.902511
LJ          -2.31047       -0.790025        -1.41604
LJ          -1.30324       -0.044347        0.299884
LJ          -1.18761         1.78047         1.36403
LJ         -0.411392       0.0733876         2.33699
LJ          -1.45118       -0.386774         1.78086
LJ          -2.12042        -1.19197        0.361406
LJ           2.22656     -0.00609912        -1.98699
LJ           1.89527        0.819951          2.2396
LJ          0.206319          1.6671        0.634045
LJ           1.22338        -1.80583       -0.117804
LJ          -1.22017        -1.00599      -0.0677653
LJ         -0.998443         1.79232       -0.663046
LJ          -2.01186        -1.48689         1.28575
LJ         -0.795067         1.90922        0.400794
LJ           1.31682      -0.0334947         2.20332
LJ          0.252666         -1.2849         1.36371
LJ          -1.14332        0.578599         1.88878
LJ          0.656467       -0.212036        0.582252
LJ         -0.602421        0.316479       -0.375538
LJ          -1.99423         1.51181         2.15632
LJ           -1.9684        0.316687        -1.04691
LJ            1.9983        -0.80421         1.61009
LJ          -2.05906         1.19048       -0.633975
LJ          -1.13538         -2.0461         1.09992
LJ          0.254639       -0.781446        -2.11284
LJ           2.36327        0.117607         1.70113
LJ         -0.202253         2.04146         -1.1103
LJ          -1.29537       -0.451197       -0.941235
LJ          0.583304        -1.66293        -1.80021
LJ         -0.504024       -0.812974         1.81451
LJ          0.318824        0.678952        0.108587
LJ           2.25848         -1.9561        -1.42183
LJ           -1.8997         2.16593       -0.573315
LJ           1.65135       -0.447853        -0.80728
LJ           -2.1147         2.13297         1.39441
LJ           1.66501         1.48597       -0.994717
LJ           1.10042      -0.0884637        -1.59474
LJ         -0.230258        -1.71098         2.12695
LJ         -0.164599         1.44687       -0.279382
LJ           2.07223        -1.99899        0.609451
LJ          -0.82751         -1.9182      -0.0629246
LJ           2.35469         1.91279        -1.68574
LJ          -1.19339        -1.10928        0.881165
LJ           1.16877        -1.05085        0.845819
LJ          0.354259         -2.2456       0.0996361
LJ           0.69509         0.60004         1.72405
LJ           1.28842        0.515365       0.0874282
LJ           1.27239        0.943832        -1.75456
LJ           1.80088        -1.80079         1.55989
LJ          0.760363        -2.08842         1.71844
LJ         -0.431424        -1.29253        -1.64641
LJ         0.0944349         -1.8142       -0.739856
LJ         -0.592488         1.03012        -1.87398
LJ         -0.354407       -0.201866        -1.40553
LJ           2.05743        -1.33076       -0.509731
LJ         -0.446747       -0.943423       -0.675572
LJ          -2.19979       -0.899586        -2.35008
LJ          0.934879       -0.839505        -0.12828
