108
#Comment!
LJ           -2.1462         1.03969        -0.64859
LJ         -0.680848        0.818722        -1.10981
LJ         0.0960615         1.06936         1.88449
LJ          -1.07938        -1.19063         1.24744
LJ         0.0585229        -1.33199         1.65027
LJ           -1.7557         1.18994        -2.08597
LJ           1.84336        0.909871         1.47079
LJ          0.432501        0.503774         1.08367
LJ        -0.0210994        -1.63917        0.768148
LJ         -0.541701        0.305184         1.60593
LJ          0.731847        -1.03682        -2.37929
LJ          -2.27696       -0.645292        -1.11804
LJ           1.64695        -1.85362        0.325124
LJ          0.451885     0.000639716        -1.80867
LJ          0.568294         1.81923         1.48322
LJ         -0.336042       -0.580356         1.15172
LJ          -1.17171       -0.660739       -0.346028
LJ          0.467892       -0.798649       -0.805023
LJ         -0.672495       -0.538341         2.16605
LJ         -0.748141        -1.43711        -1.24748
LJ        -0.0977233       -0.640209       0.0799071
LJ           1.75496        0.336616        0.423242
LJ        -0.0215373         2.33626        0.105367
LJ          -1.49652         0.79975       0.0349955
LJ          -1.07252         1.11905         1.90724
LJ         -0.735143        0.857545        0.819183
LJ          -2.36491         2.22074        0.546719
LJ          -1.38535        0.302645        -2.09328
LJ           1.37134        -1.03218       -0.407569
LJ           1.74012       -0.818763        0.571809
LJ         -0.757593         1.40088        -2.01248
LJ          0.168097          1.1254        -1.88468
LJ         -0.182428        -1.58504       -0.386937
LJ          -1.49136          1.5209        0.823378
LJ           1.88749        -1.72509         1.47439
LJ         -0.426564         1.70123         1.33628
LJ          -2.08047        -0.49871         2.35617
LJ          -1.73018         -2.0603         1.22939
LJ          -2.38064         1.15176        0.420249
LJ          -1.39005          1.5073        -1.19461
LJ           1.06466        0.891315         2.11161
LJ         -0.719917        -2.09739         1.60462
LJ          -1.13233        -2.23986       -0.561191
LJ          -2.03891      -0.0515938        0.223193
LJ           1.32084      -0.0661713          1.3886
LJ         -0.389214         -1.8657        -2.25017
LJ          0.749953         1.78845      -0.0999836
LJ          -1.72582        -1.42052       -0.810505
LJ           2.37056        0.548372        -1.65312
LJ           1.17268        -1.21591        -1.43268
LJ          0.404385        0.317349       -0.845244
LJ         0.0276656         1.18411       -0.496693
LJ          0.847786        -2.15368        0.796843
LJ          -2.17824         1.88606         1.55799
LJ          0.872214         0.80747        0.259408
LJ         -0.457272        0.366778        -1.94037
LJ         -0.490617       -0.133383       -0.899802
LJ         0.0366262        -0.95575        -1.66786
LJ            1.3272        0.783619         -1.6832
LJ           1.26824         1.51406        0.860831
LJ         -0.102548         1.90867         2.26877
LJ           1.27426      -0.0507346        -1.17691
LJ          0.189797        -1.82926        -1.23805
LJ          0.923525        -2.08276         1.82659
LJ          0.770018         1.40428        -1.13995
LJ          -1.98401        -1.83852       0.0264096
LJ         -0.789262         1.57549       -0.096874
LJ           -1.4461       -0.148784         1.69073
LJ           1.93258         1.46831        -1.23964
LJ           1.79062         2.05936       -0.297252
LJ          0.565383       -0.446269        0.818104
LJ           2.36196       -0.123523         1.29437
LJ           1.03162       -0.210502      -0.0733673
LJ          0.982963         1.82632        -2.03755
LJ           1.85759        -0.60634         -1.8492
LJ          0.940623        -2.16635       -0.640435
LJ          -1.79811         1.86063       -0.190051
LJ          -2.08735        0.599705         1.91266
LJ          -0.91611         -1.3679        0.240407
LJ          0.289978       -0.195657         1.88135
LJ           -2.0435       -0.993759        0.787818
LJ          -1.52979        0.123962       -0.937722
LJ           1.80431        0.225607         2.28036
LJ           1.67726         -1.6332        -2.34167
LJ           2.03461         1.28588        -2.31658
LJ           2.37194        -1.55968         -1.6753
LJ           1.04497        -1.21162         1.36307
LJ           1.65838        0.981919       -0.358834
LJ         0.0534668         1.36197        0.481872
LJ         -0.889344       -0.576386        -1.66587
LJ         -0.450097         2.04774        -1.37732
LJ          -2.00163        -1.36686         1.83777
LJ           1.45832        -2.18683        -1.50878
LJ           1.87078       -0.813957         1.86424
LJ           0.81057        -1.30158        0.311164
LJ          -2.05893         2.27806        -1.10869
LJ            1.5405         1.92138         1.78952
LJ          -1.70396        0.518973        0.999477
LJ           1.97168        -1.77045       -0.753881
LJ          -1.29375        -2.25694        -1.62425
LJ          -0.18197         0.32803        0.168721
LJ           2.00716      -0.0213253       -0.526732
LJ          -1.50813        -1.24171        -1.91465
LJ           2.33705        -1.01868       -0.205524
LJ           2.28434         2.27383        -2.26612
LJ          -1.28235         2.09091         2.17435
LJ          -1.10621       -0.251409        0.662467
LJ          -1.04834        -2.28483        0.462785
