108
#Comment!
LJ           1.42515          2.0268        0.129913
LJ         -0.481196        0.580248         1.65101
LJ        -0.0936492       -0.617182        0.163608
LJ          0.875826       0.0666767      -0.0463656
LJ          0.801591         1.44997       -0.544188
LJ           1.17007        -1.10356        -2.10147
LJ           1.06682         1.65996          -1.543
LJ          0.146633        -1.58369        0.117682
LJ           1.87097       -0.772707       -0.461276
LJ          -1.28572       -0.684249        -1.64739
LJ              -1.7         1.42314        -1.03111
LJ           1.25827        0.651418        0.962533
LJ          0.830448       -0.110089        -2.03134
LJ           1.44021       -0.423497        -1.29077
LJ           1.95886         1.38521        0.875846
LJ          -1.23742        0.647825       -0.177379
LJ           1.89961       -0.351565        -2.20208
LJ         -0.238851       -0.954999       -0.792635
LJ         -0.247352         1.58598       -0.155026
LJ          0.327265         1.84784        -2.15765
LJ          -1.41851        -1.57342        -2.19153
LJ         -0.616036         1.07748       -0.901778
LJ            1.0948        -1.77295        0.291039
LJ           1.85121         1.77546       -0.896817
LJ          -1.09885        0.825532        0.811103
LJ          -1.68019          -1.975          1.7469
LJ           1.42551         -2.0821       -0.816363
LJ          -2.17071        0.676379        -2.22698
LJ         -0.115045       0.0408781        -2.30787
LJ          0.622259        -1.28351        -1.10999
LJ         -0.571098        -1.57824         1.41256
LJ          0.763534       -0.907234       -0.199369
LJ           1.76576         1.66294         1.93168
LJ          0.580739        -2.15934        -1.49831
LJ          0.419223        0.272099         1.55694
LJ          -1.16613       -0.487467        -0.59586
LJ          0.129375       -0.908782        -1.96287
LJ          0.608114        -2.35255       -0.289797
LJ          -2.04972         1.91733         2.28388
LJ          -1.48027         1.73613        0.516428
LJ         -0.491073       -0.107767        -1.38215
LJ           -0.3966         1.10356        -1.83635
LJ          0.757039         1.28459         1.54292
LJ           2.11293        -2.16327         2.00564
LJ          -1.13581        0.261536        -2.31076
LJ          -1.37516          1.0197         1.82832
LJ          -1.44744       -0.987251         1.22085
LJ          -2.16876        0.085959       -0.459071
LJ           2.03607         1.44919        -1.86048
LJ          0.125086         1.90791        -1.01456
LJ          0.736021        -0.47019        0.749426
LJ            2.3739        -1.06048          1.9795
LJ          -1.14145         1.95557       -0.414043
LJ          0.520708         0.88815        -2.33089
LJ          -1.74291        -2.30585        -1.56521
LJ          -1.67486        -2.01451        0.626451
LJ           1.62781        -2.16961        -1.80042
LJ          -1.18751           1.986         1.44941
LJ          -2.01433       -0.920466       -0.891357
LJ           1.46364        0.456029       -0.805216
LJ         -0.730096       -0.679221         2.20874
LJ          -2.23211         2.17731         1.15142
LJ          -2.17036         0.76046         1.28192
LJ         -0.636971        -2.28139         2.07146
LJ           1.53799        -1.01743        0.842302
LJ          0.514278        -1.44868         1.19311
LJ          0.721111         1.46046        0.549577
LJ          0.342613         2.32957        0.610702
LJ          -1.19874         1.69738        -1.93992
LJ          -2.11326          1.1107      -0.0981041
LJ          -1.91112         0.29376        0.494385
LJ          -0.70014        -2.29192        0.734922
LJ           -2.2594          2.1032      -0.0271346
LJ          0.516841        -0.28372       -0.900037
LJ          -2.23569        -1.89584       -0.706534
LJ           -0.1512        -1.94818       -0.805677
LJ           1.57167        0.572488          1.8992
LJ           1.84011        -1.34099         -1.3244
LJ           2.07572        -1.63947        0.143929
LJ          0.171913         2.23231         1.60175
LJ           2.27151        0.781396        -1.16347
LJ          -2.19843       -0.189085        -1.57189
LJ          0.307052        -1.64982         2.15735
LJ           1.80611       0.0425163        0.222023
LJ           1.37529         2.18684         1.09064
LJ          -0.15667         1.42045         1.00262
LJ         -0.468418         2.32378        -1.64052
LJ          0.116936        0.355598        0.488131
LJ         -0.319341         0.30042       -0.397208
LJ          -1.16011        -1.86815       -0.880555
LJ          0.497566        0.753466        -1.33047
LJ          -1.96398       -0.750986        0.119851
LJ          -1.96098       -0.235765         2.19097
LJ         -0.385439       -0.382826         1.25734
LJ          -1.30088      0.00983655         1.46958
LJ           1.61193         1.00426     -0.00685077
LJ          -1.00129         -1.1474        0.114282
LJ            2.2588       -0.319241         1.02105
LJ         -0.408262         1.49575         2.01379
LJ         -0.638427         -1.4545        -1.61395
LJ            1.4327        -1.56534         1.72732
LJ          -1.37033        0.266853        -1.20938
LJ           1.11878         2.37074         2.18656
LJ         -0.887051      -0.0532297        0.499806
LJ           1.53652         0.62392        -1.83974
LJ           1.39725       -0.488599         1.70382
LJ          -2.37679         -1.5183         1.07928
LJ          0.428366        -0.67965         1.90526
