108
#Comment!
LJ           1.70574        0.704397        0.631724
LJ         -0.716628       0.0975662       -0.255917
LJ           2.16809        -1.90269         2.04716
LJ           2.07086       0.0761681         1.74176
LJ           1.31843       -0.479998        -2.27329
LJ          -2.26589        -2.05115       -0.846564
LJ          -1.47126        -2.06977        0.826864
LJ          -2.03802          1.9791         1.24465
LJ           1.29037        -1.89463         1.43073
LJ         -0.622748         1.28025        -2.07926
LJ          0.809246          1.5529       -0.977945
LJ           2.31246         1.06708          1.5397
LJ           1.07025       -0.808347        0.851379
LJ          0.314809       -0.718674         1.71132
LJ          0.509774         1.07446         1.10226
LJ            1.2156        0.814485        -0.19203
LJ        -0.0867848       -0.644472        -2.21121
LJ           1.44646         1.57673        -1.88793
LJ         0.0576731         1.50973         1.86807
LJ           1.39085        -0.64755       -0.265265
LJ          0.424424       -0.414132       -0.718027
LJ           1.26869         1.30921         1.84135
LJ         -0.949128        0.565247        0.719875
LJ         -0.216193         1.20913        0.439063
LJ         -0.593334        0.289037         -2.1665
LJ          0.012948        0.140561        0.838623
LJ          -1.40047          1.7828        0.309833
LJ        -0.0814735        0.938798        -1.21192
LJ           2.10888        -1.13533        0.250595
LJ            1.5138        -1.65697       -0.428485
LJ           0.41444         1.08826        -2.07426
LJ          -2.35052       -0.303018        -2.14381
LJ         -0.585432       -0.871135       -0.266636
LJ           -1.5252        0.651693         2.32996
LJ           1.21161        -2.28842        -2.24036
LJ         -0.541299         2.19944         2.35632
LJ          -1.18106        -0.49983        -2.33087
LJ          -1.32142         1.43471        -1.17273
LJ          -1.75859       -0.872835        0.630719
LJ           -1.2314        0.323131        -1.26325
LJ            0.2962         2.06672        -1.89513
LJ          0.769716        -2.33349       -0.307399
LJ          -2.28915        0.263777        -1.39301
LJ           2.04173       -0.413788        0.848134
LJ           1.32528        0.553188        -1.97105
LJ         -0.719482        -2.20699        0.147735
LJ           1.76078         1.94273       -0.955849
LJ          -1.41202        -1.54456       -0.130446
LJ          -2.21635         1.21528        0.427202
LJ         -0.889104       -0.422875        0.545226
LJ            2.1023        0.898782       -0.703904
LJ          0.174917        0.496603       -0.123491
LJ           1.76624         1.61637      -0.0163777
LJ          -1.01592         1.94715         1.39327
LJ          0.935521       0.0913844        0.320788
LJ         0.0098755        -1.65229        -1.99071
LJ           2.10965      -0.0316024       -0.115769
LJ          -0.22483        -1.85879       -0.915424
LJ          0.208959        0.222093         2.06831
LJ          0.167376       -0.626428        0.337671
LJ          0.297031        -2.28951         1.94172
LJ          0.366014        -1.46111       -0.173874
LJ          -1.15825        -1.69631        -1.23032
LJ           2.17695        -1.80724         1.01651
LJ            1.6757         1.75098         1.07296
LJ          -1.68015       -0.267827         1.54265
LJ          0.272289       0.0962484        -1.63972
LJ          -1.97108         0.34169        0.766336
LJ          0.956766        0.122206         1.35538
LJ          -2.19271         -2.2173         0.20583
LJ         -0.312194        -1.44243         1.85739
LJ          0.963434        -1.34076         2.25316
LJ          0.616693        -1.02587        -1.52982
LJ         -0.462611       -0.600513         -1.2403
LJ           1.01356        -2.03906        -1.25874
LJ         -0.906881         1.11392       -0.344395
LJ          0.927406        0.462345        -1.04909
LJ           -1.6665          1.6272         2.33134
LJ          -1.51237         1.05961         1.38126
LJ         -0.646362        -1.32957        0.669961
LJ          -1.98885         -1.0687         2.14693
LJ          -1.52526       -0.698102        -1.44105
LJ           1.76813        -1.01188         1.64763
LJ          -2.07761        -1.49236        -1.72645
LJ          -1.62323        -2.20694         1.92386
LJ           2.09691        -2.23281         -1.7906
LJ         -0.561237         2.06897        -1.43118
LJ           2.19356        0.878449        -2.25886
LJ          0.684184         2.14268         1.04803
LJ         -0.665508       -0.474708         1.49076
LJ          -2.07957         1.77849       -0.490381
LJ           2.24783         -1.0827       -0.753634
LJ           1.56417       -0.309723        -1.26202
LJ           1.44131        -2.26575        0.529206
LJ         -0.096541         1.86835        -0.39353
LJ          -2.34536         1.41542        -1.51527
LJ           2.07439         1.85767          2.1347
LJ         -0.519709        0.795552         1.58411
LJ          -1.28508        -1.39607         1.53511
LJ          -1.71268         2.26413        -1.52831
LJ          0.716439          1.5674        0.244039
LJ          -1.75885        0.482545       -0.264211
LJ           1.55172        -1.24216         -1.7147
LJ          0.592363        -1.68097        0.747482
LJ          -1.05107        -1.50001        -2.17086
LJ         -0.377303        -2.15556         1.11662
LJ          -1.85104       -0.556146       -0.246388
LJ          -1.14241         2.23924       -0.602477
