108
#Comment!
LJ         0.0153723       -0.803871        -1.17679
LJ           1.55547        -1.50044        -2.03358
LJ           -2.2061        0.355172       -0.798679
LJ           1.49737       -0.352542       -0.786534
LJ          -2.27431          1.3708        0.502142
LJ         -0.715137        0.287045         1.13236
LJ          0.867938         2.35897        -1.16503
LJ          -1.30669        -2.24534        -1.08012
LJ           1.15618        -1.86958       -0.202573
LJ          -1.94367       -0.692511        -2.02302
LJ           1.09195       0.0463326         2.22923
LJ        -0.0472978        0.859852        0.679067
LJ         -0.729704        -1.48462       -0.779883
LJ         -0.894366       -0.250106        -2.30204
LJ          -1.67577         1.97587        -1.99481
LJ          -2.16566         1.99999        -0.91052
LJ          -1.44453         -0.8566        -0.31103
LJ           1.01181        0.332802        -1.57646
LJ          -1.93892        0.506016          -2.043
LJ           2.23302        -2.17381         2.04174
LJ          -1.33042          -1.611         -2.2907
LJ         -0.586496         2.36941       -0.380146
LJ          0.551527        0.499688         1.43619
LJ         -0.530869        -1.23889        0.936776
LJ          -2.35481        0.829064         1.68356
LJ          -2.01822        -1.75821       -0.537352
LJ            1.2965         1.85587        -0.41729
LJ          -2.28405        0.154561        0.921615
LJ          -1.64063       0.0818484          1.9022
LJ           1.92128       0.0300075        -1.59807
LJ           1.38273       -0.576654        0.130483
LJ         -0.865714         1.26423         1.13158
LJ           1.05918        -1.31771       -0.974031
LJ           1.82096        -2.08298       -0.965459
LJ           2.06251         -1.5028        0.121152
LJ            2.3801        -0.61325       -0.107771
LJ          0.190203        -1.65855        -0.60288
LJ          0.585454         2.13026        -2.18787
LJ          -0.55238         1.39586        -1.03553
LJ          0.348015        -1.20969         1.26511
LJ           1.56852        0.943414         2.37791
LJ          -1.70491       0.0601947        0.147572
LJ         -0.183335         1.62862         1.85733
LJ         -0.297749         2.33954        -1.39345
LJ           -1.6268         1.22922        -1.29743
LJ         -0.322025        -1.18054         2.03134
LJ          -1.23416        -1.70312         1.43021
LJ          -2.21672        -1.88169        -1.70996
LJ           1.34113        -1.88637         1.64049
LJ          -1.58303         1.19296       -0.215653
LJ           2.10171         1.12566        -1.49634
LJ           1.33978          2.2641        0.562357
LJ         -0.869887       -0.513176        -1.12005
LJ         -0.319791        -2.11717         2.25071
LJ           1.56974         1.85656         1.51162
LJ         0.0414482        0.872658       -0.267818
LJ          -0.97635        0.663389        -1.85215
LJ         -0.572422        0.216204        0.164513
LJ          -2.15526        -2.04146          1.0939
LJ            1.5516         2.21898        -1.90939
LJ          -1.11319        -1.78111        0.242035
LJ            2.1131        -1.12848        -1.03544
LJ          0.378619         1.49261       -0.928218
LJ           1.26029         1.16024        0.254061
LJ          -1.35815          2.0802        0.828611
LJ        -0.0478365       -0.122813          1.8405
LJ           2.16965       -0.883112        0.918966
LJ         -0.346185          2.2263        0.755036
LJ           1.12704       -0.644216        -1.76204
LJ          0.442255        -1.54307          -1.752
LJ         -0.614317         1.50015        0.128381
LJ           2.06173         1.17238       -0.465965
LJ            2.2994         1.55458         2.36727
LJ          0.829406        -1.10736         2.11319
LJ           1.72252        -1.03074         1.89312
LJ          -2.04106       -0.843918         1.81475
LJ           1.88789        0.399539       0.0619812
LJ           1.02522         1.36103        -1.66559
LJ          -1.56507        -1.18846        -1.24186
LJ           1.55301        0.469725         1.32649
LJ         -0.344411       -0.690077       -0.175881
LJ          -1.20495         1.99717          1.8327
LJ         -0.770568         1.74156        -2.02878
LJ          0.767787         1.37088         1.92727
LJ          -1.59614         2.22726       -0.170397
LJ          0.559945        -1.93954        0.514101
LJ         -0.524382         -1.4019        -1.75583
LJ          0.503598       -0.192919       -0.394986
LJ            2.0945     -0.00125275         2.02595
LJ          0.665584         1.54038        0.933867
LJ          0.363553         1.84748     0.000180329
LJ          -1.41582         1.05681         2.01538
LJ          -1.52763        0.769073        0.752448
LJ          0.512895        -1.03461        0.190557
LJ           1.32316        -1.31981        0.810694
LJ          -2.08732         1.85517         1.49874
LJ          0.254523       -0.207726        -1.95824
LJ          0.501821        -2.37047         1.66259
LJ          -1.15331        0.435869       -0.800734
LJ          0.102606         1.01107        -2.15651
LJ         0.0113287       -0.328934        0.809599
LJ         -0.110145        0.439374        -1.22833
LJ           1.08714       -0.407204         1.31978
LJ         -0.927684       -0.639123         1.59084
LJ           2.22275         2.23583        0.106069
LJ           1.07811        0.575779       -0.583152
LJ          -1.49644       -0.704587         0.75291
LJ          0.786778         0.22115        0.447083
