108
#Comment!
LJ           1.53731       -0.541185         -0.5174
LJ         -0.319832        -1.18245       -0.831079
LJ          -1.02797        -2.15532        -1.69567
LJ          0.392808        -1.74206         1.52246
LJ           2.22008        0.291287        -1.96316
LJ          -1.64205        0.678395        -1.61729
LJ          -1.11024       -0.741029         1.18563
LJ          -1.13093       -0.143734        0.290653
LJ           1.51123        -1.06671        -1.51439
LJ          0.873927        -1.97622        -1.45523
LJ         -0.477043         1.05938      -0.0273059
LJ          0.254312         1.83028      -0.0811516
LJ           1.76318         1.29966         1.42522
LJ          0.653429       -0.982472        -0.96112
LJ          -1.37892        0.764943         2.18285
LJ           1.04212       -0.948806         1.32099
LJ          -2.04389         1.14208         1.22442
LJ           2.36229        0.583032       -0.674384
LJ          0.286733        0.893011       -0.979066
LJ          -1.28137        -1.09394       -0.214107
LJ          -1.29959       0.0666391       -0.677827
LJ           -2.2525         2.10717         1.38635
LJ           2.30267         1.00228         2.17652
LJ           0.76355       -0.101052         1.72966
LJ            2.3379       -0.779576         -2.0193
LJ           1.85533         1.45332       -0.502908
LJ          -2.05075        -1.01691        0.739768
LJ         -0.699139        0.835742       -0.978725
LJ           1.17838         2.33793      -0.0965238
LJ            2.1768         2.01541         2.36946
LJ          0.574706        -1.66826        0.416783
LJ        -0.0999258          1.1103        -2.00928
LJ           1.85249         1.88094        0.593904
LJ          -2.33492       -0.925881       -0.262245
LJ           2.31539         1.27128        -1.62039
LJ          0.651686        0.535933        -2.22495
LJ           1.70032       -0.058281         1.25242
LJ         -0.148257         1.85113        -1.18538
LJ          -1.79823       -0.891676          1.8724
LJ         -0.901986        -2.13905         1.94093
LJ           1.71548        0.139072       0.0980827
LJ          -1.15638       -0.929135        -1.52623
LJ           -1.3849        -2.07975       -0.786847
LJ           1.28517       -0.388244        -2.15679
LJ           0.91586       0.0508698         0.76213
LJ          -2.26496      -0.0188771         1.90199
LJ           1.18458         1.13767        0.356348
LJ          -2.25775        -2.30436       -0.449161
LJ         -0.252616        0.180317        0.748657
LJ         -0.194502         -1.0483        -1.90196
LJ         -0.820639        -0.87627         2.13384
LJ        -0.0584359       -0.221426         2.24059
LJ         0.0917129       -0.774003         1.13325
LJ           -2.1424         2.28755        -1.41358
LJ          -1.92363         1.57899        -0.68757
LJ         -0.347087        -1.78603       0.0351037
LJ         -0.822912       0.0799575         1.73497
LJ             1.855       -0.814703          1.8596
LJ           1.52431        0.419218         2.08994
LJ           1.51295       0.0586116        -1.30415
LJ           1.66316         1.99725        -1.57612
LJ          0.640055       -0.675509      -0.0215955
LJ          -2.07827      -0.0242366       0.0186665
LJ           1.66869         -1.5696       0.0202387
LJ          0.881388         1.95282        0.959312
LJ           1.88807        -1.76197        -2.17719
LJ          -1.11457         1.72944         1.34102
LJ            1.2667          1.3887         2.35233
LJ          -1.64189         1.71835        -2.31702
LJ          -1.92769        -1.81991        -2.33617
LJ           1.16876          0.7071       -0.518397
LJ           2.17169        -1.72948          1.6914
LJ          0.230165      -0.0218329        -1.45425
LJ          -2.15021       -0.348219        -1.01236
LJ         -0.554631        -1.54339         1.07895
LJ           1.37812         2.30209         1.82491
LJ         -0.275307      -0.0910137       -0.608205
LJ           1.52936        -1.99441        0.939923
LJ         -0.145027        0.885684         1.70362
LJ          0.352854        0.408232      -0.0222421
LJ          -1.16964         1.61167        -1.32542
LJ          -1.91196        0.180745        0.912602
LJ           1.25408         1.03939        -1.48735
LJ          -0.50913         1.76387         2.15486
LJ          0.480304        -1.91211       -0.636981
LJ          0.808658        0.923268         1.23954
LJ         0.0577148         1.30487        0.785166
LJ           -1.5924       -0.231121        -2.07911
LJ          -2.35308        -2.01336        0.529856
LJ          -1.56537        -1.80151         1.17546
LJ         -0.453521       -0.909365        0.351669
LJ           2.25742        0.924653        0.362006
LJ          0.605527         1.85023        -1.89181
LJ         -0.737489        0.279002        -1.90954
LJ          0.520766         1.65079         1.83868
LJ           1.58787        -0.78012        0.498921
LJ          -1.59673        0.885014      -0.0667043
LJ         -0.625067          2.0484        0.467022
LJ          -0.96219          1.8329       -0.456282
LJ          -1.39146        -2.02041         0.27491
LJ          -1.06865        0.747432        0.981698
LJ          -2.18972        -1.49361        -1.28155
LJ           1.74523        -1.94691       -0.880818
LJ         -0.116604        -2.09748        -2.12163
LJ         -0.093414          2.2469         1.23437
LJ          -1.65834         1.73647        0.489633
LJ          0.819047         1.75941       -0.896311
LJ           1.02301        -1.28535         2.23175
