108
#Comment!
LJ           1.16534        -1.85485        0.893314
LJ         -0.153858        -1.37315         1.60626
LJ          0.426631        -1.45987       -0.829201
LJ           1.24035      -0.0309707         1.48833
LJ          -0.40327       0.0869355       -0.426249
LJ          0.822149         1.94783        -1.11513
LJ          -1.71454        0.730973        -1.52018
LJ         -0.981287        -2.01726        -0.73698
LJ          -1.02457       -0.228701         1.66648
LJ         -0.387603        0.210748        0.740059
LJ           0.23456        -2.37576        -1.76393
LJ          0.484621       -0.433569       -0.456802
LJ           1.28677        -1.13076       -0.128941
LJ           1.51011         2.05158       0.0679881
LJ            2.1067       -0.674956       -0.466136
LJ          -1.68755         1.11399         1.09107
LJ         -0.718278        -1.14991       -0.172364
LJ          -2.32829         0.23776        -2.17034
LJ          -1.51153         1.73542        0.200929
LJ       -0.00817813         1.35202       -0.912972
LJ          -1.84178        -2.15436         -1.2509
LJ           1.41801        0.981138         1.65577
LJ           2.06316        -1.36925        -1.18757
LJ            1.6364       0.0793913        -1.04143
LJ          -1.93936        -0.53603         2.02892
LJ         -0.733131        0.297863        -2.30344
LJ          -1.37069        -1.50768        -2.22026
LJ            1.1467        -1.69678        -1.66759
LJ           -1.9908         2.17437         2.35352
LJ           0.67258      -0.0297232        -1.41996
LJ          -1.72469         -1.6996           0.684
LJ           -1.2658       -0.284477        -0.93033
LJ         -0.613691        0.687875         1.55545
LJ           1.69084         1.93588         1.98697
LJ           1.91916       -0.765175         1.68762
LJ           1.35636        0.051195       -0.130014
LJ           1.26037        -2.03501       -0.633624
LJ          0.545644         1.64857       -0.169448
LJ          -1.79926        -1.14399       -0.401334
LJ            2.1739         2.37524         1.00794
LJ           1.67101         1.71773        -1.77752
LJ           1.24308         1.79551         1.10923
LJ           2.02305        -1.81986      -0.0376692
LJ          -1.28818       -0.263131       0.0230751
LJ          -1.05288         1.71122       -0.792936
LJ           1.73082        0.506907        0.804629
LJ         -0.875295         1.90635         1.94392
LJ         -0.579349        0.624349        -1.33627
LJ          -0.21775        -2.13666         2.19519
LJ            2.2235        0.338699         1.67405
LJ         -0.910416        -2.33602        -1.70472
LJ           0.72973        0.983959         -1.4954
LJ         -0.901652        -2.07079        0.259268
LJ          0.611787         -2.1773        0.106947
LJ         -0.697567        -1.36263         -1.5681
LJ          0.520546        0.661019         1.14525
LJ           -1.6161         2.14031         1.08835
LJ          0.864102        -1.18404         1.84094
LJ         -0.433013       -0.720164         2.34929
LJ           1.21978       -0.867807        -1.11514
LJ           2.05833        -2.13161        -1.87326
LJ          0.262491         2.22483         1.10976
LJ           2.25106         1.46078         1.36033
LJ          -1.81012       -0.298508        0.969682
LJ          -2.34846       -0.357106        -1.39981
LJ          -2.05198         1.64771        -1.56835
LJ           1.59335         1.17505       -0.510887
LJ          -2.07179         1.50142       -0.578768
LJ          0.808969        -2.19775         1.90469
LJ        -0.0685725        -1.71748        0.651324
LJ          -1.26634        0.647178         -0.5892
LJ          0.178186         1.32635         1.88799
LJ         -0.529481          1.7304       0.0424791
LJ          -2.11393        0.440628         0.38384
LJ           1.46376        0.644446        -2.05185
LJ          -2.13746        -1.67665         1.77572
LJ          0.272418        0.362454         2.22919
LJ          -2.36884        -1.21853        -2.15484
LJ           2.08181        0.900348        -1.33968
LJ         -0.235861       -0.349659        -1.48808
LJ           0.67728        0.624361       -0.567191
LJ           1.68362       -0.475313        0.663649
LJ          0.912225          1.4822        -2.32375
LJ           -2.3383        0.446257       -0.490362
LJ           2.07546         2.15655       -0.909609
LJ           1.11533         1.01945        0.382739
LJ          0.626694       -0.500108        -2.25987
LJ           2.31825          1.4933        0.338004
LJ          -1.65707        -1.09227        -1.38456
LJ           2.06607        -1.39504        0.878689
LJ          -1.87083        -2.20666       -0.255307
LJ          0.213096        -1.42304        -1.97362
LJ         -0.711742       -0.686107        0.750874
LJ          0.560246      -0.0139293        0.463463
LJ           -1.1622        0.742801        0.351493
LJ          0.616804       -0.987065        0.637177
LJ         0.0236076       -0.267057         1.49881
LJ         -0.452931         1.45887        0.966176
LJ          0.128058        0.919172        0.294945
LJ          -1.59936        0.583709         1.95167
LJ           1.57206        -0.59581        -2.01693
LJ        -0.0124667        -2.36825       -0.600148
LJ          -1.49325       -0.220351        -1.88857
LJ          -1.27898         1.27366        -2.14881
LJ         -0.188477         1.42932        -1.93551
LJ          -1.25358        -1.27503         1.52877
LJ           2.23729         1.18642         2.36511
LJ         -0.713801        -2.12572         1.31477
