108
#Comment!
LJ          -2.35308         1.84384       -0.376647
LJ         -0.314854        -2.23845         1.22675
LJ          -1.94169       -0.194705        -2.09784
LJ         -0.972432         -1.9265        -1.52245
LJ          0.240491       -0.693162         2.04466
LJ          -1.01682        0.107636        -1.14777
LJ          -1.72298         1.37886        0.532357
LJ         -0.060158        0.244161        0.533231
LJ           1.26895       -0.980165        0.873296
LJ          0.297857        -1.94074          2.1468
LJ         -0.375224         2.09707       -0.714681
LJ         -0.741874        0.717251         1.43096
LJ           1.42432        -2.37439       -0.288265
LJ         -0.359569       -0.763484        -1.12426
LJ         -0.485816         1.98118        -2.17479
LJ          0.370607       -0.599021        0.596455
LJ          -1.35811         -2.2437       -0.574418
LJ          0.445831       -0.968952       -0.422696
LJ           1.42961         1.30321        -1.75812
LJ           2.21144         -1.0031         -2.1297
LJ         -0.780973       -0.129289       -0.181861
LJ           2.30386       -0.446076        0.862291
LJ          0.794783        0.440336       0.0260549
LJ         -0.513233        0.876905        -2.31071
LJ          -2.01123       -0.875791         1.64135
LJ           1.67193       0.0539814        -1.50453
LJ           -1.1171          1.5957        -1.32663
LJ         -0.815729         2.19457        0.183552
LJ           1.83816       -0.260452          1.8759
LJ          -1.25056       -0.910757       -0.681912
LJ        0.00398863         -1.2479          1.2963
LJ         -0.365388       -0.220467        -2.05116
LJ         -0.328938        -1.66777        -0.71063
LJ           1.21917       -0.281867        -0.57703
LJ          -2.02592         1.20468         1.55805
LJ          -2.17332        0.183228        -1.16183
LJ          -2.29299       -0.785784        -1.11357
LJ          0.636617        -1.90136        -0.69853
LJ         -0.981454         1.74693         1.10403
LJ            1.1069         2.29467        -1.75277
LJ         -0.640957        -0.77687        0.565525
LJ         -0.966295        -2.08946         2.01247
LJ          -1.14595        -1.57059       0.0532468
LJ          -1.67857        -1.50718        -2.24496
LJ          -2.03229        -1.97427          1.6923
LJ           1.03818       -0.256318        -2.34488
LJ          0.434452        0.660791         -1.9231
LJ          -1.78501        0.653708        -0.35509
LJ         -0.244582        0.735293        -1.24453
LJ          0.150694      -0.0727291       -0.535086
LJ           1.76404        0.578462       -0.581745
LJ            1.7942        -1.37031         1.57634
LJ         -0.367336       -0.203504         1.34414
LJ          0.148635         -2.2433        -1.58407
LJ          0.945439         1.41353       0.0579924
LJ         -0.326827        -1.26637        -2.02264
LJ            1.9284         1.02797        0.253315
LJ          -1.23075        -0.86261        -1.71492
LJ           1.51973       -0.912325        -1.30032
LJ         -0.843887       -0.854039         1.95201
LJ           2.19348         1.98196        -1.50477
LJ          0.819407        0.708196       -0.933725
LJ          0.488674        -1.23631        -1.44393
LJ           1.83969        -2.32918         1.44303
LJ           1.00038        -1.83462         1.37759
LJ           2.04868         1.86332         2.16012
LJ          -1.25472         1.54456         2.00547
LJ          -1.07388        -1.50425         1.14732
LJ          -2.15594        0.483567         0.74952
LJ            2.1024         2.34622        0.453441
LJ          -2.00712        0.214438         1.69632
LJ           2.18414       -0.425792       -0.261734
LJ           1.55901        -1.31239       -0.224009
LJ           1.56514         0.11178        0.479117
LJ           1.09848        -1.40077         2.36539
LJ         -0.047562         1.25213        0.627784
LJ           1.73031        -1.91821        -1.13353
LJ          0.853997         1.96229        0.925669
LJ          -1.71974        -2.20246        0.740393
LJ         -0.391647        0.974073       -0.259809
LJ          0.399375         1.62817        -1.84265
LJ          -1.42389         1.56127       -0.359184
LJ           1.47566        0.655372         2.23078
LJ          0.310005        0.570692         1.76042
LJ          0.840241        0.918564        0.924836
LJ          -1.55637        0.579269         -1.8505
LJ          -1.17974         0.53741        0.605952
LJ           1.60496         1.52737       -0.780847
LJ        -0.0916187          1.6038         1.70901
LJ          -2.05195        -1.84706        -1.39907
LJ           2.26993        -1.43368        0.592191
LJ           1.75573        0.622949         1.27937
LJ           1.89718        -1.95278        -2.25645
LJ           0.02766        -1.55602        0.266936
LJ          -1.35257       -0.304272         1.14498
LJ          0.929487        -1.88281        0.407394
LJ           -1.7766         2.08848        -2.04558
LJ           -2.1031         1.21715        -1.09741
LJ          -2.16359        -1.45207       -0.366831
LJ          -1.57753       -0.549548         0.20629
LJ          0.605393         1.82472       -0.810831
LJ          0.532955       -0.230364        -1.45398
LJ          0.996168         1.57702         2.10957
LJ          -1.12168        0.113099         2.14892
LJ           0.20573         2.08377       0.0628796
LJ           2.32589         1.03553        -2.05111
LJ           1.77464         1.58638         1.02841
LJ          0.949797       -0.165057         1.40192
