108
#Comment!
LJ           2.03301       -0.561102         1.43557
LJ           2.32966         2.27498        -1.86147
LJ          -1.92196       -0.109427       -0.590105
LJ          -2.31484         1.56552        -0.47533
LJ         -0.240088        0.285128        -1.23205
LJ           2.22027        -1.33371        -1.36315
LJ          -1.06748         -2.1612        -1.84169
LJ          -1.52211         1.23395         2.29459
LJ           2.26866       -0.476823        0.278854
LJ           1.61383        0.462116        -1.56913
LJ         -0.139375        -1.64465        -1.96815
LJ          0.286095        0.602301       -0.400309
LJ           1.73442        -2.33894        -1.13201
LJ          -1.65186        0.831463       -0.640663
LJ         -0.936533        0.381701         2.23347
LJ          -1.54987        0.227427        0.496062
LJ            0.8848       -0.889884        0.697115
LJ          -1.89865        0.331995        -2.37257
LJ           -2.0999         -1.5064      -0.0392203
LJ           1.21128        -1.42093        -1.44442
LJ           1.44783        -0.72899        -2.08841
LJ           2.18382         1.02606        -2.19968
LJ           2.01802         1.95561         2.05026
LJ         -0.501193        -2.37216        -1.02732
LJ            1.5196        -1.44646         1.40104
LJ          -1.80169         2.25515         2.17096
LJ         -0.209334        0.916362        0.523729
LJ           1.27419         2.13881        0.597449
LJ          -1.71452        -1.01633       -0.810794
LJ         -0.362001        0.934371        -2.00248
LJ          -1.44292       -0.715312        0.098807
LJ          0.842724        -2.01485       -0.708293
LJ          -1.16942         2.36729         1.33616
LJ           2.36494        -2.24722         1.03724
LJ           1.30913         2.14626         -1.9354
LJ          0.925625       -0.389383         -1.0928
LJ          0.311295         1.78121       -0.759872
LJ         0.0624211        -2.09692       -0.171025
LJ          -1.87392         1.35574        -1.46319
LJ          -1.16805        -1.89118       -0.372451
LJ           1.77543         1.42526        -1.26904
LJ          -1.26902         1.26074        0.412299
LJ           1.21488        0.664942        -0.69054
LJ          0.493924        0.108172        -2.00891
LJ          -1.69095        -1.27408           1.482
LJ          0.977324        0.369067         1.70102
LJ           1.76576         1.41541          1.0994
LJ          0.264899          2.1656        -1.71168
LJ          0.697331          1.3168         1.08289
LJ           1.12786       -0.542654         1.72638
LJ         0.0814355        0.720177         1.50353
LJ           2.13591        0.549639       -0.269209
LJ            1.6056        0.178261         0.62678
LJ        -0.0347973         -0.4449        0.947958
LJ          -2.34529       -0.780787        -2.25106
LJ         -0.508791          1.1636       -0.550913
LJ           1.83131        -1.12822       -0.466178
LJ          -1.22579        -1.68248        0.628055
LJ           1.90462       0.0442281         2.28305
LJ           2.30221        0.592884         1.54247
LJ           0.27216         1.47312         2.22386
LJ          0.389879         1.74591        0.252339
LJ          -2.24758         0.99413        0.563793
LJ          0.541141        -1.82155        0.700226
LJ          -1.62904       -0.409946        -1.70079
LJ           2.26281        -1.80317         1.96322
LJ          -2.20429        0.426047        -1.34958
LJ          -0.33223        -1.73278         1.11128
LJ           0.91255         1.22094        -1.69131
LJ          -1.85907        -2.05693        -1.06502
LJ         -0.473244        -1.15816        0.174886
LJ         -0.087941         1.93154         1.15668
LJ         -0.700667         2.07312        0.304916
LJ          -1.73835         2.15224        0.330943
LJ          -1.70424        -1.55175         -2.2709
LJ         -0.896514         1.35095         1.40241
LJ           1.30082         1.06593        0.182643
LJ            1.8945       -0.221707       -0.819467
LJ           1.31262         1.27048         1.98596
LJ         -0.413745       -0.525123        -1.78168
LJ         -0.980142       -0.328923       -0.823191
LJ           2.00071        -2.35924       -0.139759
LJ         -0.188671        -1.31163       -0.776609
LJ         -0.778159        0.262766         1.19884
LJ           1.28313         1.81661       -0.523621
LJ          -1.23045         1.87472       -0.525303
LJ         -0.885633         1.67739        -1.48619
LJ         -0.990574        -1.30776        -1.43392
LJ         -0.885194       -0.664258         2.07593
LJ         0.0603343       -0.203401         1.93605
LJ           1.48161        -1.64262        0.334005
LJ         -0.664138        0.176827     -0.00194243
LJ           2.31804        -1.31082        0.841439
LJ           1.06042        -1.73834         2.31281
LJ           1.07191         2.20321         1.61583
LJ          0.502831        -1.34277         1.58982
LJ         -0.740956         1.93792         2.23598
LJ          0.603119        0.217389        0.649071
LJ           1.04391      -0.0957749        -0.14532
LJ         -0.955245       -0.799304        0.918168
LJ         0.0747663       -0.369175       -0.458168
LJ         -0.848065        -1.70112          2.0188
LJ          -1.22951        0.431969        -1.53005
LJ          0.416194       -0.876996        -2.23576
LJ          0.150544        -2.30468         1.97518
LJ           -2.0044         1.43696         1.42127
LJ          -1.78912       -0.163211         1.49628
LJ          0.732256        -1.14114       -0.345375
