108
#Comment!
LJ             2.124       -0.839587        -1.43637
LJ          -2.30834         1.14926         -1.9049
LJ         -0.153708        0.344837        -1.03367
LJ           0.84446        -1.98273         0.46902
LJ           2.18319       0.0923305        -2.11618
LJ          0.780943       -0.887529          1.6179
LJ          0.495999         1.05096         1.36265
LJ          0.540587         1.98496        -1.80643
LJ         -0.438154        -1.55747       -0.879999
LJ         -0.439396       -0.593676          1.0386
LJ           1.24077        -2.09576        -1.46362
LJ            -2.181        -2.11387        0.980713
LJ           1.66553         2.25556         0.63342
LJ          -2.27338       -0.595453       -0.503085
LJ          0.939358         1.76433         2.01702
LJ          -1.86143       -0.875734        -2.20459
LJ         -0.266561      -0.0364301        0.112727
LJ           0.16197         1.92637       -0.779663
LJ          0.860269          1.2957        0.197995
LJ          -1.30418         0.79753        -1.18803
LJ          -1.36516         1.18705        -2.19459
LJ          -2.08903        -1.59469        -1.00667
LJ         -0.338627        0.548254         1.09662
LJ          -0.90573        -1.43376        -2.26922
LJ           -1.0435         1.84073         1.80375
LJ            1.2102       -0.264488      -0.0535495
LJ          0.833041         2.04718         1.10756
LJ         -0.684517       -0.954491      -0.0995486
LJ           1.70161          1.0777         1.98882
LJ           1.17285        -2.09307         2.12636
LJ           1.63329        -1.19138         0.15517
LJ         -0.206734         1.78046         1.20811
LJ         -0.144443          1.2809         2.08796
LJ         -0.135421          2.2605         2.06775
LJ          0.148164       -0.552283       -0.642671
LJ         -0.467261         1.21406        -1.66471
LJ           1.22101        -1.08305        -1.79345
LJ          -1.43538       -0.364991        0.178672
LJ           2.27408         1.68708        0.166093
LJ         0.0995492       -0.800408        -1.58294
LJ          0.740826        0.466376       -0.518141
LJ         -0.854149         1.79371       -0.890224
LJ          -2.17156        0.776451        0.713227
LJ          -1.28752        -2.03214       -0.865662
LJ           2.38015        -1.16343        0.878819
LJ         -0.744207        0.949525       -0.467863
LJ           1.82168         2.03739         1.71048
LJ          -1.83029         2.05493         2.27437
LJ          -2.12717        0.703394         1.71018
LJ          -2.04855        0.326847       -0.231779
LJ           1.72031       -0.057038       -0.871583
LJ          0.809154        0.747078        -2.23625
LJ          0.373986        -1.48106       -0.307985
LJ           1.51936        0.754501         -1.4972
LJ            1.9663         2.21615       -0.900764
LJ          0.578776       -0.821654        0.529732
LJ           1.43104        -1.55487         1.17441
LJ          -1.32382         -1.0609         1.16638
LJ          -2.35463       -0.235456        0.491925
LJ          -1.55987         2.37604       0.0462522
LJ           1.41254       -0.584157        0.938548
LJ         0.0232096        0.233801        -1.98214
LJ          0.812686       -0.133438        -1.35338
LJ          0.437301        0.149967         1.79729
LJ           1.73165        0.581032       0.0335234
LJ          -1.01224        0.596287        0.360423
LJ          -1.47251        -1.98405          1.6159
LJ         -0.620586        0.333083         2.01832
LJ          -1.64967         1.36405       -0.441764
LJ         -0.574213        -2.37033        -1.78652
LJ          -2.37147        -1.60446         1.84251
LJ          -2.13283       -0.363544         1.67551
LJ          0.594496         0.32369        0.565872
LJ          -1.88971         1.96398        -1.19913
LJ          -1.30869      0.00339167         1.17265
LJ           1.01228        -2.27569       -0.448523
LJ          0.143645         1.94337        0.290659
LJ        -0.0681516        0.996431        0.271526
LJ           1.96054        -0.75173           2.275
LJ          -1.58053        -2.00005        -1.80519
LJ          0.475608        -1.79651         1.36176
LJ           1.27502        0.364885         1.42899
LJ         -0.953625      -0.0457815       -0.613032
LJ           1.15519       -0.213072        -2.34888
LJ         -0.162881       -0.613753         2.23961
LJ           2.28714        -1.95154       -0.156653
LJ          -1.62614        -1.37594        0.178107
LJ          -1.24045       -0.996761       -0.857532
LJ         -0.596334        -2.23978       -0.197535
LJ          0.487555         1.07681        -1.19854
LJ          0.346382        -1.50056         2.33355
LJ           2.25172        0.969245       -0.877937
LJ           1.31617       -0.969558       -0.803148
LJ          -1.18639        0.912782         1.37778
LJ         -0.864562        -2.20733        0.798354
LJ          0.276687        -1.91606        -1.44959
LJ           1.25807         1.49388       -0.725224
LJ          -1.05538         1.62069        0.435676
LJ         -0.918332       -0.352398        -1.79669
LJ         -0.184166        -1.54311         0.51556
LJ           2.00141         -1.7599        -1.98186
LJ           1.65091         1.21903        0.911911
LJ          -1.53023        0.271421        -2.30245
LJ            1.7747         1.95123          -1.875
LJ         -0.471113        -1.44544         1.55946
LJ          -1.85838      -0.0388146        -1.25579
LJ          -2.02114         1.66071         1.14576
LJ          -1.13788       -0.581897         2.00971
