108
#Comment!
LJ           2.17938         1.77631       -0.897084
LJ         -0.881144         1.56213       -0.620689
LJ          -1.17966        -2.32395       -0.160834
LJ          -1.38975        -1.64976         1.48827
LJ          0.155355        -0.42612         1.79232
LJ          -1.65475         2.01245        -1.11384
LJ           2.04655         1.58098        0.851373
LJ            1.5835        0.256587        0.500168
LJ          0.358962        -2.01602         1.28599
LJ         -0.603276        0.175797         2.08699
LJ          0.365987        0.473869         2.34759
LJ          -0.88589         0.48714       -0.747635
LJ           1.47596        -1.99471       -0.109906
LJ           0.41867       -0.444782        -1.98135
LJ         -0.223695        -2.25938         2.30633
LJ          -1.44799       -0.705978         1.09426
LJ          -1.46676       -0.498436       -0.603806
LJ          0.582552       -0.261883       -0.606541
LJ          0.131561        0.594657       -0.819866
LJ          -1.59252       -0.507098        -1.65629
LJ         -0.430047       -0.687828       -0.877701
LJ           1.66771      -0.0554531       -0.480624
LJ           0.29347          1.5353       -0.276616
LJ          -1.17916         1.25827        0.454976
LJ          -2.15629      -0.0175242         1.12202
LJ          -1.13041         0.45896         1.25413
LJ           1.62189        -1.08786       -0.613465
LJ          -1.97885         1.50086        -1.89199
LJ           1.51803       -0.246914         -1.4565
LJ          -2.14865      -0.0772019       0.0149522
LJ         -0.768139        -2.25833        -1.33974
LJ          0.749691         1.32715          -2.203
LJ         -0.673995        -1.27304         -1.5465
LJ         -0.702656         1.46431         1.30054
LJ           1.26973         2.20904        0.892626
LJ          -1.44802        0.606358        -1.67902
LJ          -2.32553        0.188577        -1.94278
LJ          -1.90912         1.48192          1.4962
LJ          -1.75565         1.15996        -0.38749
LJ          0.267711        -2.15438        -1.50829
LJ           1.91062         1.05791       -0.260823
LJ         -0.609078        -2.27511         1.34843
LJ          -2.07879        -1.22181      -0.0779902
LJ          -2.32869         -1.3068         1.25014
LJ           2.03196       -0.744019        0.474066
LJ         -0.506041        -1.11205         1.31187
LJ          0.224275       -0.844739        0.685457
LJ           2.00676         -1.1873        -1.66965
LJ           1.35977       -0.678981         2.36057
LJ          0.800533        -1.20073        -1.29927
LJ          0.953471        0.683272       -0.248704
LJ         -0.466016         1.97501        0.420831
LJ          0.339402         1.71715         1.17321
LJ           1.90874        0.650713         1.34293
LJ            1.1158       -0.540384        0.191192
LJ         -0.924797         1.54921        -1.62053
LJ         0.0710714      -0.0247743        0.192593
LJ          -1.53191       -0.248474         1.96266
LJ           1.65632         -2.0846        -1.36652
LJ          -1.01485        0.239885        0.216812
LJ          -1.22636        -1.23217        -2.29821
LJ          0.869464        0.578969        -1.54034
LJ         -0.206703         -1.2865         2.30416
LJ           1.18762        -1.64674        -2.10651
LJ          0.985659          1.3396       -0.981638
LJ           2.12541        -2.07139        0.644189
LJ         -0.120419        0.624982         1.30048
LJ          -1.54854        -1.66369        0.539219
LJ           1.97666        0.873427        -1.34048
LJ          0.906516          1.1194        0.662172
LJ           0.72826        0.140524         1.07265
LJ           1.52427       -0.381663         1.31209
LJ          0.645696        -1.51407        -0.36862
LJ          0.988153         2.24687         2.01998
LJ           1.61015        -1.88326         1.57343
LJ        0.00648932         1.61376        -1.26115
LJ          -2.27955         1.92319       0.0214102
LJ           1.04501         1.01554         1.64846
LJ          -1.56128         2.10727         0.84371
LJ         -0.305592        0.681085         -1.6801
LJ          -2.20567        -2.29864         1.46396
LJ          -2.05294        0.344632       -0.955709
LJ          0.863108        -1.10168         1.57428
LJ           1.35198        -1.45577        0.726214
LJ            1.5812         1.69367        -1.75778
LJ          -2.13961        -1.99599        -1.65592
LJ         -0.836288       -0.738689        0.149869
LJ           1.28651         1.81978       -0.067077
LJ         -0.179477         1.45749         2.22355
LJ          -2.04295         -1.6536         2.19638
LJ         -0.443848        -1.61816       -0.628485
LJ           2.34148       -0.620449         2.19833
LJ           1.99116        -2.35025        -2.36701
LJ           0.50939        -2.37641        0.191757
LJ         -0.498091       -0.216536         0.99698
LJ          0.900707         2.34889        -0.79849
LJ            1.8633         1.49978         2.04451
LJ          -1.98713         0.58157          1.9364
LJ           2.36646        -2.03676       -0.642898
LJ          -1.48066         -1.3883        -1.00973
LJ         -0.247511        0.901432        0.172689
LJ           1.49617        0.358995         2.33528
LJ         -0.564927       -0.287663        -1.81102
LJ          -2.36816       -0.611622       -0.989832
LJ          -1.33096         2.27462         2.31793
LJ          -1.08369         1.02875         2.13192
LJ          -2.07836        0.776588        0.526471
LJ         -0.525678        -1.64763        0.456448
