108
#Comment!
LJ           2.28929        0.140654        -1.31771
LJ          -1.21806       -0.369858         -1.5966
LJ           1.36323         -0.1833        -1.01181
LJ          0.451003        0.209133       -0.906121
LJ           1.85075        0.531049         1.61704
LJ          -1.34368        -1.43433        -2.08358
LJ          -2.11984        -2.36317        -1.13901
LJ         -0.775421        0.294914       -0.310587
LJ           1.26992       -0.235579      0.00376946
LJ          0.648225        -2.14057      -0.0784069
LJ          -1.29408        0.686249        -2.12811
LJ          0.749204        0.778305        0.236302
LJ          -1.16372        -2.37009         -1.8989
LJ         -0.616057        0.368537        0.670704
LJ          -1.67649         1.58321        -1.50008
LJ           1.94502          2.2545        0.836056
LJ         -0.100687         2.10676       -0.321092
LJ          -1.75135         2.10395         1.03918
LJ          -1.56323        0.575984         -1.1919
LJ           1.25848        -1.73519         1.51245
LJ           2.23462        -1.05717         2.23856
LJ         -0.989679        -2.02961      -0.0804119
LJ           0.46226       -0.731491         1.25481
LJ         -0.303914         -1.0299        -2.14485
LJ          -1.34354        0.244781         1.39669
LJ          -1.31962       -0.647065        0.902921
LJ           1.24797        -1.42333       -0.448416
LJ           -2.3039        0.893569        -2.15565
LJ          -1.58254       -0.312145       -0.686077
LJ         -0.858973         2.11202        0.669272
LJ          0.611448        -1.19282        0.368274
LJ          -1.38182         1.27814        0.309205
LJ           1.38576        -1.72385        -1.39413
LJ           2.14683         1.33215        0.282089
LJ         -0.364385         2.12856         1.58889
LJ           2.24006        -1.33508        0.878159
LJ          0.676481        -2.11731        -2.19949
LJ           1.34644          1.6027       -0.916682
LJ         0.0252211         1.74077        0.733289
LJ         -0.800027       -0.786162       -0.502873
LJ           1.14606         1.71587       0.0828142
LJ            2.3312          1.0759          -1.111
LJ          0.941138           1.079         1.43069
LJ          0.688515        0.133923         1.96672
LJ          -1.89345         1.62999       -0.503732
LJ          0.260268        -1.56144         1.77135
LJ           2.36354         -2.0024         1.62307
LJ           1.98479         2.25279       -0.382351
LJ           1.62808        -1.82901        -2.31559
LJ          -1.90992        -2.18598        0.061241
LJ          0.197504        -1.94649        0.818457
LJ          -2.17555         0.60062         0.92192
LJ          0.494253        -1.28674        -1.54915
LJ          0.189489          1.2805        -1.04692
LJ          0.367374         1.67185         2.07943
LJ           1.46238         1.13009         2.35405
LJ          0.658842       -0.149411        -1.79416
LJ          0.148977       -0.191835        0.127859
LJ          -2.03213        -0.13886        -2.33788
LJ           1.92736         1.51281         1.50705
LJ          -1.81513        -1.16794          1.5545
LJ          -2.13218        -2.04422        -2.18564
LJ         -0.666695        -1.33291         1.68029
LJ           2.36646        -0.38888        0.441964
LJ           -1.2313        -2.23406         1.85923
LJ           1.19661        0.174511          1.0443
LJ          -2.31327       -0.321298         1.42532
LJ           0.19584         0.42779         1.17706
LJ          -1.90832         1.32121         1.56572
LJ         -0.393418         0.79328         1.94294
LJ         -0.939147         1.26771         1.25539
LJ          -1.30259         -1.4401        -1.07101
LJ          -2.13916        0.495875       -0.339487
LJ           1.53446        0.148016        -2.03748
LJ           1.65577         1.98258        -1.78719
LJ           1.55338       -0.358799         1.84685
LJ          0.923199         2.12028        0.994192
LJ         -0.311699        -2.09721        -2.34674
LJ           2.19405        -1.55783       -0.621328
LJ           1.27253         2.11009         1.95413
LJ          -1.14014       -0.516725         2.07612
LJ          -1.15966         1.64318         2.27885
LJ         -0.946362         1.23007       -0.615721
LJ          0.178828        0.764515        -2.00596
LJ         -0.381083       -0.868427        0.608643
LJ           1.39123        -1.80997        0.448822
LJ         -0.433299        0.544428        -1.25043
LJ         -0.364289        -1.83065        -1.30035
LJ         -0.863703         2.17406       -0.945619
LJ          0.571952       -0.773249       -0.742427
LJ           2.35647         1.81259         2.34283
LJ         -0.411979         1.64194        -1.73307
LJ           2.15365       -0.498774       -0.566488
LJ        -0.0901478        -1.53111       -0.350169
LJ          0.989737        -1.05639         2.21489
LJ          -1.31688        -1.75432        0.839621
LJ         -0.194921         -0.2711         1.95874
LJ          -2.15508        -1.05299        -1.59448
LJ          -1.48927       0.0311751        0.287114
LJ          0.763604         1.55656        -1.78169
LJ           1.44614       -0.759147        0.973184
LJ           1.59257        0.736701       -0.350456
LJ            1.6019       -0.820245        -1.73841
LJ         -0.205377       -0.430449        -1.22197
LJ          -1.70373        -1.15316       -0.168491
LJ          0.648033        -2.28189        -1.10176
LJ         -0.090081         1.17355      -0.0492562
LJ           1.17907        0.752629        -1.31704
