108
#Comment!
LJ          -0.29799       -0.712758        -1.65557
LJ         0.0941031       -0.509728         2.06306
LJ           1.12344       -0.566996         0.28044
LJ          0.256864       -0.963285       0.0225438
LJ         -0.496566       -0.294589     -0.00391905
LJ         -0.603206         1.95852        -1.21631
LJ           1.87266         1.55093      -0.0127854
LJ         -0.382159         2.08494          2.1441
LJ           1.17698         2.25879         1.02443
LJ         -0.199892        -1.46931         2.28987
LJ            2.3633        -1.46384        -0.21183
LJ           2.11259       -0.157934         2.14207
LJ         -0.329582      -0.0293103       -0.938166
LJ           1.10391        -1.03202         -1.1756
LJ          -1.38658         1.67879       0.0479853
LJ           1.97532       -0.642056       -0.823043
LJ          -1.18131        0.129806        0.619976
LJ           1.95219       -0.355922         1.23893
LJ            2.3429         1.06931        -0.92533
LJ          -1.05167        -1.12324        -2.05015
LJ          0.784794        0.784241         1.17139
LJ          0.333689        -1.25217         1.40228
LJ           1.52708        0.475783         -1.1495
LJ           1.28191         2.33115        -2.00534
LJ           -1.2687       0.0757113        -1.38645
LJ           1.12268        -2.00551       -0.983925
LJ          -0.24032         1.05439        0.740822
LJ          -1.45605       -0.907446       0.0391782
LJ          -2.06195         1.82053        0.830285
LJ          -2.04452         1.69498         2.26839
LJ           1.66776        -1.40466        -1.90896
LJ          -1.99041        0.895304        0.187991
LJ          0.068687        -2.07655        0.719325
LJ          0.215052        0.717509         1.97473
LJ          -1.51497       0.0644359       -0.258075
LJ           2.11702        0.238768       -0.352592
LJ         -0.291858        0.239709        -2.09023
LJ           -1.8303         1.02806        -1.69197
LJ           0.88094         2.30663       0.0790609
LJ          0.320364         2.34938        -1.83338
LJ          0.368953        -2.16288         1.80558
LJ          -2.20893        -1.96496        -2.32288
LJ           1.08448         1.10026        -1.76461
LJ          -1.16498         -2.3061        -2.05527
LJ           2.16406        -1.82391        -1.06781
LJ          -1.19347        -2.20318       -0.495928
LJ           2.17495        -1.15412         1.88997
LJ          0.459569         1.79162       -0.998035
LJ           1.14294       -0.884125         1.92979
LJ          -1.11322         0.52115          2.1463
LJ           2.02049        0.639601        -2.01778
LJ          -1.69933        -1.98728        0.350724
LJ          -1.81417       -0.439695         1.28322
LJ         -0.207073         1.63403       -0.186197
LJ           -1.4342        0.966687         1.09465
LJ          0.358176         1.68389         1.09061
LJ           1.09329       0.0536032         2.24764
LJ          -2.18302        -1.01819        -1.85027
LJ          0.465689        0.838713       -0.510894
LJ          -2.22164         2.15589       -0.470673
LJ          -1.82512       -0.787798        -0.96721
LJ          -1.28726         2.21927         1.61079
LJ          0.576342        -1.46368        -1.87305
LJ          0.745501         1.54359         2.10853
LJ          0.641737        -0.30809       -0.599761
LJ            1.6334        0.773221         1.73492
LJ           1.67948       -0.393199        -1.76853
LJ           1.74635         1.70462         2.15466
LJ          -1.63026         1.95622        -1.33984
LJ          0.644779       -0.461426        -1.84662
LJ          0.483372        0.411682         -1.3868
LJ          -2.04978         0.66236         1.92535
LJ          0.209542        -1.19954       -0.915616
LJ           1.37805        -1.58295        -0.13055
LJ         -0.909444       -0.708961         1.81936
LJ          -1.22743        -1.22195         1.00504
LJ          -1.53907        -1.79394        -1.29952
LJ         -0.568886         -1.8761         1.45783
LJ          -2.27002        -1.29276        0.936625
LJ         -0.591602        0.723185       -0.170269
LJ         -0.473389        0.186801          1.3664
LJ          0.224995        0.311158        0.316492
LJ          -1.34967        0.906294       -0.807045
LJ            1.7204         1.44961         1.04311
LJ           2.26646        0.623208         1.00454
LJ         -0.794537         2.24339        0.718064
LJ          0.509775       -0.219351         1.11703
LJ          -2.27711       0.0387541        -1.38041
LJ           2.33228       -0.413209        0.349313
LJ          -1.01665           1.419        -2.08029
LJ           1.42122        0.393196        0.356285
LJ           1.47117         1.67697       -0.981245
LJ           2.14224         1.69671        -1.67241
LJ        -0.0816199        -2.11715       -0.626177
LJ         0.0420049         1.38464        -1.85477
LJ           2.04962        -2.19911        0.417723
LJ         -0.401202        0.948914        -1.09704
LJ          -1.43703        -1.58682         1.91187
LJ         -0.473054        -1.82166        -1.54554
LJ          -1.65811       -0.249696        -2.29355
LJ           2.21266        -2.33342         1.56214
LJ         -0.307082       -0.773014        0.837922
LJ          0.994907         1.33699        0.374569
LJ         -0.556531         1.23639         1.62759
LJ         -0.591852        -1.55458       0.0795947
LJ           1.41938        -1.83739         1.93403
LJ         -0.722283       -0.933774       -0.751598
LJ           1.32611        -1.33774        0.911823
