108
#Comment!
LJ         -0.758369        -1.45358         1.79477
LJ          0.087969         2.11493       -0.433203
LJ          0.762579        -1.67607         2.04301
LJ           0.29941        -0.14171        -2.09607
LJ          -1.00899       -0.679205         1.09126
LJ           1.59246         1.97268         1.94303
LJ         -0.889916        -1.94127       -0.162382
LJ          -1.66709         1.93892        -1.16861
LJ          -1.99422         1.12489       -0.676557
LJ        -0.0318254        -1.66232       -0.829636
LJ          -2.10763        0.458905         2.30081
LJ           1.55743       -0.413827       -0.307284
LJ          -1.47099         -1.7058         0.65234
LJ           -1.1856        0.384499         1.45084
LJ          -1.18563         1.13074        0.426055
LJ          -1.22628        -1.91081        -2.28949
LJ          0.481167         2.02467        0.558113
LJ            2.3398         1.33658         2.15452
LJ          -2.29189        0.130976        -1.37293
LJ           1.04661        -2.27482         1.26589
LJ           1.00973        -1.29922         1.12408
LJ          -1.34745         1.42807         1.78128
LJ          -2.04738        -1.64424        -1.73768
LJ            0.3047         1.16132        -1.79329
LJ          0.409556        -1.80182        0.199389
LJ         0.0845241        -2.34016        -1.52138
LJ           1.08023        0.722568        -1.21122
LJ             1.892        -2.01415        -2.30623
LJ           1.44495        -0.25025        -1.39448
LJ          -2.22561       -0.890204       -0.574047
LJ           2.00912         2.35797         1.10256
LJ          0.771096         1.43652         1.61579
LJ         -0.895053        0.721328       -0.426189
LJ           1.48964        -1.30785        0.154441
LJ          -1.02217        -2.37309         1.60606
LJ          -1.40801       -0.859081        -2.34114
LJ          0.545663      -0.0862021       -0.952825
LJ          -2.36517         1.17649        0.272626
LJ           1.36318        0.672883         1.51726
LJ           1.06346       -0.785467        -2.12582
LJ           1.27303        -1.19806       -0.835768
LJ          0.049895       -0.730236         1.11295
LJ          0.539344        0.666865        0.809336
LJ          0.104422         2.24539         1.47119
LJ          -2.17158         1.99432       -0.278615
LJ          -0.49975       -0.893005       0.0729071
LJ         -0.396666        -1.49614        -1.75806
LJ         -0.517914         2.18108        0.526621
LJ         -0.744861       -0.250405       -0.694107
LJ           1.52117        0.168172         2.37441
LJ        -0.0982611         1.17825        0.211975
LJ           2.34289        -1.86114       0.0369369
LJ          0.342179       -0.933843        -1.37943
LJ         -0.561712       -0.482252        -1.81474
LJ          -1.68342         1.07936        -1.66697
LJ           1.79675         1.97176        -1.68029
LJ         -0.600312         1.36016        -1.26451
LJ           1.14941       -0.367091        0.609424
LJ          -1.41519       0.0691538        0.445537
LJ          -1.87228       -0.439105         1.61377
LJ         0.0888856      -0.0941369        0.012951
LJ          -2.05022        0.519539         1.01853
LJ          -1.70119        -1.93123       -0.697046
LJ           1.01856         1.63233        -0.20492
LJ           2.01078         1.00896        -1.66514
LJ          0.456913        0.422429         1.86637
LJ          -1.88389       0.0212602       -0.447122
LJ          -2.34426        -1.23245         1.10234
LJ           1.93577       -0.235205         1.26827
LJ         -0.926004        -1.18204       -0.839283
LJ          -1.93069           2.165         -2.1555
LJ          0.895681        0.665973      -0.0771069
LJ          0.906224         1.85438        -1.22838
LJ         -0.967677         1.74951        -2.06425
LJ          -2.35213       -0.576783        -2.12221
LJ           2.32131       -0.478963        0.278342
LJ          0.261443         1.18669       -0.772643
LJ         -0.880451        -2.21709         -1.2064
LJ           1.83032        -1.20085        -1.68906
LJ          -1.74802         1.75014        0.914524
LJ          0.678301         2.13419         -2.3449
LJ         -0.427075         0.66819         2.28741
LJ         -0.402348        -1.58913        0.896859
LJ           2.12566         1.34898         1.21533
LJ         -0.874951         1.75423       -0.290008
LJ         -0.133029          1.5787         2.16387
LJ          -1.30095        0.127194        -2.05741
LJ          0.916153        -2.11473       -0.632657
LJ           0.97311        -1.88559        -1.57759
LJ         -0.276664        -2.22509         2.31643
LJ           1.30196         1.44622        0.748094
LJ            1.8523         1.57861       -0.738387
LJ          -1.46402       -0.846752        0.017597
LJ          0.047797        -1.04665         2.21392
LJ           1.81079        0.360369        0.391245
LJ          0.603129       -0.891892       -0.260386
LJ         -0.290841         1.20144         1.17579
LJ         -0.359186        0.425664        -1.50773
LJ           1.78297        -1.04126         1.98847
LJ          0.951572       -0.405352         1.58771
LJ           -1.6481       -0.597772        -1.40559
LJ           1.97086        0.468964        -0.60958
LJ         -0.399405        0.190511        0.851677
LJ         -0.690777       -0.289939         1.94405
LJ          -1.94505        -2.07188         1.75584
LJ           1.24683          1.2351        -2.21274
LJ           1.46835        -2.31592        0.230889
LJ           1.97936        -2.01991        -1.12188
