108
#Comment!
LJ           1.43206       -0.927447       0.0800253
LJ           2.21514        -1.22874       -0.517791
LJ           1.67373        0.154075       -0.174973
LJ          -1.73798        -1.81027       -0.544833
LJ          -2.22585        0.879972        -1.06499
LJ           1.94508        -1.81592        -2.33694
LJ           2.24597         1.76218       -0.184524
LJ         0.0282801         1.32595       -0.407608
LJ          0.852878         1.76922        -1.23896
LJ         -0.755963        0.401969        -1.66879
LJ           1.78025         1.28632         -1.6257
LJ        -0.0517867         1.48911         -1.5482
LJ          -2.07229        -1.74125        -1.50956
LJ          -1.37949        -2.26784         1.00724
LJ          -1.61579         1.73719       -0.950727
LJ         -0.979847    -5.05812e-05         1.46263
LJ           1.81857       -0.355851         1.03127
LJ          -2.35605         1.10601         1.49726
LJ          -1.55559        0.166063       -0.334033
LJ           1.41511         2.33119        -1.86489
LJ           2.32025       -0.766299        -1.62979
LJ           -2.1697         1.86162        0.786701
LJ          -2.11809         2.27697         1.72599
LJ          0.820424         1.57865        -2.13695
LJ          -1.89939       -0.397112           1.089
LJ          -1.27425        -0.79863        -2.08356
LJ         -0.331132         1.24593         1.24923
LJ           1.36139         -2.3024         1.79654
LJ          -1.05687        0.918821       -0.763683
LJ           1.66297        0.312078        -1.22687
LJ          -2.28627      -0.0306022        0.308884
LJ         -0.740565        -1.71961       -0.295739
LJ         -0.309512        -1.08325         1.17705
LJ           1.76402        -1.05026         1.75516
LJ           1.58724         1.06842       -0.525095
LJ          0.716629        -1.19155        -1.60509
LJ           0.70789         1.70503         1.64185
LJ          0.826842        -1.45139       -0.651501
LJ          -2.33405         2.05028         -1.8742
LJ          -1.55246         2.06464      -0.0313357
LJ          0.274931         2.28938       -0.345405
LJ         -0.844165         1.69649        0.512175
LJ           0.33477         1.74326        0.571818
LJ          0.305941       -0.103711         2.37459
LJ          -1.63056       0.0652403         2.25524
LJ          -0.21679       -0.773368        0.219242
LJ           1.72827         1.56157         2.14446
LJ         -0.123429         2.25472        -2.33534
LJ          -1.81625        0.545783         0.90158
LJ          -2.08802        -0.83583         2.10848
LJ        -0.0399538        0.399255        -1.06269
LJ           1.61236         1.73975         1.11508
LJ           1.09905         1.86031      -0.0204952
LJ         -0.170028        0.150091      -0.0883603
LJ          -1.54736      -0.0671193        -1.49582
LJ          -1.01359       -0.338059        0.542267
LJ           1.65878         -1.5723        -1.37523
LJ          -1.24223        -1.23878         1.52826
LJ          -2.14714         1.16117        -2.29222
LJ           1.03468       -0.280074         1.72036
LJ          0.448769        0.701836         1.55881
LJ          0.756575        0.647794       -0.368586
LJ          0.832499       -0.306597        0.464512
LJ          0.573712        -1.55431        0.363995
LJ          -1.47338       -0.807558       -0.353239
LJ            1.4853       -0.586349         -2.1697
LJ           2.03173         0.96663        0.378192
LJ          0.437646        -1.99461         1.46249
LJ          -2.35251        0.328695        -1.90303
LJ          -1.40842        -1.37291        0.565575
LJ         -0.510217        -2.00541        0.571906
LJ          -1.05374         1.56657         -1.7358
LJ         -0.559368        -2.29291          1.5247
LJ          -1.33357         1.35947         1.34776
LJ            1.1347        0.634777        0.742474
LJ         0.0987635        0.860632        -2.32979
LJ          0.404569        -2.09987        -1.38057
LJ          -2.33544       -0.199909       -0.790647
LJ           1.58361        -2.00057       -0.379744
LJ           0.84639        0.796392         -1.6122
LJ          -1.05346        -2.24692        -1.80362
LJ           2.37129        -1.03835        0.442241
LJ         -0.190366        -1.33237        -1.01045
LJ          0.220355        0.671519        0.577577
LJ           1.08433        -1.07144         1.04588
LJ          -2.29256        -2.05178         0.31609
LJ           2.20929         2.29735       -0.999612
LJ         -0.266334        -1.57529        -2.04694
LJ          -1.21299          2.0086         2.13065
LJ          -0.97069        0.820859         2.19804
LJ           1.49078       -0.638634        -0.88325
LJ         -0.696106       -0.340734       -0.755611
LJ          -2.13211        -1.64528         1.21122
LJ          0.048077       -0.133832         1.15756
LJ           1.57407        -2.07882        0.702908
LJ          0.441072        -1.05103         1.84694
LJ           1.18527        0.713229         2.24392
LJ         -0.832219        0.617946        0.677079
LJ           0.79307        -0.13055        -1.42534
LJ          -1.62886        -1.69528         2.33166
LJ          -1.53499          1.0682       0.0847976
LJ         -0.261548       -0.536604        -1.64038
LJ         -0.525415         2.15832        -1.00157
LJ            2.1688        0.116553         1.78875
LJ          0.649672        -1.83676        -2.36819
LJ          -1.16341        -1.24531        -1.18137
LJ         -0.505218       -0.535174         2.05323
LJ           0.58678       -0.436399       -0.454345
