108
#Comment!
LJ           1.43981        0.350313       -0.313957
LJ           1.13806       -0.476462          2.1321
LJ         -0.931706        -2.17712        -1.61349
LJ          0.899243        -1.57286        -1.24653
LJ            1.8036       -0.719736       -0.726628
LJ          -1.48446        0.787961         -1.2973
LJ          -1.00966        0.294022        0.225064
LJ          -1.71905       -0.904778        -0.35194
LJ           1.11331          -1.666       -0.308295
LJ         -0.930373        -1.30922       -0.769216
LJ          0.544353         2.18506         0.21177
LJ         -0.397058        -1.44998        0.706332
LJ           2.24476         2.06407        0.876791
LJ         -0.910834      -0.0285647       -0.720136
LJ         -0.848606         1.25034        0.185268
LJ           1.16756       -0.576523        0.715122
LJ           1.97358         1.05065         1.40501
LJ           2.19277       -0.275151        -1.51721
LJ          0.484711         1.09174       -0.321751
LJ          -1.84406         -1.8547       -0.958414
LJ          -1.39021        0.136214        -2.14804
LJ           2.22796        -1.31539        -1.55719
LJ           -1.2175         0.10814         1.39559
LJ             1.382        0.368793         -1.4259
LJ          -2.02728       -0.722456         2.36922
LJ          -1.56643         1.90731        0.496018
LJ           1.82791        -1.74589        0.956151
LJ          0.211209         1.83738        -1.24753
LJ           -2.3642          2.1638       -0.310055
LJ           2.30928         1.67878        -2.25709
LJ          0.683079        -1.70188        0.621378
LJ         -0.472005        0.359274        -1.71932
LJ           1.94573         -2.1321         1.93723
LJ          0.941319       -0.477979       -0.304569
LJ          -1.40486         1.13801        -2.27582
LJ         -0.378919        0.549714        0.985749
LJ          -1.59764        -1.03005        0.859177
LJ           1.47953         1.19698       -0.842893
LJ           1.66977        -2.20828        -1.87208
LJ          -1.29701         -2.1778         1.24252
LJ          -2.18636       -0.375627         1.28305
LJ          0.425341         -1.2812        -2.10873
LJ          -1.33078         2.20202       -0.428008
LJ           1.21923       -0.611487        -1.51722
LJ          0.599196        0.958608         1.35556
LJ           1.44254         1.70054         2.08309
LJ            1.3439        0.281379         1.49895
LJ           1.96432          0.2713        0.673823
LJ          0.335858       -0.267129        -1.79222
LJ          0.154569        -2.07784       -0.607637
LJ          0.030596       -0.716221       -0.671293
LJ          0.470034       -0.128494         1.26476
LJ         -0.449348       -0.449771         1.00318
LJ          -1.71388         1.72053        -1.39805
LJ          -2.29388        0.536294       -0.809703
LJ          -1.23555        -1.73861        0.305897
LJ         -0.588044        -1.11743        -2.24113
LJ           1.85347       -0.898654         1.66331
LJ           1.97606       0.0223292         2.21345
LJ          0.481622        0.123319       -0.910692
LJ          -2.29282         0.71614        -1.88837
LJ          0.237026        -0.76043        0.324522
LJ           2.02619       -0.780676        0.312661
LJ           1.06292         2.11136       -0.739787
LJ           1.23652         2.07094         1.11202
LJ           2.02719         1.93159        -1.19233
LJ         -0.599851         2.25942        0.365171
LJ          0.906041        -2.13528         1.88584
LJ          -1.14329         1.23028         1.14567
LJ           -1.1899         -1.9704         2.20833
LJ            2.2204         1.28338        0.176138
LJ           1.37604        -1.38983        -2.31193
LJ         -0.563669          1.6419         -1.8033
LJ         -0.532204       -0.567388        -1.46307
LJ        -0.0747498        -1.13822         1.67021
LJ           1.17497        0.798319        -2.27744
LJ          0.430377         0.94496        -1.64441
LJ          0.891776         -1.1969         1.51529
LJ          -1.08213       -0.867332         1.72912
LJ           1.29427         1.37741        0.379409
LJ         -0.449942        0.854834         2.13503
LJ          -1.92012        0.601728         1.90859
LJ           0.49195        0.312374         2.16482
LJ         -0.835263         1.79862         1.83031
LJ         -0.388238          1.8448       -0.482481
LJ          0.391689         1.49033         2.27982
LJ         0.0850696         1.33063        0.542015
LJ          -0.41372       -0.217774         1.98326
LJ           1.59315        -2.37577        0.210095
LJ          -2.00733         1.62433         1.62053
LJ         -0.119413        0.285974       0.0215968
LJ          -2.32788        -1.70608        0.138584
LJ         -0.136316        -1.55277        -1.37693
LJ         -0.223809        -2.12589         1.76703
LJ          0.270101         2.04488         1.23962
LJ          0.841058        0.388021        0.435741
LJ          -1.93665        0.782332        0.735689
LJ         -0.550017        0.916748       -0.853005
LJ          -2.03739       0.0993403       0.0554186
LJ         -0.834934       -0.785213       0.0973202
LJ          -1.66883         1.27616       -0.446545
LJ          -1.39878        -1.29444        -1.76134
LJ           1.91626        -1.77218       -0.765767
LJ           -2.0848        -2.13794        -2.06669
LJ          0.206812        -2.30154        -2.08875
LJ          -1.87795        -1.50742         1.69756
LJ           1.07124         1.76254        -1.75181
LJ          -1.60922       -0.388185        -1.28736
