108
#Comment!
LJ         0.0547647         2.22286        0.879819
LJ           2.26466      -0.0804687         -2.2327
LJ          0.878365       -0.147101        0.742793
LJ           1.02559       -0.999381       0.0178988
LJ          -1.75112       -0.906398        -2.18691
LJ          -1.53639        -2.18088        0.631729
LJ          -0.73129        -1.98858         1.59253
LJ         -0.319114         1.25087       -0.692914
LJ          -1.87269         1.30237          1.2468
LJ         -0.722559        0.227472       -0.436135
LJ          -1.26295         2.25045        -1.22431
LJ           -2.2561         1.96469        -2.25381
LJ         -0.898509       -0.648817        -1.73157
LJ           2.28042        0.306793        -1.27751
LJ         -0.841962       -0.811611       -0.184868
LJ          -1.67404        -2.30569          1.6207
LJ         -0.889284           1.891        -2.07483
LJ          -1.77814         0.70088       -0.415599
LJ          -1.75946        -1.26947       -0.363984
LJ          -1.46305         1.17348         2.20268
LJ          -2.19479       -0.358583         1.06649
LJ          0.606881        -1.77805        -1.05141
LJ           1.79164          1.6724         1.80365
LJ            2.1106        0.605407         1.57758
LJ        -0.0698938       -0.856067       -0.837554
LJ         -0.747256         2.08832        0.139607
LJ         -0.915817         1.90232         1.14876
LJ            1.6034       -0.427284       -0.520556
LJ          -1.89489        -2.31803       -0.384646
LJ        -0.0868888       -0.705741        0.455404
LJ          -2.30062        -1.38951         1.07455
LJ         -0.716385       -0.612793         1.26262
LJ          0.853312         1.02361        0.515761
LJ          0.405859       -0.590165        -1.98318
LJ           1.80353         0.61186       -0.373907
LJ           1.61866        -1.39387       -0.909121
LJ         -0.053978        -1.58819       -0.219671
LJ         -0.101697         0.11858         1.69933
LJ          0.229447       0.0911363        -1.20063
LJ           1.09384        0.887992         1.43361
LJ           1.45962       -0.594907        -2.00077
LJ        -0.0895148         2.24886        -1.68341
LJ           1.51034         2.09244        -1.96242
LJ           1.41204         1.54581       -0.338136
LJ         0.0373445         1.17243        -1.62071
LJ          0.989857        -1.07989         2.03633
LJ           1.19115        0.264222         -1.4517
LJ          -2.37162       -0.660837        -1.08197
LJ           2.36039        0.953492        -2.16352
LJ        0.00445354        0.260608        0.501095
LJ           2.37101         1.59639       -0.613058
LJ          -1.57138       0.0987826        -1.93062
LJ           0.86212       -0.688338        -1.09323
LJ         -0.407885         1.05307         2.24389
LJ           1.57284         2.29719       -0.926505
LJ           -1.4935       -0.214296        -0.95042
LJ         -0.839995        0.830239         1.33265
LJ          -1.53798        -1.12581         1.66522
LJ          -1.22674         1.10401        0.398956
LJ           1.70481       -0.698394        0.691699
LJ          -1.42455        -1.07562        0.583463
LJ          -1.72819         -1.3685        -1.30502
LJ           1.33968      -0.0169376         1.84884
LJ           1.82981         1.47771        0.686285
LJ          0.258866       -0.901226         1.48398
LJ          0.267944        -1.62554        -2.01415
LJ         -0.468966        -1.17673         2.22779
LJ           1.01162        -2.00545       -0.104051
LJ         -0.600835        -1.65551        0.653961
LJ          0.761497         1.86362        -1.32868
LJ          -1.75748         1.44255         -1.4276
LJ           1.33934         -1.6169         1.10861
LJ         -0.469608        -1.57393        -1.33873
LJ         -0.904929        -1.88251       -0.531247
LJ          -1.17163       -0.281121         2.06399
LJ           1.09951        -2.20646         2.03141
LJ         -0.380793        0.146359        -2.04704
LJ         -0.231495         1.25181        0.287754
LJ          -2.11593        0.569234        0.596718
LJ          -1.62532        -2.02442        -2.18574
LJ          0.221767        -1.82846         1.71652
LJ           1.96453         2.31791       0.0947743
LJ          0.561377        0.340351        -2.30552
LJ          -1.99235         1.75856        0.297986
LJ           2.28461           2.234         1.04877
LJ           1.40025        0.845079        -2.33745
LJ          0.532564         1.44247         2.29606
LJ         -0.234256         2.01336         1.93257
LJ           1.68609        0.468832        0.680413
LJ         -0.076566         2.26856       -0.558582
LJ          0.406994        -1.52681        0.743399
LJ           2.08506        -2.04201         1.98653
LJ         -0.999427        0.742493        -1.44932
LJ           1.50286         1.13182        -1.23286
LJ          0.107427         1.02036         1.23659
LJ          -2.25788        -2.36876        -1.34784
LJ           1.08106         2.11836        0.904103
LJ           0.63887        0.976413       -0.773621
LJ           1.98541        -1.07001         2.02289
LJ          -1.10725       0.0819797        0.546237
LJ          0.844333        0.150779        -0.28719
LJ          -2.04891       -0.168323      -0.0229992
LJ           1.97027        -1.35041       0.0575668
LJ          -1.68482        0.425911         1.54399
LJ           1.25352        -1.56583        -1.89034
LJ          0.614579         1.91891       0.0501412
LJ           2.18323        -1.32348        -1.82305
LJ          -1.30585          1.5574       -0.514764
