108
#Comment!
LJ          -1.81706         2.29827        -1.38784
LJ          -1.35276        -1.25888        -1.78007
LJ           0.59846        -1.22852        0.454014
LJ          0.925949        -2.18332        0.352807
LJ           2.18991         -2.3378         1.94265
LJ          0.810337        -1.75748        -1.75125
LJ         -0.389991         -1.3505        -1.45062
LJ           1.35471       -0.136181        -1.28628
LJ           -1.0754        -1.34416         1.10582
LJ           1.39074       -0.853063         1.51501
LJ          0.256787        -1.39209       -0.701906
LJ           1.84531        -2.19556        -1.79088
LJ         -0.910735          1.8616         1.04255
LJ          -1.41081       -0.354385         1.18069
LJ          -2.21301         -1.5695        -2.16712
LJ         -0.656439        -1.72163       -0.502698
LJ          0.417216        0.324172        -1.13177
LJ         -0.433654         1.21995         1.67017
LJ         -0.772459       -0.663535       -0.646047
LJ         -0.108956        -1.70418         2.34103
LJ            1.2289        0.858871        -1.92498
LJ           1.63593       -0.919459        -1.92915
LJ           1.36095         0.84264         1.66894
LJ          -2.24867         1.27174        -2.21715
LJ          -1.43184        0.863372        -1.81221
LJ         -0.801346       -0.412325        -1.68474
LJ          -2.01445         1.35063        -1.08242
LJ          -1.18375        -1.02944         2.02829
LJ          0.387092       -0.652992        -1.43558
LJ          0.297985         1.81763         1.25994
LJ         -0.769802         2.18308        -1.00679
LJ          -1.14841         1.76647        -1.94874
LJ           1.85301         1.54098        -1.47292
LJ           2.13123        0.143456        -1.85659
LJ           1.26821        -1.16839        -1.06437
LJ          0.193352         0.74993         1.09032
LJ           2.18462         1.15843        0.679261
LJ          -1.21654        -2.08431        0.515364
LJ          -1.68568        0.727505       -0.273218
LJ         -0.644192        0.107498       0.0349645
LJ         -0.105141        0.865884       0.0938592
LJ           1.12722       -0.601417       -0.217626
LJ          0.880139        -1.67673         1.21742
LJ          -1.60365         1.84529         1.98279
LJ           1.08734         -2.3562        -0.97113
LJ           1.25241         1.61429       -0.372408
LJ           2.23721        -1.29244          1.5392
LJ          -2.12892          2.1094         0.99536
LJ           2.20915        -1.56875        -1.07237
LJ          -1.46726        0.133268       -0.999283
LJ           -1.6179       -0.275262      -0.0555704
LJ           1.84729         2.09774        0.331444
LJ         -0.830785         1.28802       -0.445997
LJ         -0.267723         1.43936        -1.47934
LJ          -2.35936       -0.336495         1.32387
LJ          0.236794        -2.28884       -0.362225
LJ          0.780116         1.69557        -1.60808
LJ           2.11792       -0.865405       -0.370853
LJ          0.763471       -0.840936         2.29801
LJ          -1.61434         2.02776       -0.415946
LJ           1.65633       -0.934778        0.585112
LJ           2.14781        0.241625       -0.721784
LJ           1.28715         1.84133         1.22123
LJ            1.3899         1.78053        -2.36398
LJ           1.34062        0.816971       -0.946444
LJ           0.46243         1.22173         2.19118
LJ          0.742661        0.416027       -0.212343
LJ          0.127534       -0.242332        0.670933
LJ         -0.520536         0.42084       -0.901727
LJ           2.17565         1.19781        -0.33121
LJ           1.81413        -1.90863          1.0108
LJ          -1.79004        0.484232        0.868315
LJ          0.327358         1.59365       -0.754122
LJ          -1.55484         1.48436        0.452872
LJ          0.645988        -2.29987          2.0035
LJ           2.16476         1.52283         1.60486
LJ          -1.37012         0.84752         1.82171
LJ        -0.0698759        -1.24257         1.36121
LJ         -0.182512       -0.631682         2.33343
LJ         0.0829077        -2.28793        -1.48068
LJ           1.54561        -1.76836       -0.297619
LJ          -1.93887       -0.959893        0.535877
LJ           1.14692      -0.0174499        0.730229
LJ           2.20453         2.30029       -0.580004
LJ         -0.630183       -0.842853        0.320287
LJ           1.45525        -1.64896         2.12963
LJ          -2.26948       -0.614054         2.27117
LJ         -0.978532        -2.11689         -2.3098
LJ         -0.229633        -1.87941        0.540591
LJ          0.141394       -0.396308       -0.473877
LJ          0.611821       0.0697127        -2.08411
LJ          -1.67503        -1.68349       -0.594485
LJ          -0.42681        0.588275        -2.21404
LJ           2.19228      -0.0263353        0.339426
LJ           1.15613        0.964682        0.623841
LJ          -2.26399        -1.89492         0.26717
LJ           1.52537      -0.0621265         2.10129
LJ           -0.7912        0.811614        0.847645
LJ          -2.06043       -0.614276        -1.22405
LJ          -0.25919       0.0787355         1.69555
LJ          -1.71622        -1.89472         1.72115
LJ          0.468566         1.65018        0.339945
LJ         -0.530129         2.04267        0.136978
LJ         -0.217321         1.99573         2.30623
LJ          0.673355       -0.144616         1.59336
LJ          -1.42894       -0.061611         2.32568
LJ         -0.378086        -2.16871         1.50943
LJ          -2.27686        0.445527         1.89165
