108
#Comment!
LJ           0.32115       -0.709376       -0.899047
LJ           2.27765        -1.13025        -2.18623
LJ          -1.59205        0.303347        -1.20526
LJ           1.35726        0.117484       -0.343661
LJ          -1.88683        0.743745        0.394012
LJ          -0.41841        0.388292         1.59388
LJ          0.898923         2.03067        -1.20609
LJ         -0.774811         2.37459        -1.31359
LJ           1.86894        -1.62016        0.401591
LJ          -2.09448       0.0793834        -2.05219
LJ          0.935858       -0.304621        -2.21945
LJ         0.0166096        0.651896        0.568789
LJ         -0.577705        -1.35439       -0.420732
LJ          -1.23714       -0.605287        -1.89126
LJ          -2.04873         1.78057         2.28214
LJ          -2.32819         1.81162       -0.805722
LJ          -1.40233       -0.809302       -0.121265
LJ           1.07024        0.454947        -1.35038
LJ           2.21087        0.982944         1.99839
LJ          -2.04155        -1.95382         2.23962
LJ          -1.47507        -1.52348        -1.68143
LJ         -0.364877        -2.15777        0.123243
LJ          0.544697        0.448019         1.41593
LJ          -1.92566        -1.31522        0.638898
LJ          -1.98617        0.272328         1.25481
LJ          -1.97727        -1.92501        -0.74687
LJ           1.79414          1.8164      -0.0969387
LJ          -2.01817       -0.362887        0.432945
LJ          -1.14357       -0.206667         1.93829
LJ           1.82373       -0.390101        -1.75749
LJ          0.485936       -0.331404        0.244558
LJ         -0.248334         1.80701        0.766918
LJ           1.29033       -0.853467       -0.655718
LJ           1.67832        -2.28764         -0.8838
LJ          -2.28832        -1.12978       -0.258267
LJ           2.35089       -0.141937       -0.654569
LJ          0.463259        -1.66571       -0.497274
LJ          0.259184         2.21517        -2.30855
LJ         -0.692844         1.35933        -1.30707
LJ         -0.243897        -1.37268         1.48472
LJ           1.39308        0.600328        -2.25834
LJ          -1.34096        0.224692        -0.26233
LJ          0.334835         1.40928         1.70014
LJ        -0.0100217         2.15514       -0.624386
LJ          -1.80257         1.15461        -1.77312
LJ         -0.419674        -1.83184        -2.26323
LJ          -1.11249        -1.26459         2.02963
LJ          -1.91527         2.30102        -1.56032
LJ           1.80904          2.1251          1.8789
LJ          -1.66465         1.14172       -0.652586
LJ           2.20607        0.618618         -1.3458
LJ           1.52454        -2.37255        0.928275
LJ         -0.931877       -0.505151       -0.983582
LJ          -1.20023         2.29503        -2.23119
LJ           1.69499         1.26225        0.744935
LJ           0.34701         1.34484       -0.124674
LJ         -0.915494        0.453195        -2.00624
LJ         -0.454854       -0.364506      -0.0568729
LJ           2.32663        -1.97806         1.29549
LJ           1.18481        -2.15365        -2.16736
LJ          -1.32851        -1.78374       0.0829607
LJ           2.04253        -1.45869        -1.33684
LJ          0.389109         1.16853        -1.17383
LJ          0.777868         1.64901        0.816284
LJ          -1.23963         1.95517        0.477523
LJ          0.134786       -0.510482         1.85482
LJ           1.76412        -0.61491         0.18044
LJ          -1.24219        -2.02803         1.35054
LJ           1.05581        -1.25618        -1.82965
LJ           0.36168         -1.8211        -1.53331
LJ          -0.76202         1.15287       -0.157178
LJ           2.20421        0.796013       -0.379124
LJ           1.90361         1.46998        -1.75152
LJ          0.457629        -1.55818         2.14531
LJ           1.95375       -0.894975         1.12493
LJ          -1.88849       -0.858466          1.6015
LJ           1.99208        0.286424        0.478151
LJ          0.942806         1.44394        -2.00752
LJ          -2.00408       -0.782599        -1.34423
LJ           1.65547        0.402771         1.39848
LJ         -0.123712        -1.26021         0.43483
LJ          -1.20165         1.77224         1.67605
LJ         -0.542195         1.51843        -2.30974
LJ            1.2755         1.26449         1.69966
LJ          -1.31281         2.03656       -0.504585
LJ          0.489072        -1.98892        0.682862
LJ         -0.532913        -1.29398        -1.41228
LJ          0.379899        0.256805       -0.589305
LJ           1.96057       -0.333404          1.9536
LJ          0.791673         2.27066         1.60637
LJ          0.874839         2.24663       -0.118001
LJ          -1.55298        0.810534         2.00143
LJ         -0.939059        0.935829          1.0211
LJ          0.899563        -1.21251        0.304545
LJ           1.21015         -1.4763         1.42617
LJ          -2.07779         1.47842         1.06842
LJ          0.155338        -0.88042        -1.94766
LJ         -0.311233         2.36028         1.65393
LJ         -0.628185        0.416831       -0.967064
LJ          0.363847        0.575331        -2.37284
LJ         -0.235586       -0.328407        0.919283
LJ        -0.0667903       0.0178151        -1.71038
LJ           1.07302       -0.499743         1.45355
LJ          -1.01781       -0.958014        0.945745
LJ          -2.16187        -2.29241        0.339884
LJ            1.2762         1.15083       -0.657324
LJ          -1.15639       0.0395488        0.715358
LJ          0.979373        0.583119        0.449119
