108
#Comment!
LJ          -1.63178         1.26249         2.07788
LJ          -1.27811        0.704581        -2.02417
LJ          -1.63722       -0.248194        0.834285
LJ           1.56656        -1.18443        0.770552
LJ          -2.30887        -1.94797        0.336834
LJ           1.42754         1.83626        0.223067
LJ           1.98679         1.09825       -0.254776
LJ          -1.97318         -2.3795         1.31893
LJ         -0.873122         1.89597         1.94193
LJ            1.4708         -1.8038      -0.0555868
LJ          0.764156       -0.813849         2.24908
LJ          -0.36554         1.78271        -1.86345
LJ           1.09784        0.920704        0.708625
LJ          -1.89331        0.623432        -1.08698
LJ           2.16638         2.08246       -0.378142
LJ         -0.396943       -0.223426         1.48505
LJ          0.749773         1.25006        -0.16243
LJ         -0.605866         1.95489       -0.497663
LJ           2.36467        0.521238         1.48007
LJ           2.00877         1.26281        -1.21056
LJ          0.294648       -0.695958       -0.619277
LJ         -0.565361        0.569812         2.06367
LJ           2.01115        -2.16132         1.89667
LJ           1.06964        0.781071        -1.09093
LJ          -1.95307         2.26764         2.37352
LJ            2.0885         1.20756         0.76888
LJ            2.1316         1.58267         1.68078
LJ           1.85998       -0.327878         1.47586
LJ           2.08996       -0.696915        -1.02508
LJ         -0.941767         1.18661        -1.25927
LJ          -2.18483         2.35998        -1.21143
LJ           1.40546        0.815326         1.77392
LJ          0.358286         0.16934          1.9918
LJ           1.62759        -2.16597        0.895276
LJ          0.503859       -0.934234         1.30473
LJ         -0.465988        -1.64066        0.362385
LJ           1.33949        0.322432        -2.15279
LJ          0.113177       -0.414993        -1.88689
LJ          -2.25701        -1.21204         1.07637
LJ            1.0351       -0.181799        -1.32273
LJ          -1.95992       -0.114126        -2.29443
LJ          0.554049         2.25968       -0.316962
LJ          0.425847         1.16247         1.91747
LJ         -0.274192        -2.23791        -1.29609
LJ           2.13366        0.207196        -1.60417
LJ           1.92299       -0.684578        -2.02249
LJ           1.57223        0.122609       -0.515292
LJ           2.01377        0.046388        0.537081
LJ          0.368541        0.835359         -1.8155
LJ         -0.358632       0.0373259        -0.20427
LJ          -1.66143         1.06284         1.07443
LJ          0.179155        0.308436        -1.04365
LJ         -0.922549       -0.330025        -2.00298
LJ          -0.56632       -0.897742        -1.29393
LJ          -2.25916        -1.50483       -0.598734
LJ           1.26142         1.84465       -0.777646
LJ           1.95038         2.05956        -1.91382
LJ          0.622428        -2.03715         1.23386
LJ           2.19689         1.00798        -2.25042
LJ         -0.834619        -1.03863         1.05131
LJ           1.39571        -1.58742         -1.8897
LJ           -1.3024        0.494984       -0.328419
LJ          -1.86647       -0.291101       -0.266279
LJ          0.539946        -1.72162        0.293137
LJ          0.877943       0.0113577         1.13633
LJ          -1.70673       -0.410486        -1.31308
LJ         -0.672889        -1.03696         2.06345
LJ          0.588747        0.261299      -0.0820239
LJ          -1.79048         1.96393        0.212397
LJ           2.35589        -1.52623        -1.63803
LJ         -0.377384        -1.90548         1.70892
LJ          -2.05588         0.65856        0.226716
LJ         -0.772177        0.325805        0.745473
LJ        -0.0633496        -1.61974       -0.562838
LJ           1.31016         1.36945        -2.18886
LJ         -0.773747       -0.856196       -0.269375
LJ          0.203105         1.45016        -1.04111
LJ           1.95709       -0.816154      -0.0534626
LJ          -1.60004        -1.03785        -2.07765
LJ           1.32867        -1.45124         1.67302
LJ          0.865541       -0.692712        0.297394
LJ          0.320452         1.68828         1.09022
LJ          -1.43357        -1.51588        -1.20055
LJ          0.180579         0.65594        0.990718
LJ           1.73525        -1.95338       -0.928575
LJ           1.21472        -1.12202       -0.810906
LJ          -1.20168         2.19948         -1.4307
LJ           -1.8465         1.45635        -1.65048
LJ          -1.54701       -0.676795         1.75654
LJ         -0.130168       -0.531384        0.555761
LJ            2.3721        -1.23196         2.07418
LJ         -0.193719         1.03903       0.0350824
LJ           1.24029         1.83715         1.36562
LJ         -0.141416         2.19977        0.395904
LJ          -1.01794        -1.84971        -0.37878
LJ           1.02751         2.26249        -1.67211
LJ          -1.04453         2.30627        0.920195
LJ          0.134384         2.06976         2.00508
LJ          0.636326        -1.87729         2.29217
LJ          -1.68898        -1.15931         0.23707
LJ         -0.766125        -2.06081        -2.16672
LJ          0.556771        -1.27161        -1.49393
LJ          -1.89217         1.52891       -0.669121
LJ          -1.40538        -1.75044         1.86122
LJ         -0.851124         0.20274        -1.17329
LJ         -0.662816         1.31066         1.13483
LJ          -1.42746         0.28831         1.65135
LJ          -1.13361         1.25395        0.255446
