108
#Comment!
LJ           2.20173       -0.201995       -0.630722
LJ           2.32038        -0.48679        0.453614
LJ          -2.00026         0.25246         1.92106
LJ          -2.17844         1.62039        0.625045
LJ          -2.32037         1.49886         -1.3324
LJ           1.19171        -2.02712         1.39023
LJ           1.25139        -1.77578      -0.0641092
LJ           1.47471       -0.838558       0.0222439
LJ          0.217347        -1.66874        -0.77154
LJ         -0.862571       -0.915948        -1.52758
LJ           2.00422       -0.288395         1.40636
LJ          -1.40468         2.33776         1.58154
LJ           1.91001        0.574199        -1.29037
LJ          -2.33005        -2.07478         2.24882
LJ          -1.59194        0.939954       -0.866001
LJ          -1.99071        -1.87065       -0.686099
LJ          -1.15472        -1.44416         1.98223
LJ           1.06798         1.47109         2.23899
LJ            1.9566        -1.24043       -0.713085
LJ          -1.58414        -1.52866        -1.90998
LJ           2.11536      -0.0221616        -2.02041
LJ          0.263882        -1.83537         1.07379
LJ           2.29276        -2.32316         1.15947
LJ           2.29444        -2.10056        -1.51952
LJ           1.88689        -1.38394         1.62015
LJ          -1.91087        -1.46564         1.38854
LJ         -0.403849         1.05002        0.325719
LJ          0.917398        -1.11708         0.90716
LJ          -1.05582         1.48026         1.00274
LJ          0.594197         2.00098         -1.5435
LJ          -1.74762       -0.296156          1.1911
LJ         -0.207464         2.30185         1.69882
LJ          -1.19498         0.66765         1.52394
LJ          0.772626       -0.200274         1.67018
LJ          0.335994        0.396409       -0.370166
LJ          0.647205        -1.37993         1.91409
LJ         -0.988267         -2.3478         -2.2914
LJ            1.1014         1.13522        -1.02404
LJ           2.02998         1.24938        -2.21683
LJ           2.02085        -1.55409        0.531125
LJ          -1.54861        -2.37879        0.591329
LJ           1.53262         1.47155         1.02876
LJ          0.725275        -2.21612        -2.36092
LJ            1.5372         2.08429        -1.83757
LJ          -1.90395       -0.743337         2.30233
LJ          0.767124       -0.243483        0.349467
LJ        -0.0800104        -1.91025        -1.73412
LJ           1.53995        -1.70979        -2.18248
LJ           1.57316         1.41905      -0.0537528
LJ           1.52124       -0.467276        -1.29731
LJ          0.454118       -0.235991        -2.18873
LJ          0.550258         1.34473       0.0574279
LJ         0.0985924         1.17726       -0.931946
LJ           1.17085        -1.81842        -1.21441
LJ          -1.67373        0.803582        -1.98643
LJ         -0.654223        0.406307       -0.403092
LJ           1.66077         2.06651       -0.870637
LJ          0.614836        -1.05293        -1.51745
LJ          0.739441        0.850325        0.893187
LJ          0.032459       -0.773148         1.35034
LJ           -0.1439         1.67346        -2.15711
LJ          0.588201        0.175009        -1.28926
LJ          0.728027         1.91362         1.39225
LJ        -0.0875241        0.297233         1.07655
LJ         -0.776798       -0.931261        0.783122
LJ         -0.481433        0.570778        -1.44486
LJ           1.66485        0.251878        0.590764
LJ           0.13577        -1.30781        0.131681
LJ          -1.91427         1.79511        -2.34088
LJ         -0.983897        0.260561        0.673575
LJ          -1.72305        -1.45588         0.11249
LJ         -0.828096         1.49402        -1.43787
LJ          0.688612         2.22824       -0.464874
LJ         -0.952667         1.49398         2.06668
LJ          0.462435        0.734386         1.92061
LJ           1.52277        0.669561         1.55936
LJ         -0.285448       -0.986439         2.30778
LJ           2.30861        0.729605       -0.252989
LJ         -0.778696       -0.990067       -0.287178
LJ          -0.99577         1.78504       -0.527331
LJ          -2.35742         1.31663         1.63066
LJ          -1.62483       -0.278793      -0.0405085
LJ           -1.6208         2.16789        -1.45953
LJ           1.37891        0.350968       -0.379447
LJ          -0.22221         2.06051        0.594791
LJ           2.23254       -0.996713        -1.61732
LJ           1.11839         2.14255        0.435166
LJ          -1.75164       -0.938959       -0.839014
LJ          -0.85445       -0.453529         1.68955
LJ           1.26205        0.500704        -2.04418
LJ          0.526039          1.0238        -1.82739
LJ          -1.38451    -0.000149933       -0.944138
LJ            2.0639        -2.34313      -0.0104573
LJ          -1.41633        0.971342        0.104431
LJ         -0.503114        -2.12167       -0.141647
LJ         -0.412486        0.456512         2.25235
LJ         -0.257524         2.15352        -1.04881
LJ          -2.22573         0.63425        0.723384
LJ         -0.150054       -0.339422       -0.848143
LJ           1.48122        -0.67665         2.23951
LJ          -1.08254        -1.83972        -1.07906
LJ          0.790934       -0.527702       -0.613407
LJ          -2.07225          1.6631       -0.359277
LJ           1.74617         2.05198         1.87718
LJ         -0.697927        -1.91898         1.09274
LJ          -1.15524      -0.0137684        -2.02753
LJ           -0.1301         1.34222         1.43006
LJ         -0.301428       -0.310846         0.21099
