108
#Comment!
LJ           2.35952        -1.74273        -1.83256
LJ           2.06971        -0.86253         -1.4054
LJ          0.169184         0.92159        -1.06789
LJ          0.332598        -2.37775        0.360121
LJ           2.15475       -0.989308       -0.406609
LJ           1.68642        -0.32156        -2.23411
LJ          0.302978        0.282492         1.19176
LJ          0.240598         1.96558        -1.31432
LJ          0.638247        -1.20671       -0.985659
LJ          0.643317       -0.868702         2.30657
LJ            1.9051         1.00949         -1.4061
LJ          -1.93977         2.33814         1.38185
LJ           1.93393         1.75326        -0.53636
LJ          -2.36136       0.0764628       0.0360907
LJ           1.90242         2.17426        -1.60379
LJ          -1.57037         -1.7288        -1.22113
LJ         -0.733778       -0.231752        0.924001
LJ          -1.13669         1.27258      0.00445867
LJ          -2.23413        0.933526        0.655209
LJ          -1.59344       0.0986944       -0.748798
LJ          -1.79346       0.0320742         2.35606
LJ           -1.2162        -1.77112       -0.228871
LJ         -0.476024        0.506062        -2.14588
LJ          -1.01198         -1.4146        -2.02517
LJ            1.7434        -1.29763         1.76511
LJ          -1.97744        -1.39218         1.41304
LJ            1.2286         1.81016        0.361318
LJ         -0.172643        -1.34366       -0.257619
LJ          -2.27908         1.62899        -2.18565
LJ          0.125708      -0.0533717         2.13057
LJ           1.62198        0.937952      0.00616955
LJ           2.07428         2.37211         2.06204
LJ         -0.198016         1.34797         1.67573
LJ          -1.09297         -1.7235         1.75239
LJ         -0.553425          0.8107         0.80111
LJ          -0.42515         1.45093        -2.01607
LJ          -1.62829         2.36295        -2.27499
LJ          0.199087       -0.651344        0.798465
LJ           2.22828        0.605673        -2.19773
LJ          0.333284       -0.128203       -0.621344
LJ         -0.230251        0.482787      -0.0595888
LJ          -1.33859          1.1831         2.31225
LJ           -2.1448          1.3828         1.69335
LJ         -0.255075         -1.7375         -1.1961
LJ           1.52914       -0.899939        0.805688
LJ         -0.384359        -2.31632       -0.332963
LJ          0.960974        -1.93679         2.00688
LJ          0.707941        -2.02892        -1.58661
LJ           1.76997         1.61301         1.19045
LJ           2.13404       0.0604654       -0.919484
LJ            0.8745         1.49348       -0.565664
LJ          0.393476         2.00379        -2.29002
LJ            1.2152        0.534744       -0.771357
LJ           1.18849        -0.38063        -1.26656
LJ          -1.90449         2.06534        -1.37386
LJ         -0.963827         2.01361         1.47958
LJ           1.55411         -2.0349        0.082799
LJ          0.950406       -0.436688         1.42306
LJ          0.722978        0.372014         0.26981
LJ          -1.43577          2.1532        0.461066
LJ           0.32111         1.38558        0.732329
LJ          0.379611       0.0967912        -1.58832
LJ          0.654557        -1.59566         1.04218
LJ          0.439091         1.02082        -2.37697
LJ          -1.93434         1.11909       -0.613437
LJ          -1.30114        0.194961        0.221233
LJ           -2.2269       -0.452903         1.54335
LJ          -1.67115        0.437328          1.3711
LJ         -0.569207          1.8158        0.589117
LJ          -0.80218        0.185602         1.77927
LJ          -2.18672       -0.953368        -2.35139
LJ         -0.926275       -0.390836        -1.84377
LJ         -0.132406         1.49757       -0.240675
LJ         -0.809231         1.13342        -1.10576
LJ          -1.17715        -1.09814        0.769806
LJ          0.876163        -1.23272       0.0988811
LJ          0.882266         2.06244         1.30855
LJ           1.08783        0.881571         1.17198
LJ            1.6262       0.0458045        0.742978
LJ         -0.879234         2.23053        -1.46734
LJ        -0.0750149        -2.27233         1.45664
LJ           1.34606       -0.387436       -0.204765
LJ         -0.645815       -0.428221      -0.0938998
LJ           2.00421        0.585477         1.57172
LJ        -0.0676351       -0.840855        -1.66247
LJ           -2.1853        -1.74804        0.307935
LJ          -2.10111        -0.68181        0.633887
LJ           1.47358        -1.32943         -2.0134
LJ         -0.320754        -1.63838        0.724795
LJ           1.10369         1.59583        -1.62709
LJ           1.60117        -1.80205        -1.08836
LJ          -1.73294       -0.613151        -1.44859
LJ          -2.23962        -1.99737       -0.599842
LJ          -1.43789         1.32072        0.957691
LJ          -1.59361        -0.78029       -0.148487
LJ          0.102982        -1.73899        -2.31126
LJ          0.695183        -2.07272        -0.53661
LJ           2.31255         1.87135        0.398737
LJ         -0.902879        -1.01551       -0.979583
LJ         -0.250862       -0.840085         1.73313
LJ          -1.35689         1.99122       -0.603622
LJ           1.39437         1.43794         2.10252
LJ         -0.495046        0.119618        -1.12483
LJ           1.23071        0.535056        -1.99747
LJ         -0.645158         2.36603         2.33794
LJ          -1.71441        0.828914        -1.66427
LJ           1.69391        -2.18621         1.06406
LJ          -1.26976       -0.775357         1.84736
