108
#Comment!
LJ         -0.470606       -0.189351         1.53846
LJ          -1.67385         1.37215        -1.84001
LJ            1.2106           2.118        0.605737
LJ         -0.860163         1.30016        -2.35759
LJ           1.66108         1.73958       -0.217097
LJ           2.10387         1.76498        0.761616
LJ           1.43558        -2.20566         1.71976
LJ           1.50017        0.385998         1.18678
LJ          -1.39979         2.20373          2.3531
LJ          0.302266        -1.12745        -2.17768
LJ         -0.590712         1.97885        -1.59558
LJ          -1.24989        0.428329        0.832079
LJ           0.69878        -1.87381         1.07777
LJ          -2.22916        0.960592         1.07202
LJ          -2.08504         2.26531         -1.6578
LJ          -1.78051         2.30236        0.666183
LJ          0.629766         0.28816        -1.65856
LJ         0.0509465         -1.0462         0.63739
LJ          -1.13827          -1.846        -1.79857
LJ           2.12127         1.00761        -2.04063
LJ         -0.937691         1.18145       0.0526497
LJ         0.0480226         1.56194         2.32422
LJ          0.606132       -0.285951         2.06326
LJ          0.869269         -1.4171        -1.19846
LJ          -2.13464       -0.788932       0.0726291
LJ          0.980488         1.13664        0.615367
LJ         -0.480275         1.99061           1.602
LJ           1.74704        -2.00786         -0.8345
LJ           -1.6715        -1.50226        -0.80179
LJ          -1.89629         1.32335        0.153665
LJ           -1.5423        -1.19067         2.23759
LJ          0.698216         1.63855       -0.491299
LJ         -0.434423        0.907915         1.40652
LJ           1.29461         -1.9802        -1.89834
LJ          -1.54711       -0.205509        -2.09997
LJ          -1.29848         1.47089       -0.861185
LJ           1.92854        0.787136        0.229013
LJ           1.45397       -0.855324        -1.74272
LJ          -1.36195       -0.909985        -1.50279
LJ           0.15931       -0.109459       -0.449305
LJ         -0.394393       -0.132525        0.477916
LJ          0.419865        -2.23225       -0.890001
LJ           1.67582       -0.180769        0.227507
LJ          0.353397        0.844762       -0.857179
LJ          0.840921         1.89852        -1.50169
LJ           2.23379        -1.52894          1.9961
LJ           1.73491       -0.899801        -0.59364
LJ           1.29328        0.991688        -1.11835
LJ          0.897845         1.68249         1.42962
LJ          -2.18651       -0.120451        0.746453
LJ          -2.27838       -0.558417        -1.26476
LJ          -1.79495        0.319061      -0.0966266
LJ          -1.37041         1.57059         1.23856
LJ         -0.270145        0.283019        -2.36833
LJ          -1.64166       -0.301411          1.5332
LJ          -1.32501        -1.62263        0.435681
LJ           1.77472        0.181224        -1.58371
LJ           1.77481         1.19363         1.73392
LJ        -0.0326409         1.57754        0.808385
LJ             1.174        -1.64157       0.0704999
LJ          -1.34541       -0.568725        0.529442
LJ         -0.829369         2.10112        0.547775
LJ           -2.1833        -1.12182         1.08377
LJ         -0.241122        -1.96835         1.05123
LJ           1.53225      0.00198246         2.26054
LJ          0.124035        -1.17082         1.57361
LJ          -1.31284        0.627929         1.83989
LJ          0.382986         0.15245         1.03213
LJ         -0.821408        0.393667        -0.52344
LJ          -2.00317         1.49854         1.96985
LJ          -1.57624        0.399197        -1.19252
LJ           1.94185       -0.473624         1.54154
LJ          -2.21281         1.08965       -0.775818
LJ          -1.34751        -2.02649          1.4899
LJ          0.203141       -0.679688        -1.30324
LJ          -2.27917        0.399185          1.9746
LJ          -0.89924        -2.19874       -0.832836
LJ          -1.45564       -0.366526       -0.565104
LJ       -0.00772071        -1.98843        -1.81056
LJ         -0.712998       -0.679917        -2.26851
LJ          0.239826        0.786205       0.0916389
LJ           2.25567        -1.63976        -1.63656
LJ          -1.91606         2.24541       -0.309522
LJ           2.11971        0.209191       -0.668694
LJ          -2.34951        -2.26183         1.41413
LJ           1.88846         1.75453        -1.22589
LJ           1.17025       -0.315909         -1.0483
LJ          -0.57439        -1.75143         2.16702
LJ         -0.359316         1.75771       -0.498648
LJ           1.58932         -1.4282         1.10412
LJ         -0.386095        -1.77325       0.0918177
LJ           1.77331         1.93562        -2.30836
LJ         -0.793366        -1.04138         1.21292
LJ          0.896207       -0.657302         1.20668
LJ          0.277425         2.28708        0.277343
LJ          0.680187        0.746261         1.77868
LJ           1.18997        0.411585       -0.354331
LJ           1.02812          1.1266        -2.10913
LJ           1.09712        -1.15431         2.04907
LJ           0.37379        -2.03266         2.02092
LJ         -0.494439        -1.38236        -1.22719
LJ          0.268792        -1.25574       -0.411366
LJ         -0.507293         0.89124        -1.40794
LJ         -0.647333       -0.243106        -1.34261
LJ           2.29442        -1.74737        0.388278
LJ         -0.595573       -0.732032       -0.365988
LJ           2.31914        -0.56585        -2.31468
LJ          0.847276       -0.590679       0.0479376
