108
#Comment!
LJ         -0.428939        0.482676        0.466628
LJ          -1.94298          1.5316          1.8032
LJ          -1.27099         1.22766        0.420112
LJ           0.34822        -0.64674        -2.11118
LJ        -0.0591133        0.769116          1.4944
LJ           0.32482         1.89049      -0.0118762
LJ           1.30699        0.842223         1.46452
LJ           1.44282        -0.39413      -0.0881537
LJ         -0.740585        -1.45111         1.02678
LJ           1.14485         2.16971        -2.23083
LJ         -0.793853         1.65751        -1.68284
LJ           1.78664        0.352705         0.68496
LJ          -1.26898        -2.21884         1.22765
LJ           2.17994         1.28538         1.09575
LJ          -1.49242         2.30952         2.17746
LJ          -1.24844         2.29616       -0.809881
LJ          0.667431        0.205641         2.27318
LJ         -0.280122       -0.542151        0.557009
LJ          -1.06977        -1.34409       -0.952189
LJ           1.68808        0.430571        -1.28765
LJ            2.0956        0.302265       -0.311802
LJ         -0.367296        0.168882         2.25844
LJ         -0.946139         -1.0986      -0.0483782
LJ           1.08542         1.75184       -0.546205
LJ          -1.74294       -0.661259       -0.549631
LJ           1.67651        0.633209        -2.33131
LJ          -1.00519         1.54004         1.31961
LJ           1.82246        -2.26489       -0.429708
LJ         -0.225805         -1.1268         1.91868
LJ          -1.98233         1.99413         0.79463
LJ          0.138633        -1.60784         -1.9727
LJ         -0.192628         1.50045         0.71003
LJ          -1.46042        0.525027       -0.456773
LJ           1.66186         2.08783        -1.32394
LJ           2.20307         1.36749         -1.8565
LJ          -1.52748        0.991617        -1.47744
LJ           2.15643       -0.639957        -1.29244
LJ           1.79238        -1.27161       -0.370104
LJ           1.08433       -0.441816        -1.07804
LJ          0.536529      -0.0977455       -0.137443
LJ          0.749268        0.374099         0.79364
LJ          0.182731         1.43787        -1.11955
LJ           1.04049        -1.23257        0.445085
LJ         -0.104841         1.02511        -2.02257
LJ          0.724032         1.24138         2.19226
LJ           2.26726        -2.35322        -2.07289
LJ           1.33814       -0.497495        -2.19602
LJ           1.29134         1.26139        0.362435
LJ          -1.08133         0.53433         1.26572
LJ           1.29305       -0.386261         1.26427
LJ           2.32125        -1.19754         -2.2882
LJ          -1.61603       -0.150749        0.346675
LJ         -0.911634         2.11594         0.35542
LJ         -0.949042       -0.544273         1.33803
LJ          -2.10766        0.388241         1.32943
LJ          -2.06151         2.33274        -0.10597
LJ          -1.65481       -0.718737        -1.49198
LJ          0.440596        0.379389        -1.32451
LJ          -1.17239        -1.37657         2.12884
LJ          0.253021        -1.08208       -0.198183
LJ         -0.732115       -0.185425       -0.410607
LJ          -1.74474         2.05474        -1.58579
LJ          0.139742       -0.317931         1.39885
LJ          -1.78046         1.45032       -0.621859
LJ           2.09989       -0.259262          2.0173
LJ         -0.130131         2.36516         1.27864
LJ          -2.07556         0.56945        -2.27299
LJ          0.223593        -1.28728         1.03276
LJ         -0.765389         1.43448        -0.39939
LJ          -2.25551         1.05889        0.158314
LJ           -2.1274        0.165469        -1.12429
LJ           1.78517        -1.27203         1.48806
LJ          -2.02593        -1.54643        -0.77874
LJ         -0.250048        -1.84022        0.207217
LJ          0.495868        -2.07957         1.92867
LJ          -1.78801        -1.13153         1.39632
LJ         -0.769118        -2.00836        -1.66303
LJ         -0.901023       -0.103174        -1.57551
LJ         0.0787289         2.11088        -1.96733
LJ          -1.62134        -1.58422        0.566687
LJ         -0.605021        0.778349        -1.19467
LJ          -1.70478        -1.63873        -1.70762
LJ           1.81115         1.66887         1.94075
LJ           1.98863        -1.72658        -1.36736
LJ            1.4715        -2.19211         1.50368
LJ           1.99064         1.30609       -0.738486
LJ           1.45484        -1.65634        -2.18584
LJ          0.617336         1.63446         1.27719
LJ         -0.238075         2.35552       -0.686711
LJ           2.15767        -1.66995        0.475186
LJ         -0.634449       -0.996981        -1.89619
LJ           1.14531         1.30745        -1.67678
LJ           2.29476       -0.616922        0.861956
LJ          0.785093        -2.24131        0.713274
LJ          0.675295        -2.35041        -1.13607
LJ          0.833173         -1.0669         1.90727
LJ        -0.0574239        0.714759       -0.457467
LJ           1.08102        0.708714       -0.491353
LJ           1.74037         2.13611        0.607984
LJ         -0.250263         1.62542         1.96097
LJ         -0.480235        -2.13547         2.15069
LJ         -0.104191        -1.53715         -1.0227
LJ          -1.40554       -0.355762         2.34008
LJ          -1.17482        0.970684         2.20965
LJ          0.769808        -1.92774       -0.240651
LJ        0.00624568       -0.482472        -1.03977
LJ          -2.22858        -2.04578         1.68762
LJ          0.930086        -1.36868        -1.21437
