108
#Comment!
LJ          0.172725        -1.62361         1.91357
LJ           2.17394      -0.0302648        -2.11497
LJ          0.499086       -0.527792        0.528965
LJ          0.239874         1.09395        0.529492
LJ       7.22831e-05        0.442113       -0.169569
LJ        -0.0533003        0.367056        -1.95324
LJ           2.23962         2.37283        0.282008
LJ           1.16846          1.6918         2.12017
LJ            2.0974        -1.37047        0.204172
LJ          0.449923        -1.57454        0.618091
LJ          -2.18969       -0.533228        -0.43264
LJ           2.25816        0.260218       0.0453542
LJ         -0.756527        0.762565       -0.787288
LJ           1.22873       -0.632161         -1.4251
LJ          -1.87297         2.18807        -1.04753
LJ           2.27846        0.127971        -1.14979
LJ          -1.64365       0.0916944        0.536778
LJ          0.662895        0.208008         1.19091
LJ          -1.86508         1.48423        0.142017
LJ          -2.34662       -0.860041        -1.48102
LJ          0.661917        0.696074         2.16409
LJ         -0.182012       -0.498931         1.25809
LJ          0.956268        0.273197        0.101079
LJ          0.322353         2.27122         2.33694
LJ          -1.24139        0.082878         1.44699
LJ            1.3282        -1.56891       -0.835648
LJ          -0.19725         2.09827        0.950559
LJ           -1.6853        0.488376       -0.546408
LJ            2.2923        -2.17206          2.2007
LJ         -0.419953         1.95312         1.90682
LJ           2.27012        -1.89818       -0.625934
LJ          -2.10228         2.00732          1.1657
LJ           1.18732        -2.11089        0.030808
LJ           1.65632         2.13159          1.4112
LJ         -0.907372         1.91258       -0.923778
LJ           1.56288       -0.183125         1.72738
LJ         -0.317161        0.383785          1.6812
LJ           -1.5445         1.72463        -1.94488
LJ           1.16558        -1.12444       0.0269683
LJ        -0.0592231        -2.34735        -1.04935
LJ          -2.36483         1.51854         2.03684
LJ          -1.59482        -1.43945         0.22897
LJ           1.29146         1.32122        -1.58493
LJ         -0.330397        -1.77386        -2.02619
LJ          -1.17745        -1.96044        -1.53665
LJ          -1.56668        -1.20772       -0.831375
LJ          -1.73936        -1.44323         2.19286
LJ         -0.530406         2.07556        -1.87513
LJ           1.60237         -1.8115        -1.76366
LJ          0.692596        -2.33687          1.3338
LJ          -2.24264       0.0769364         1.40473
LJ         -0.276713        -1.05139     -0.00952857
LJ          -1.77381       -0.465079         2.18638
LJ         0.0972988         1.36488        -1.46183
LJ           -1.4766         1.34629         1.70471
LJ         -0.113585         1.53399       -0.341237
LJ            1.1241        -1.81566         2.02513
LJ           1.61064       -0.425838        -0.39179
LJ         -0.602213         1.18045         1.06811
LJ           1.71741         2.02772       -0.746294
LJ          -1.82049        0.536565         2.21292
LJ          0.374712        -1.41787       -0.713471
LJ          0.915908         2.24958        -1.35028
LJ            1.0363         1.87892         0.58252
LJ           1.27363       -0.877059         2.35815
LJ           1.33826        0.964041        0.816537
LJ           2.20013        0.945106        -1.84421
LJ           -2.1417        -1.88382        -1.61107
LJ         -0.882863         1.81589        0.347775
LJ          0.663755         -1.4158        -1.90378
LJ          0.200473       -0.575868        -1.77473
LJ          -1.16217         2.29853         1.17314
LJ          0.534369        0.501967        -1.08813
LJ          0.606099       -0.439392       -0.665905
LJ          -1.41542       -0.993261         -1.7831
LJ           1.96066        -1.32597         1.73997
LJ          -1.47659       -0.104126        -1.33586
LJ          0.279269         2.33417       0.0332075
LJ           1.74383         -0.3855        0.735161
LJ          -2.07033        0.918674        0.977294
LJ         -0.955484       -0.815221        0.679047
LJ         -0.464913        0.231064        0.690009
LJ          -2.31787         1.24342       -0.817719
LJ          0.399413         1.44359         1.51233
LJ          -2.14259       -0.787981        0.834746
LJ         -0.566564        -1.97806       -0.283916
LJ          0.994481       -0.958349          1.3047
LJ          -1.00738        0.114219        -2.18691
LJ           1.93247         1.35366       0.0327827
LJ          -1.21199        -2.29128         2.24468
LJ           1.80534        0.780501         1.64747
LJ          0.877269         1.54167       -0.367147
LJ           1.45694        0.650841       -0.678257
LJ         -0.532792         -1.2283        -1.10355
LJ         -0.897145         1.08954        -2.29229
LJ          -1.53097        -2.36445       -0.134099
LJ          -1.62444        0.881022        -1.41885
LJ         -0.843064          -1.425         1.77577
LJ         -0.329364       -0.190955       -0.976916
LJ          0.496898       -0.334959         2.03462
LJ          -1.94028        -1.62571         1.25719
LJ         -0.444048       -0.629664         2.25358
LJ           1.33465        0.313246        -1.69162
LJ         -0.613181        -1.77993        0.696171
LJ         -0.921637       -0.139794       -0.240866
LJ           2.06273           2.036        -1.76797
LJ          -1.11325        0.826591        0.202935
LJ           1.49099         -1.7732        0.901736
