108
#Comment!
LJ          -0.36353         2.36713       -0.942463
LJ          -1.80708        0.244365         2.22886
LJ          0.507928        -1.13942       -0.249962
LJ          0.411963        0.243704        0.799082
LJ          0.220412         1.83414       -0.285847
LJ           2.28717      -0.0108854         -1.6257
LJ          0.685906        -2.13342        -1.70374
LJ          0.303706         -1.9174        0.292209
LJ          0.892409        -1.24259        -1.39644
LJ           2.33202        -1.92926        0.496248
LJ           1.12078         2.34448        0.118263
LJ          0.552294       -0.744676        0.664585
LJ           1.39061       -0.430017        -1.29342
LJ          0.368314       -0.420993          -2.036
LJ           1.94834        0.958317       -0.792432
LJ          -1.15393         1.15683        0.217788
LJ           1.22808        0.353893       -0.670607
LJ          0.386536      -0.0251969       -0.175996
LJ          0.125047        0.939343        0.114401
LJ          -1.15515        -1.85352       -0.870883
LJ          -1.31346         1.76609        -1.26764
LJ          -1.93686         1.94878        0.541302
LJ           1.23193        -2.29638         1.11897
LJ          -2.32222        0.936614        -1.80562
LJ           1.81375         1.10037        0.965383
LJ          -1.42625        -1.99203        0.786882
LJ           2.35754        -1.46631        -2.31805
LJ           1.98254       -0.611959         1.76125
LJ         -0.885923       0.0493563         1.79462
LJ         -0.534245        -1.49848      -0.0762084
LJ          0.779515         1.36346        0.832449
LJ            2.2203        -1.00742        -1.36611
LJ           1.46578         1.69292         1.74416
LJ           1.29451         2.06052       -0.958342
LJ         0.0862651        0.291884         1.91727
LJ          -1.50659      -0.0317284       0.0145672
LJ         -0.593094        0.193743        -1.03649
LJ         -0.541354       -0.802487       -0.804566
LJ          -1.86732        -1.99766         1.71094
LJ            -1.202         2.10337       -0.257178
LJ          -1.75959       -0.695258          2.1748
LJ          -1.02733         2.36096         2.10111
LJ           1.50471       -0.135703        -2.28922
LJ           2.36206         1.85876         2.19848
LJ          -1.47098        -1.29607        -1.79178
LJ          -1.75538      -0.0475314         1.31471
LJ          -2.03695        -1.09378         1.26696
LJ           1.48335       -0.676463       -0.227122
LJ           1.48973         0.67993        -1.59568
LJ          0.535859         1.57355        -1.35992
LJ           1.25004        -1.48595        0.419453
LJ         -0.731632           -0.61        -1.98635
LJ          -2.34384        -2.23736       -0.345189
LJ           0.33378        0.587301        -1.12203
LJ           2.25626         1.76434        -1.27637
LJ           2.35801        -1.19528       -0.223964
LJ           1.61246        -1.68711       -0.506368
LJ           2.04754        0.140933         1.19102
LJ          -1.50286       -0.862432       -0.509446
LJ           1.24293         1.24735       -0.138686
LJ           1.32647        -1.14651        -2.32516
LJ           2.07839        0.670348         2.06652
LJ           1.48284       -0.599032        0.877624
LJ         -0.101976         1.14941         1.21281
LJ           1.67416         -2.1392         2.16353
LJ          0.501849        -1.56463         1.21458
LJ         -0.608233        0.276538       -0.064845
LJ          0.708999        -2.33403         2.11564
LJ          -1.51944         1.56261        -2.27368
LJ          -1.13986        0.818124        -1.72852
LJ           -2.2373        0.691604        0.230796
LJ         -0.492334         1.94664         0.52635
LJ          -1.13316         1.93338          1.2565
LJ         -0.354311        0.327839        -1.99024
LJ          -1.82263        -2.32326        -1.90665
LJ         -0.271336         1.44043        -1.90715
LJ           1.09992        0.450895         1.68549
LJ         -0.748018        -1.48336         2.31236
LJ            1.9476         1.83641        0.194272
LJ         -0.794396         1.06822         1.91542
LJ          0.600024        0.661578        -2.08283
LJ           2.20233     -0.00110259       -0.494349
LJ         -0.308349         -2.3199        -1.96756
LJ          -2.36739       -0.492837        0.427888
LJ            2.1796         2.17369         1.22066
LJ          -1.73284         1.00986         1.28183
LJ         -0.221716         -2.0144         1.78667
LJ         -0.468997        -1.49138        0.943688
LJ          0.428469       -0.466452        -1.01083
LJ           0.54979        -2.06456       -0.689519
LJ          -1.65951        0.617172       -0.921962
LJ          -0.32764       -0.651871        0.167273
LJ          -1.48496       -0.284061         -1.3945
LJ         -0.128872       -0.522007         1.35859
LJ          -1.11092       -0.991735         1.51227
LJ           1.33055        0.261159        0.469449
LJ           0.23746         2.24609         1.06897
LJ          -1.92722         1.40144       -0.460893
LJ         -0.772345        0.421622          0.8671
LJ         -0.171994        -1.37838        -1.63763
LJ           1.69281        -1.82957        -1.58948
LJ         -0.672055          1.1465        -0.66456
LJ          0.300123        -1.28451         2.20551
LJ          -1.34098        -1.00836        0.442575
LJ          0.383889         1.46098         2.03955
LJ          0.856723       -0.628194         1.64947
LJ           1.78812        -1.44398         1.27679
LJ           1.45878         1.69739        -2.03203
