108
#Comment!
LJ         0.0808605        -1.15525       -0.505654
LJ           1.64565       -0.804094          2.2161
LJ          -1.62295       -0.339284       -0.538691
LJ            0.5282       -0.273611       -0.579405
LJ          -1.03548        0.408936      -0.0191224
LJ          -1.04158        0.802865         1.87233
LJ           1.08567         2.35638        -0.83332
LJ          -1.75082         1.60379         2.27624
LJ          0.277867       -0.719359        0.530909
LJ          -2.14968      -0.0741089         -1.4019
LJ           1.83327        0.390119        -1.77364
LJ           0.40917      -0.0102078          1.3845
LJ          -1.05092         2.23049       -0.585648
LJ         -0.629084       -0.735931        -1.05734
LJ           -1.5591        -2.06439         2.27058
LJ           1.80042         1.67505       -0.861952
LJ           2.36493       -0.731727        0.403532
LJ           1.31417       -0.159815         -1.1517
LJ           -2.3314         1.17852        -1.57504
LJ          -2.04238       -0.676272         2.33511
LJ          -1.97879         2.08772        -1.33293
LJ         -0.132585         2.19374        0.671737
LJ          0.167255         1.22479        0.618594
LJ           1.72233        -1.01213         1.11079
LJ          -1.67071        0.478675         0.87573
LJ           1.62974        -1.43764       -0.326469
LJ           2.23155        -1.71335        0.485125
LJ          -2.33009       -0.234951         1.41242
LJ         -0.329365       -0.332169         1.96498
LJ          -2.35516        -1.67224        -1.84898
LJ           1.20289         1.30674       0.0161906
LJ           0.40969        0.254431        0.447795
LJ           1.94223        -0.92356        -1.17134
LJ           1.22465       -0.605321       0.0645598
LJ           1.81074        0.634209       -0.822071
LJ           2.20939        0.761746          1.3471
LJ           1.48372        0.365975       0.0807886
LJ          0.334383         1.45103        -2.12965
LJ         -0.946331         1.26581       -0.916599
LJ          -2.10258        -1.23505       -0.518794
LJ           1.58691        0.147875         1.97161
LJ          -1.30658       -0.360652        0.573307
LJ          0.205771         1.90106         1.67134
LJ          -0.15851         1.89212       -0.976968
LJ          -1.50616         -0.9013        -1.38585
LJ         -0.250786        -2.32554        -1.80907
LJ          -1.19888         -1.1714         2.00007
LJ          -1.72289        0.671754       -0.900397
LJ           1.43626        -1.71263        -2.07752
LJ          -1.45018         0.79434        -1.94589
LJ           2.22146          1.2247        0.298517
LJ           2.27973         2.05593         1.85713
LJ           -1.1509        -1.80972        -1.55839
LJ         -0.791472         1.85516         1.79143
LJ           1.95188         1.14719         2.32145
LJ          0.473919         1.89236       -0.209783
LJ          0.211773       -0.109426        -1.59566
LJ         -0.668199       -0.915612         1.18823
LJ           -1.6233         1.72016          1.3628
LJ           1.88806          2.0888        -1.87654
LJ          -1.17553         2.30615         0.41499
LJ          -1.14551       -0.304992         -2.1803
LJ       -0.00900622         0.91005        -1.41169
LJ           1.80664         1.74041         1.02291
LJ         -0.975175         1.16307        0.895199
LJ        -0.0924983         0.84278         1.59725
LJ          -2.06166         0.37852         2.16066
LJ           1.97951          -2.099        -1.01774
LJ         -0.165651        -2.12482       -0.373504
LJ          0.143414        -1.54919        -1.30543
LJ         -0.850938        0.312717        -1.20269
LJ          0.747771        0.895973       -0.756898
LJ           1.32955         1.24875        -1.65435
LJ          0.751536       -0.879993        -2.04966
LJ           2.06028        -1.65875         1.93201
LJ          -1.24783       -0.227674         1.58489
LJ          -1.51653         1.24292      -0.0445304
LJ          0.966923        -1.07689       -0.972411
LJ           2.09248       -0.330552       -0.450794
LJ           1.03721         1.27054         1.86462
LJ         -0.370801        -1.49039        0.447761
LJ           -1.3029        -2.05655         1.31344
LJ         -0.830686         1.61014        -2.05948
LJ           1.32317         2.32224         1.98019
LJ          -2.17913        0.411926       0.0622912
LJ          0.419394        -1.55729          1.0988
LJ          0.877585        -1.85839        0.221834
LJ         -0.163919         0.61557       -0.484137
LJ           1.04937        0.911416        0.919523
LJ           1.48176        -2.00093         1.07027
LJ          0.829972         1.89942        0.888453
LJ         -0.439819        0.419591         -2.1447
LJ         -0.474745         1.50862      -0.0752482
LJ         -0.455673       -0.331072       -0.138688
LJ           1.42512      -0.0394301        0.982794
LJ          -2.20759         2.11784       -0.417662
LJ          0.477058        -1.77319         2.09846
LJ         -0.377234        -1.68542         1.67553
LJ          -1.05693        -1.49031       -0.584093
LJ          0.660038        0.497817        -2.12255
LJ          -1.95539        -1.20397         1.27768
LJ         -0.300696        -1.18048        -2.17935
LJ           0.78491       -0.857785         1.71888
LJ          -1.46823        -1.46275        0.325807
LJ          -2.13938         2.11646        0.594184
LJ          0.794579         2.37472        -1.79415
LJ         -0.491366        0.214846         0.88559
LJ           1.69463         2.27062      -0.0229845
