108
#Comment!
LJ           1.84426         1.29863          1.9905
LJ          -1.93178         0.22247        -2.15081
LJ           2.09168        -0.75216         1.43128
LJ           1.60436        -1.04374        0.308099
LJ           2.24024        -1.97278        0.181813
LJ            1.2348        -2.25705        0.398793
LJ           1.75224       0.0355254        -1.27349
LJ          -1.43396         1.94732         1.67013
LJ         -0.474094         2.03557         1.11756
LJ           1.95244        -2.30621       -0.895219
LJ            0.4967        -2.08455        -2.33708
LJ          -1.41132         1.55398        -1.50858
LJ           1.88517        0.876982         1.02446
LJ          -1.87182        0.587636         -1.0957
LJ          -2.37682         1.58015        -1.13378
LJ         -0.500462          0.1415        0.923693
LJ           1.34224         1.43354        0.258711
LJ          -1.28307         1.63979        0.493905
LJ          -1.78521       -0.704777         2.22038
LJ           1.80972        0.514039        -2.14647
LJ          0.126068        -1.19286       -0.190237
LJ          -1.36211         1.10447         2.22592
LJ           -2.2815         2.06916          2.0325
LJ          0.917412        0.731071       -0.442004
LJ          -1.62597        -1.79348         1.84646
LJ            2.2659         1.87754       -0.231129
LJ           1.59129         1.84173         1.04657
LJ          -1.24611       -0.910336         1.39771
LJ           1.89054        -1.38016        -1.42577
LJ          0.227478         1.58121       -0.402925
LJ          -1.50282         1.47749       -0.491819
LJ            1.0384        0.745124         1.49876
LJ        -0.0808133         0.45616         1.94398
LJ           2.14948        -1.72877         1.22538
LJ          0.497932        -0.17894         1.24503
LJ         -0.304797       -0.853277        0.835103
LJ           0.18677        -1.38975         1.61206
LJ          0.493748       -0.118654        -0.91697
LJ           -2.0026        -1.10192        0.455383
LJ          0.338946        -1.08755        -2.13712
LJ           2.03583       -0.619741        -2.05945
LJ          0.346277        -2.12241      -0.0461364
LJ         -0.582734        0.964134        -1.92571
LJ         -0.454466         1.78196        -1.35889
LJ          0.913274        0.163065        -1.86191
LJ          -2.14281       -0.393209        -1.29339
LJ           0.97194       -0.858735        -1.30541
LJ           1.39368       -0.342427       -0.341144
LJ         -0.155929         1.92761          2.2501
LJ          0.190634        0.825988        -1.34479
LJ          -1.93306         1.13525         1.39578
LJ          0.619422         1.00655        -2.23328
LJ         -0.989791       0.0806565         2.05363
LJ         -0.391966        -1.90849        -1.90844
LJ          -1.96068        -1.71195       -0.831701
LJ           1.08424         1.98997       -0.534007
LJ            1.6456         1.78758        -1.89707
LJ          0.757298        -1.30261        0.709142
LJ           1.55595       -0.168121         1.96654
LJ         -0.276245       -0.558034         1.76469
LJ           1.19986          -1.481        -2.10153
LJ         -0.714943         0.86293       -0.820147
LJ           2.34655      -0.0511608       -0.372502
LJ           1.18535        -1.64473       -0.355849
LJ          -2.29549        0.173877         1.61132
LJ          -1.57346       -0.603409       -0.488658
LJ         -0.679937        -1.08399        -2.32493
LJ          0.475065        0.728002        0.700707
LJ          -1.58288        -2.37872      -0.0782518
LJ          -2.24131         2.37611        -1.81552
LJ         -0.245055        -1.89734        0.705139
LJ           1.93996        0.822237       -0.658388
LJ           2.37008       -0.177764        0.600055
LJ         -0.169745         -2.1358       -0.954692
LJ          0.965022         1.88237         2.13581
LJ         0.0348853        -1.02557        -1.17398
LJ           1.32737        0.991465        -1.44682
LJ           2.20388        -1.04559        -0.46568
LJ          -1.89055        -1.41246        -1.82746
LJ           1.02319       -0.917464         1.58232
LJ           0.60032       -0.247826        0.194308
LJ          0.164995         1.37663         1.41619
LJ          -1.07405         -1.3362        -1.31545
LJ           1.40454        0.330313        0.382256
LJ          0.643973         1.75164        -1.48062
LJ          0.825319        -2.02597        -1.33917
LJ         -0.574813         2.13567       -0.197121
LJ          -2.25177         1.19977        -2.04417
LJ          -1.17523       -0.532421        0.441482
LJ         -0.127043        0.277928         -0.1571
LJ           2.09253        -1.77907         2.29659
LJ         -0.442155         1.15131        0.377292
LJ          0.480448         1.84333        0.580801
LJ         -0.811403        -1.52663       -0.303629
LJ          -1.10702        -2.29737       -0.970799
LJ           1.19236        -1.86664          1.5403
LJ          -1.97911         2.24552        0.890693
LJ          0.387843         2.35221         1.48939
LJ         -0.590055        -1.94226         1.78811
LJ         -0.661976       -0.355173       -0.905122
LJ          -1.14202         2.31838        -2.23943
LJ        -0.0988947       -0.102884         -1.6942
LJ          -1.98273         1.00461        0.390828
LJ          -1.24439        -1.84729        0.914817
LJ          -1.08769        -0.11128        -1.74748
LJ         -0.939364         1.07692           1.246
LJ          -1.47327        0.303389         1.05505
LJ          -1.31916        0.451185      -0.0288333
