108
#Comment!
LJ        -0.0232173        -1.54466         1.53261
LJ         0.0304628        0.151856        -1.88878
LJ          0.238678        0.734202          0.7174
LJ          -1.00313        0.486937       -0.373966
LJ          -1.06934      -0.0253615        -1.78181
LJ          0.979103        -2.15191       -0.545846
LJ           1.74518       -0.722514        -1.14925
LJ          -2.14146         1.52858        -2.04145
LJ           1.46478        -2.29245        0.382393
LJ         -0.253554        -2.08785         0.63876
LJ           1.01403        -2.37922          -1.554
LJ           2.05442        -2.19419         -2.2545
LJ          0.606073        0.723774       -0.405044
LJ           -1.9334        -1.43426       -0.547886
LJ          -1.01593        -1.52215       -0.132406
LJ          -1.63593        0.945925        0.712785
LJ          -1.02266         1.20462         1.58693
LJ          -2.01336        -0.96933         1.04796
LJ          -1.78402        -2.37678       -0.470724
LJ          0.292195        -1.54647        -1.99586
LJ         -0.634362        0.417619         1.04419
LJ         -0.473969         2.35186       -0.319148
LJ           2.26586      -0.0802365         1.62041
LJ           1.04946         1.35336            1.17
LJ         -0.838505        -0.65347       -0.718198
LJ          -2.16269          1.4879      -0.0102704
LJ           -2.2137         1.99886         0.90234
LJ          -0.47115        0.362193         2.03538
LJ           2.34376        -1.78861        0.620724
LJ           1.67155        -1.05753         1.13976
LJ          -1.11872        -1.83409         1.04348
LJ         -0.533824         1.34936        0.737603
LJ        -0.0812806         1.32128         1.59728
LJ          -1.06667         -1.9632        -1.01298
LJ          -2.34089        -1.16335        -1.69254
LJ            1.2394        0.553453        0.463582
LJ         -0.676988          2.1225          1.3793
LJ          -1.36359          1.0025        -2.19432
LJ         0.0794717        -1.56883       -0.316281
LJ          0.257377         2.11784        -2.14608
LJ           2.26833        -2.01005        -1.21069
LJ           2.19883         1.75215         1.73529
LJ          0.682938        0.457508         1.54289
LJ          -0.27382         1.14446       -0.237822
LJ           1.38275         1.47756       -0.729003
LJ          0.854083        -1.19646       -0.896022
LJ         0.0725913          -1.132        0.610476
LJ           1.95571        0.750685       -0.193405
LJ           1.01772        0.154598        -2.23881
LJ          0.133985       -0.245511         1.02528
LJ         -0.200053       0.0688476        0.162111
LJ          0.112388        -2.07387        -1.18815
LJ           2.02476       -0.142497        -2.16472
LJ         -0.388533         1.87094        -1.39661
LJ          -1.37861         1.82864        -1.22163
LJ          0.432647         1.77284        0.355939
LJ          -1.46474        0.122145         2.07052
LJ          -1.69704       -0.143911        -1.03871
LJ          -1.88746        0.154703         0.12556
LJ          -1.71458        -2.07389        -1.83407
LJ         -0.686768       -0.714426         1.30169
LJ          -1.15285        -1.87018         2.03299
LJ         -0.021384       -0.728528         -1.2605
LJ          -2.18745        -1.82499         1.56849
LJ           2.08521       -0.174492         0.69201
LJ           1.49051         1.51628        0.255222
LJ           1.10296        -0.40221        0.655061
LJ          0.862866         -1.7021         1.11216
LJ         -0.713056         1.94194        -2.34606
LJ           1.71339        0.537519        -1.24853
LJ           1.57427        -0.20378       -0.242485
LJ           1.07524       -0.454994         1.72799
LJ          -2.33452         1.62732        -1.08057
LJ         -0.590696        -1.99941        -1.82683
LJ          -2.15183        0.571054        -1.68245
LJ          0.155465       -0.398728         2.05972
LJ          0.811477      -0.0516042        -1.05116
LJ          0.514657       -0.506629        -0.17192
LJ          -2.27922       -0.791609       0.0927912
LJ          -1.15298           2.102         0.51169
LJ          0.310509           2.271         1.54812
LJ           1.48846         -1.5507        -1.65266
LJ          -1.01706        0.865214        -1.30048
LJ          -1.91907        0.822578       -0.725376
LJ           1.04912        -1.77145         2.22728
LJ          -0.15954        0.162029       -0.915357
LJ          0.961955        -1.33885       0.0836845
LJ         -0.343464         1.07832        -2.00833
LJ          -1.51162     -0.00726018         1.09651
LJ         -0.604947        -1.04154         2.32779
LJ           1.66512        -2.17396         1.49835
LJ           1.68695         1.70527         -1.7475
LJ           1.62843        0.802474         1.84053
LJ          0.396144         1.72488       -0.789199
LJ          0.562494         1.26417         2.35958
LJ          -1.56062         1.99078          1.8451
LJ          0.838793        0.960105        -1.41952
LJ          -1.16967         1.59086       -0.309608
LJ           1.81634        -1.06643         2.11807
LJ          -1.17203        -0.70365        0.435706
LJ           2.05746        0.762761        0.983784
LJ          -1.96327       -0.843191         2.09161
LJ           1.95931         2.14844       -0.361482
LJ          -2.04068        0.861919         1.76577
LJ           1.83121        -1.43243       -0.504046
LJ           1.25985         1.90775          2.1322
LJ           -1.3508        -0.96237         -1.6656
LJ          0.902175       -0.755087        -1.92247
