108
#Comment!
LJ         -0.931142        0.489239        0.157373
LJ           -1.7687         1.18154        -2.21092
LJ          -1.65771         1.54623        0.733389
LJ          0.699962       -0.101353        -1.86822
LJ         -0.194501        0.932454         1.01929
LJ            0.0946         2.32955       -0.424032
LJ           1.21131         1.30305        0.374524
LJ          0.783162       -0.453189       -0.238327
LJ         -0.736382        -1.20506        0.935491
LJ           1.13479        -1.99287        -2.20537
LJ          -0.90272         1.53622        -1.74078
LJ           1.24754        0.286686        0.691893
LJ          -1.33082        -2.19371         1.11403
LJ           2.29725         1.94921         1.14577
LJ          -1.50815         2.15482          2.3526
LJ          -1.57166        -1.83004       -0.714609
LJ          0.394232        0.395652         1.89455
LJ         -0.336663       -0.287656        0.924501
LJ         -0.890641        -1.19323        -1.16043
LJ           2.02563        0.461125       -0.940539
LJ           2.05281        0.257349       0.0333368
LJ         -0.135803       -0.287895         2.36685
LJ         -0.833086        -1.22869      -0.0151001
LJ          0.685261         1.38395       -0.441119
LJ           2.24427       -0.665933         0.25588
LJ           1.36812        0.917325         1.53729
LJ          -1.34196         1.45461         1.64714
LJ            1.8526          2.0879        0.232618
LJ         -0.883985       -0.442131         1.81786
LJ          -1.91508        -2.35817        0.326383
LJ         -0.231019        -1.18456        -1.96824
LJ         -0.589288          1.7324        0.644904
LJ         -0.998842         1.03487        -0.88473
LJ           1.83229         2.16988        -1.53445
LJ           1.90814         1.20924        -1.65015
LJ           -1.9229        0.924919         -1.2104
LJ           2.16091       -0.765501       -0.761582
LJ           1.20644        -1.31796       -0.589239
LJ           1.31445       -0.394528        -1.09942
LJ         -0.209244       -0.260503      -0.0603436
LJ          0.427351        0.664744        0.329814
LJ         -0.158797         1.56467        -1.04089
LJ           1.20909        -1.34842        0.614336
LJ         0.0213474         1.03113        -2.14307
LJ           1.18965         1.62406        -2.33222
LJ           2.08043         2.00672         2.19616
LJ           1.75604       -0.357064        -2.07254
LJ           1.17469        0.511191       -0.309902
LJ          -1.18126        0.622087         1.14153
LJ          0.690797       -0.523354         1.00476
LJ          -1.89776       -0.586445        -2.33623
LJ          -1.99597        0.225249        0.728865
LJ         -0.834144        -2.20006        0.172796
LJ          -1.26543       -0.409736        0.493719
LJ           2.31529         1.12027         1.72432
LJ            2.2401         2.28641       -0.650225
LJ          -1.86055      -0.0766322         -1.3555
LJ           1.30557        0.598413        -2.16473
LJ          -1.34662        -1.46444        -2.20811
LJ        -0.0241689        -1.19364       -0.611914
LJ          -1.56974       -0.727052       -0.424486
LJ          -1.83062         1.98664        -1.44982
LJ         -0.093912        -1.03645         1.63151
LJ          -2.16297         1.44361       -0.146007
LJ           1.36824      -0.0889798         1.83439
LJ         -0.174935        -2.30201         1.19044
LJ           2.31893        0.456703        -2.09218
LJ           0.55041        -1.73265         1.25649
LJ          -1.21673         1.76696       -0.220131
LJ           2.06946         1.04818          0.6674
LJ          -1.74757        0.276491       -0.383967
LJ           1.77074       -0.743625         1.15037
LJ           -1.9113        -1.14223        -1.44117
LJ          0.116814        -1.29345        0.489289
LJ          0.214237        -1.84479          2.1973
LJ          -1.65906       -0.928359         1.36519
LJ         -0.670238        -2.14357        -1.96939
LJ          -1.11301        0.582376        -1.87023
LJ          0.252052         2.16204        -1.73752
LJ          -1.66688        -1.38545        0.464151
LJ        -0.0926341       -0.400123        -1.38852
LJ          -2.19294        -1.94932        -1.96045
LJ           1.26275         2.04334          1.1075
LJ           1.69615        -1.40075        -1.45768
LJ           2.18049        -1.63998        0.901828
LJ           1.71083         1.40999       -0.556316
LJ           2.10944        -1.15527         2.13063
LJ          0.528354          1.6989         1.75586
LJ         -0.940051         2.21074        -1.08329
LJ           2.10761        -1.66534       -0.084197
LJ         -0.941289       -0.463388        -1.92984
LJ          0.875997         1.02793        -1.40231
LJ           2.37154       0.0710113         1.62983
LJ           1.56162        -1.84804          1.5865
LJ          0.966007        -2.26723        -1.03719
LJ            1.0122        -1.08975         2.12238
LJ         -0.290968         1.19444       -0.157065
LJ          0.202649        0.436184       -0.820841
LJ          0.354948         1.90314        0.414102
LJ         -0.363121          1.8545         2.16743
LJ         -0.729877        -1.77641         1.85544
LJ         -0.138878        -1.89072        -1.19624
LJ          -1.53498         0.27784         2.10315
LJ         -0.660732        0.776365         2.01281
LJ           1.05083        -2.19717       0.0390157
LJ          -0.95747      -0.0835928        -1.01828
LJ          -2.08035        -1.97871         1.78586
LJ          0.724698        -1.19874        -1.59945
