108
#Comment!
LJ         -0.152944         2.29764         0.89107
LJ            1.7731        0.056918        -2.17813
LJ          0.811103        0.364773         1.21064
LJ          0.759716        -1.06358        0.129638
LJ           -2.0905        -0.52616          2.0222
LJ          -1.52484         -2.0328        0.580391
LJ         -0.756968        -1.80617         1.34254
LJ         -0.612163          1.2039       -0.585214
LJ          -1.54615         1.28038         1.94394
LJ         -0.577262        0.218647      -0.0894004
LJ          -1.52318        -2.05045        -1.46866
LJ          -2.00783         1.95829        -2.15745
LJ         -0.917339       -0.389395        -1.54889
LJ          -2.17534        0.575223        -1.18823
LJ         -0.928559       -0.696734       -0.386142
LJ           -1.6722        -2.22934         1.53352
LJ          -1.05354           1.909        -1.94159
LJ          -2.14227         1.11201       -0.297596
LJ          -1.64683       -0.826425        -1.09416
LJ          -1.34952        0.818354        -1.93417
LJ           2.19731       -0.560344          0.6197
LJ         0.0658153        -1.82409        -1.25127
LJ           2.26612         1.44989         1.74022
LJ            1.8504        0.243416         1.58977
LJ          0.156275       -0.729978       -0.919825
LJ         -0.784806         2.33825       0.0173174
LJ          -1.11304         1.85341        0.768546
LJ            1.4393       -0.484892        -0.37854
LJ          -2.17847        -2.04053        -0.66247
LJ         -0.180765       -0.489147        0.481239
LJ          -2.31569        -1.40579          1.2692
LJ         -0.699094       -0.296627         1.33922
LJ          0.774694         1.18702        0.467584
LJ        -0.0592373       -0.701923        -1.94613
LJ           1.94126        0.461936       -0.478103
LJ           2.17494        -1.25117        -1.03634
LJ         -0.143389        -1.38952       -0.235637
LJ          0.201425        0.522931         1.98472
LJ          0.109918        0.258888       -0.844434
LJ           1.28339         1.16801         1.75648
LJ          0.950562       -0.709766        -1.54755
LJ         -0.141532         2.09714        -2.11545
LJ           1.78876         1.87062        -2.17741
LJ           1.49371         1.41493       -0.186818
LJ         -0.174022         1.00367        -1.56154
LJ          0.946064        -1.41122         2.17871
LJ           1.01633        0.450397        -1.01847
LJ           1.86649       -0.195038        -1.23655
LJ          -2.33211        0.975797        -2.14885
LJ        -0.0180636        0.497517        0.663794
LJ           2.36543         1.68969        -1.11966
LJ          -2.00011       0.0243647        -1.92396
LJ           1.01554        -1.28367       -0.735753
LJ         -0.523476         1.17404          2.3036
LJ           1.36413        -2.29544        -0.80412
LJ          -1.58449        0.281297       -0.357444
LJ          -1.00867        0.953684         1.15508
LJ          -1.46253       -0.951435         1.26489
LJ          -1.36413        0.976123        0.279703
LJ           1.18831       -0.465162         0.75601
LJ          -1.81945        -1.19983       0.0698142
LJ          -1.65871        -1.14243        -2.07948
LJ           0.92593       -0.385297         2.11114
LJ           1.80729         1.51147        0.825247
LJ           0.29132       -0.511587         1.38094
LJ           0.13899        -1.66849        -2.17353
LJ          -0.55746       -0.992806         2.01838
LJ            1.0038        -2.27488        0.381299
LJ         -0.834996        -1.27643        0.474269
LJ          0.352466          1.9968        -1.14644
LJ           -1.3957         1.51096        -1.11994
LJ           1.12323        -1.53338         1.10314
LJ         -0.831639        -1.38801        -1.49778
LJ           -1.2689        -1.79898       -0.521342
LJ          -1.09987        0.213011         2.13943
LJ            1.0715         2.36476         1.95619
LJ         -0.387294         0.24069        -1.98211
LJ         -0.223681         1.45328        0.406765
LJ          -2.27201        0.682832        0.553658
LJ         -0.940935        -1.82788        -2.33791
LJ          0.121866        -2.20758         1.78682
LJ           2.10297         2.34035         0.21121
LJ          0.565386        0.140642        -1.89883
LJ          -2.01837         1.79546         0.87146
LJ           1.87752        -2.25945         1.24212
LJ           1.42722        0.972246        -1.96574
LJ          0.498679         1.39188        -2.31239
LJ         -0.777515         2.07123         1.82708
LJ            1.5451        0.458068        0.428306
LJ          -0.60968         2.22571        -1.07036
LJ       -0.00401829        -1.46507        0.905728
LJ          -2.34274        -1.83263         2.27884
LJ         -0.880214        0.437137        -1.08093
LJ            1.1918         1.47473        -1.13442
LJ        -0.0542662         1.34336         1.43192
LJ           2.20282        -2.18827        -1.56998
LJ          0.748721         1.90679         1.16992
LJ          0.412138         1.19476       -0.455282
LJ           1.73934       -0.768463         1.66501
LJ          -1.38107       -0.431151        0.463786
LJ          0.587048       -0.087122      -0.0273806
LJ          -2.34794       -0.505995       -0.389261
LJ           1.72614        -1.48144       0.0457019
LJ          -1.86548        0.428318         1.51739
LJ          0.897406        -2.32241        -1.83782
LJ          0.219303         2.16843       -0.129314
LJ           1.82244        -1.15769        -1.97035
LJ          -1.77522         2.00176      -0.0867714
