108
#Comment!
LJ          -2.01134        -1.20965        -1.93114
LJ           1.85446        -0.92411       -0.218656
LJ           1.48658         1.25186         2.36931
LJ          0.679947         1.77709        0.718534
LJ           2.10461        -1.87558       0.0525778
LJ           1.95537         -1.8035         1.90305
LJ           0.54576         1.29471         1.55178
LJ          -0.54905        -2.31476        -1.09508
LJ        -0.0793257       -0.577704       -0.533865
LJ           0.15339       -0.659686         2.24191
LJ          -2.26188         1.09284         2.16371
LJ          -1.91739        -2.01773         2.13024
LJ          -2.24559         1.31916        -1.48324
LJ           1.27468       0.0565218        -1.29317
LJ           -1.4105         2.00189         1.46746
LJ          -1.42753       -0.436882         -1.7305
LJ           -1.4324       -0.654863         1.14981
LJ          -1.86599         2.19144        0.379431
LJ           1.89274        0.130437         0.21825
LJ          -1.67525        0.527295        -1.30762
LJ           1.74262       -0.407456         1.62418
LJ         0.0976085       -0.269201        0.705548
LJ         -0.475383        -1.85738        -2.20103
LJ           2.37944        -2.11945        -1.57829
LJ           1.28991        -2.08458         1.16462
LJ           -2.3753       -0.481436        0.872143
LJ          0.562924         1.17568       -0.337649
LJ          -0.13721         2.33553       0.0797703
LJ           1.82019         2.05955        0.480049
LJ          0.367337         1.61396        -1.74929
LJ           1.31706         1.01796        0.427731
LJ           1.02931         2.35127         2.02372
LJ          -1.71079         1.83844         -2.3592
LJ         -0.970119        -2.20188        0.709072
LJ          -1.19479        0.735869         1.33705
LJ          0.131764        -1.59518         1.81802
LJ          -1.30121        -1.77663         -1.5686
LJ          0.941792         -1.1827       0.0207836
LJ           1.87405        0.329171         2.30218
LJ          0.842728        0.211276       -0.393599
LJ          -1.39963        0.893755       -0.386896
LJ          -2.05825          1.2923         1.16009
LJ           1.59774        0.592132         1.31059
LJ          0.417006        -2.17432        -1.67318
LJ           2.08929         2.00074          2.2407
LJ           1.32155        -1.92891       -0.832483
LJ           0.27019        -1.20186         -1.7103
LJ         -0.664294       -0.924009        -1.44261
LJ           1.45389         1.81431       -0.430823
LJ           1.14262       -0.379118        -2.15719
LJ          0.275539        0.684354        -1.18074
LJ          0.152006        -1.58752       -0.787668
LJ          0.784508        0.642077        -2.22515
LJ          0.924096       -0.808342       -0.925257
LJ           1.90777       -0.973295        -2.25372
LJ          -1.21208          1.4218        0.617855
LJ          0.397417         2.11286       -0.809198
LJ           1.04204       -0.141326        0.604506
LJ        -0.0210098        0.518181         1.86626
LJ          -1.91059       -0.920236      -0.0428598
LJ         -0.214683        0.856329        -2.02023
LJ          0.174653       -0.297409        -1.40152
LJ         0.0570769        -2.12197        0.977632
LJ          0.789073       -0.139468         1.60402
LJ          -1.70765        -1.97118       -0.443761
LJ         -0.540299         1.24942       -0.155157
LJ           1.87344        -1.31129        0.789195
LJ          -1.35524       -0.211206       -0.493574
LJ           2.35889         2.28096         1.27883
LJ          -2.21661        0.256112         1.42247
LJ          -2.13593        -1.13953         1.63449
LJ           -1.2501        0.931005        -2.25392
LJ          -1.61872         2.11209        -1.17514
LJ         -0.731426         1.81679        -1.98102
LJ         -0.274755         1.69123        0.951224
LJ           1.11956        -2.20042        0.107159
LJ        -0.0583748         2.15156         2.13145
LJ           2.04143           0.658       -0.967859
LJ         -0.105079        -1.29614        0.216226
LJ          -1.05509         2.11368       -0.228075
LJ          -1.19699        -1.68507         1.50575
LJ           1.31549        -1.73085        -1.81242
LJ          -1.70432        -1.12143       -0.994313
LJ          -2.38018       -0.218735       -0.611405
LJ         -0.670791         1.41035         1.87965
LJ          -1.75382        -1.52456        0.694996
LJ         -0.706333        0.309807        0.595783
LJ           2.02718         -1.0731        -1.20318
LJ         -0.475809       -0.247805         1.55789
LJ           1.12914         1.18472        -1.18141
LJ           1.57257         1.97455        -1.68143
LJ          -2.32269       -0.180612        -1.60788
LJ          -2.35108         1.83635       -0.514796
LJ          -1.81697        0.390402        0.366364
LJ         -0.114587        0.366456       -0.111288
LJ          -1.07854        -1.04499         2.34968
LJ         -0.859294         1.37907        -1.12965
LJ           2.27669         1.13461           0.233
LJ         -0.597176      0.00568329        -2.24933
LJ          0.793519        -1.19835         1.07457
LJ         -0.795141        -1.41658       -0.556883
LJ           1.62896          1.5902         1.36824
LJ         -0.701121        0.340141        -1.04572
LJ          0.988316        -1.30234         2.16339
LJ         -0.354162        -1.09175         1.14025
LJ          -1.69576      -0.0203079         2.20459
LJ         0.0996788        0.816126        0.792411
LJ          -0.81329       -0.578923        0.289404
