108
#Comment!
LJ          0.671145       -0.789838        -1.58081
LJ          -2.24759        -1.14595          -2.223
LJ         -0.850454        -0.41181        -1.09173
LJ           1.68923         1.23878       0.0808583
LJ           1.70073         1.95624        0.696262
LJ           -1.6368       -0.745893         0.52931
LJ            1.3609         2.15885        -2.12354
LJ          -1.49546        -2.01358         1.97657
LJ          0.823149       -0.102356       -0.784617
LJ           1.51186        -1.31624        -2.09704
LJ            2.1593        0.394026        -2.01911
LJ         -0.251071        0.970201        0.926043
LJ          -1.49174        -2.29245        -1.81305
LJ          -1.45255       -0.998881         1.95553
LJ          -1.71265        0.815804        -2.25338
LJ          -2.17235        -1.74512        0.248366
LJ         -0.907217          2.3696       -0.919822
LJ           1.32554         1.21285         1.27224
LJ          -2.01759        0.441905        -1.11319
LJ          -2.21516         2.30712         1.10633
LJ           2.31599        -2.30779        -2.26785
LJ         -0.335111         2.13089        0.820705
LJ          0.676168        0.353194         0.95706
LJ         -0.730865         -0.6232         1.22571
LJ          -1.88476        0.371313         1.60891
LJ         -0.985492         -1.4908        0.613596
LJ           1.26865        -1.32487       -0.966319
LJ           1.86739        0.308457         1.63009
LJ          -1.77322       -0.249585        -2.03679
LJ          -2.07535         0.70165       0.0813696
LJ          0.600688         2.34647        0.153125
LJ          -1.59047         1.32863         1.26536
LJ           2.17871        -1.10462       -0.508173
LJ           1.93077        -2.29335       -0.371902
LJ          0.712948         2.02631          1.0861
LJ          -1.64829        -1.60885       -0.614136
LJ          0.642253        -1.90933        -1.72098
LJ          0.417756         1.54492        -1.87643
LJ         -0.311812         1.49829        -1.14315
LJ          0.329392        -0.68041         1.19921
LJ           1.52666         1.29736        -1.21616
LJ            1.7134        0.492432       -0.622721
LJ          0.456311         1.34705         1.87024
LJ          0.505651       -0.640556         2.25381
LJ          -1.33486         1.46931       -0.561819
LJ         -0.590303       -0.730863        -2.16073
LJ           -1.2337         2.34854         1.03832
LJ           -1.9694          2.2372       -0.925997
LJ           1.51281         2.29438         1.62795
LJ          -2.09537          1.8013        0.258154
LJ           1.18409         2.22604        -1.01188
LJ           2.27477         1.03962        0.925426
LJ         -0.393424        -1.51519        -1.29264
LJ         -0.497229         1.36205        -2.16606
LJ         -0.683686         1.65699         1.62054
LJ          0.431947        0.408552       -0.103566
LJ         -0.924108        0.604213        -1.11153
LJ        -0.0717196       -0.431161       -0.436639
LJ           2.04966        -1.51254         1.78072
LJ           2.24597        -1.85166        -1.36654
LJ          -1.85888        -1.48824         1.20523
LJ           1.76058       -0.541159        -1.40032
LJ          0.131187        -2.28098       -0.752981
LJ           1.57977         0.15945        0.458996
LJ          -0.57524        -1.74076         1.59699
LJ         -0.226408        0.112284         1.74872
LJ           2.04315       -0.876814        0.445407
LJ         -0.384526        -1.98346      -0.0274094
LJ           1.23334        0.279172        -1.60328
LJ        0.00802722         2.32441         1.91912
LJ          -1.09998         0.31509        0.788179
LJ          -2.17797       -0.313237       -0.270645
LJ           2.36466         1.36019       -0.701447
LJ          0.921908        0.358878         1.90596
LJ           1.71488       -0.420266         2.34454
LJ          -2.25818       -0.584704         1.64254
LJ          0.720308         1.21491        0.547827
LJ         -0.317362        -2.31465         -1.8083
LJ          -1.95709       -0.724893        -1.15536
LJ            2.2355         1.51992         1.92116
LJ         -0.140317      -0.0103886        0.526803
LJ          -1.53296         1.77486         2.19168
LJ          -1.36315         1.51435        -1.57027
LJ          0.213919         0.55147        -2.17994
LJ         -0.183641         1.73639       -0.132794
LJ           1.38679        -1.54291        -0.01563
LJ          -1.35664        -1.17311        -1.74696
LJ          0.440387        -1.49076       -0.359927
LJ           2.35509         1.57983        -1.68832
LJ         -0.121831        -1.04032        0.353341
LJ          -1.00922         1.25927        0.350955
LJ         -0.976831        0.726337         1.79605
LJ          -1.18641       -0.131612       -0.252729
LJ           0.62703        -1.67824        0.942374
LJ           1.32877       -0.913969         1.23104
LJ          -1.19376         2.31367      0.00335055
LJ         -0.866395        0.272964        -2.10772
LJ          0.890521        -1.53501          1.9116
LJ         -0.556527        0.615242       -0.192221
LJ           1.26103          1.1313        -2.23758
LJ          0.823054       -0.662162        0.156455
LJ         0.0559616      -0.0394199        -1.39597
LJ           1.78151        -1.82008        0.879138
LJ        -0.0267568        -1.55837        -2.37722
LJ           -2.1774       0.0729648        0.760056
LJ          0.785261         1.43716       -0.463619
LJ         -0.741647        -1.15949       -0.426116
LJ          0.425942        0.819548        -1.12765
