108
#Comment!
LJ         -0.855815         2.37728         1.65611
LJ           1.47764        0.890336        -1.13934
LJ          0.522514       0.0759813          2.0694
LJ           -2.2459         0.29607         2.05738
LJ           0.90464         0.66095         1.37649
LJ          -0.78446         2.23974       -0.802684
LJ         0.0849748        -2.23146         1.91607
LJ           1.80827         1.48928        0.793472
LJ           2.12185        -1.64468          1.8889
LJ          0.185128         1.47667       0.0748091
LJ         -0.986444        -2.17062        -2.08559
LJ         -0.407744         1.78505         2.32739
LJ          0.651212         -1.7307        -2.03781
LJ          -1.43338        0.620873        -1.85541
LJ         -0.782585       -0.398752         1.73729
LJ          -1.86465         2.27179         1.86781
LJ          0.313466        0.554154       -0.653525
LJ         -0.948153           0.428        0.562765
LJ          -1.95119        -0.11447        -1.48391
LJ          -1.41213         1.40823         2.17597
LJ         -0.975461         1.33522         0.99446
LJ           1.14779         2.07405        -1.09275
LJ           2.10854         2.32404         1.13523
LJ           1.68511       0.0194279        -1.75448
LJ         -0.938414       -0.840286       -0.234335
LJ           1.30166         1.73325      -0.0192295
LJ         -0.168657         2.36054        0.901365
LJ          0.451063        -1.40258         0.33171
LJ          -1.77216         2.13613       -0.256831
LJ         -0.563556        -1.47892         1.88771
LJ          -1.12656       -0.699585         0.76373
LJ           1.49657       -0.261378         1.91446
LJ          -2.13466         1.12702         1.05901
LJ           2.14465         2.29668       -0.975554
LJ          -2.26255       -0.713955         1.73154
LJ           2.35434        -2.15683        -2.06788
LJ          0.620091        -2.36488        0.301019
LJ         -0.439149        0.646101        -1.45609
LJ         -0.912132        0.501546         2.00019
LJ           0.29751         1.00252          2.1515
LJ           1.25954        0.127211        0.543924
LJ           0.37993        -1.94184       -0.629351
LJ          -1.94136         1.76301        -1.70565
LJ           1.20895        0.790379       -0.217412
LJ           1.15107       -0.154341       -0.875294
LJ           1.59054        -1.75382        -1.48978
LJ           1.34529        -2.07092       -0.386754
LJ           -0.5121         -1.8296       -0.177219
LJ           1.57467         1.57635        -1.89778
LJ           1.91575        0.473068          1.2777
LJ          -1.86705        -0.86705       -0.622725
LJ           1.08419         1.57984         1.80049
LJ         -0.402183      -0.0279871       -0.214679
LJ        -0.0398326         1.47515         1.32844
LJ        -0.0366747        -0.84291       -0.536004
LJ          -1.05838        -1.67812        0.976718
LJ          -1.88692        -1.10216        -1.64418
LJ          -1.72714        -1.38436         2.09709
LJ         -0.827012         2.06298        0.194467
LJ           1.73047       -0.863544         1.05327
LJ          -1.83614        0.203389         0.13769
LJ         -0.827314        -1.53628        -1.08095
LJ           1.20456        -1.21413         1.98175
LJ          -2.08666        -1.65188         1.04814
LJ         0.0714782       -0.894998         2.25315
LJ        -0.0969818        -2.21329         -1.4971
LJ          -1.55136       -0.412433        -2.37965
LJ          0.645026       -0.317171      -0.0285661
LJ           -1.5825         2.21144        0.938313
LJ           2.10593         1.42609       -0.567919
LJ           2.37728        0.868265        -1.78626
LJ          0.598234         1.92374        -2.00556
LJ         -0.601828         1.14998       -0.421647
LJ          -1.49644        -1.66894      -0.0540929
LJ           2.01958       -0.874001        -2.07537
LJ           1.48211        -2.35851         2.22804
LJ          -1.04746       -0.497334        -1.25101
LJ          0.607246         1.03073        -1.64291
LJ         -0.620764       -0.133384        -2.11966
LJ        -0.0662199        -1.11976        -1.55458
LJ          0.965978        -2.16159          1.3581
LJ           2.14298        -1.43946        -0.28151
LJ         -0.959425        -1.19169        -1.98974
LJ          -2.30451        0.451452        -0.76661
LJ           2.00261         1.25411         1.98504
LJ            1.1114        -1.17999       -0.518969
LJ          0.175066       -0.152241        -1.35741
LJ         -0.959586         1.54239        -1.46479
LJ          0.826689         1.55025        0.827182
LJ          -1.54292         1.16297        0.137864
LJ         -0.127085       -0.543159        0.642574
LJ          0.924861       -0.522904        -2.05324
LJ         -0.217155          0.2523         1.35371
LJ           2.10731        0.793755        0.214865
LJ          0.238221        -1.40113         1.29862
LJ           -2.0706       -0.846853         0.44163
LJ           1.51329        -1.64502        0.461756
LJ           2.14313         2.37314        0.146102
LJ          0.739803       -0.541162         1.13965
LJ          -1.87507        0.179655         1.18064
LJ          0.163438        0.452235        0.430823
LJ          -1.25876        0.330752       -0.739396
LJ           -1.7168        -2.10362        -1.12363
LJ           1.30701        0.715248        -2.33315
LJ            1.9703       -0.769083       -0.994677
LJ           0.12274         1.84048       -0.860139
LJ           1.92731       -0.162327       -0.173544
LJ          -1.69913         1.24692       -0.838129
