108
#Comment!
LJ          -2.25039        0.554523         1.70566
LJ           -1.3068         2.28624         2.26365
LJ          0.468818         -2.0079         2.24308
LJ          0.525654         1.57307         2.32097
LJ          -1.41823        -1.09465        0.183644
LJ           1.90293       -0.486102         1.70912
LJ          -1.84822       -0.871701         -1.9789
LJ           1.90205        -1.43437        -1.74937
LJ           1.54098         1.41439        -1.42968
LJ           1.43865        -1.93036         2.09435
LJ          -1.15358        0.382834       -0.146845
LJ          0.251637        0.184685       -0.924162
LJ         -0.188189       -0.428568       -0.281512
LJ          -1.13212         1.24432         1.88572
LJ           -1.7635         -2.0512        0.425919
LJ          -1.96363        -1.97179         -1.9545
LJ          0.258339         1.25455        0.458714
LJ           1.25448         -0.5855        -0.87811
LJ          0.865482       -0.103511           1.816
LJ          0.841076         1.49373         1.25109
LJ           1.12508        -1.62176        0.354276
LJ          -1.27468        -1.52259         2.15056
LJ          -2.23444        -2.01089         1.32636
LJ        -0.0523521        -2.25029        -0.86051
LJ         -0.514803         2.19194      -0.0531767
LJ          -1.63669         1.74181        -1.77344
LJ           0.30259        0.729963        -1.79234
LJ           1.50686        -2.34802         1.12803
LJ        -0.0879244      -0.0982807         2.32886
LJ          -1.91366        0.118714       -0.989604
LJ          0.362657         -1.0856          1.6088
LJ         -0.262429         1.71303          1.5915
LJ         -0.260377        0.490922        0.285676
LJ           2.21274         2.07533        0.569222
LJ          -1.42632        -1.18154         1.24451
LJ          -1.88786       -0.370356         1.94321
LJ          0.185053         1.70309        -1.51617
LJ           -2.1165         1.72823         1.89748
LJ          -2.35321       -0.894135         1.01727
LJ          0.820042        0.532326        0.969181
LJ         -0.367989        -1.31874        -2.08104
LJ          -2.09327       -0.464393       -0.187014
LJ           1.88777        0.223466       -0.277013
LJ           0.53325        -1.94964         1.13581
LJ           1.85663        -1.40039       -0.656257
LJ          0.882744        0.153262        0.041471
LJ          0.406787       -0.914267        0.582138
LJ         -0.306475        -1.37132       -0.526642
LJ          -0.74898        0.318337        -1.63678
LJ            -2.353         -1.4065         2.11078
LJ          -2.07243         1.02357        0.115935
LJ           1.93757        -2.34804       -0.477565
LJ          -1.20753       -0.627646       -0.633877
LJ          -1.21802        -2.26537         1.28258
LJ          -1.64144       -0.232015        0.708225
LJ           1.00683         2.33428        -1.75039
LJ          -1.15966        -1.95393        -1.38367
LJ          0.962003        -2.06877        -0.66566
LJ          -1.87252        -1.40412       -0.913378
LJ         -0.778798         1.33211        0.418469
LJ           1.08476         0.76518       -0.738673
LJ          -1.60404         1.86695       -0.197768
LJ          0.839832         2.17218        0.450872
LJ            1.3094        0.724976        -2.06362
LJ         -0.404301        -1.81614         1.73839
LJ           1.40294         1.19086        0.336965
LJ           2.28066         1.15809        -2.08744
LJ           1.22582       -0.349638        0.911823
LJ           1.92579         0.52373        -1.29353
LJ          -1.15631        -1.87767       -0.380637
LJ          -2.03253          2.2916        -1.02023
LJ          0.628184        -1.10959       -0.357025
LJ           1.49967        0.647833         1.75582
LJ          -1.62902         1.70096        0.886668
LJ           1.57316       -0.253968         -2.0039
LJ           1.73605        -0.69519       0.0670025
LJ           0.24543         1.65765       -0.423648
LJ         -0.660474       -0.658474         1.63096
LJ           1.46518         1.82334         2.07883
LJ           2.11558        -1.63008        0.322164
LJ          0.641706        -1.53128        -1.45238
LJ         -0.920472       -0.619245        -1.61801
LJ        -0.0088694       -0.781719        -1.29139
LJ           2.19872        0.397067        0.794502
LJ         -0.914204         1.92919         -1.0055
LJ         -0.332566         2.37676        0.889202
LJ          -2.29419       0.0786498          -2.046
LJ          0.165933        -1.81067        0.215119
LJ          0.671792        -0.20338        -1.77189
LJ         -0.648199        -1.47657        0.773194
LJ           1.16807         1.76643       -0.467935
LJ           1.96106         2.19056        -1.92415
LJ           2.18353         1.41088       -0.580603
LJ         -0.628848       -0.545162          0.6068
LJ           2.23314        -0.66642         -1.2548
LJ          0.079155       -0.179548         1.20512
LJ         -0.501208        0.794995         1.26442
LJ         -0.403855         0.98394       -0.712561
LJ          0.882631        -1.02095        -2.27201
LJ          0.299274        0.817669         1.84721
LJ           -1.4941        0.754736        -2.10273
LJ          -1.45093         1.09429        -1.09831
LJ          -1.11853        0.288447         1.81111
LJ         -0.706934         1.32964        -1.85324
LJ           1.46342         -1.2154         1.19513
LJ           1.98623         1.34655         1.21959
LJ           -1.4468        0.726207        0.940293
LJ         -0.336445         2.33545        -2.08206
