108
#Comment!
LJ         -0.593892        0.942542        0.848265
LJ           -1.2746        -2.35426        -1.82718
LJ           0.32274         1.51269        0.150687
LJ           2.01053         1.81482       -0.158498
LJ           1.38168         2.14397        0.674007
LJ           1.35671         1.88171          -1.356
LJ          0.402161         1.49574        -2.15396
LJ           1.51654        -1.70119        -1.73885
LJ          -0.22476       -0.619079          1.4874
LJ           1.03764         -2.2008          1.5569
LJ         -0.494564       -0.609688        -1.46175
LJ          -2.34058        -1.48011        -1.31035
LJ          -1.25925         1.98278        0.919981
LJ          -1.61723        -2.00541         1.71942
LJ           -1.9962        -1.73499        -2.21057
LJ          -1.74807        -1.72354        0.732017
LJ           1.25864        0.300429        -1.17946
LJ         -0.743414        0.627172         1.84623
LJ          -1.37556       -0.783202      -0.0952702
LJ         -0.348933         2.19916         -2.0661
LJ           2.32876         0.49555        -1.52808
LJ           2.30435       -0.578561         1.54101
LJ           1.37645        0.701192         1.74454
LJ          -1.84853         1.49927        -1.66395
LJ          -1.32989         1.35949       -0.725517
LJ         0.0308924        -1.69368         2.17453
LJ          -2.20347         0.40527         2.10616
LJ         -0.832639        -1.44697        -2.15205
LJ          0.981699       -0.363554        -1.84187
LJ         -0.118323         1.87278        0.916024
LJ          -1.03135        -2.22116       -0.552975
LJ         -0.567279         1.82686        -1.17375
LJ          -1.95175         2.16743         -0.7392
LJ           2.16105       -0.525994        -1.46665
LJ          0.881858         2.32189        -2.09845
LJ           1.22161          1.3122       -0.449121
LJ          -1.55655       -0.662969         0.80843
LJ         -0.717814        -1.27572       -0.541903
LJ         -0.784577      -0.0332611         0.92202
LJ          -1.69654        0.505298        0.699529
LJ          0.669441        0.502685       -0.388571
LJ           1.71356         0.27251       -0.247527
LJ           1.07618        -1.26134         1.15975
LJ           -0.4432         1.08928        -2.02529
LJ        -0.0525025        -2.10695       -0.364496
LJ          0.262517        0.940392        -1.27195
LJ           1.99729        -1.11626         2.37016
LJ            2.0265         1.68541         1.28708
LJ             1.305        -1.68279        0.211954
LJ         -0.610254       -0.263269       -0.351407
LJ           2.05372        -1.96766         1.14927
LJ          -2.06691         1.09734       0.0215108
LJ         -0.642386        0.556591        -1.22703
LJ          -1.53535        0.609306        -1.94312
LJ           1.85775        -2.13549         2.16733
LJ         -0.833369        -1.98171        0.460977
LJ          0.869126         -2.0657         -1.0966
LJ          0.804949        0.365891        0.742853
LJ          0.402825        -1.11234        -1.88714
LJ          -1.37944        -1.46286        -1.28734
LJ           1.30232       -0.564196       0.0518427
LJ          -1.16233        0.496614       -0.284987
LJ          0.178196         2.00484          1.8545
LJ           2.31251         1.24561       -0.905279
LJ           1.29308       -0.791012       -0.918961
LJ           1.25877          1.6223         2.08731
LJ           1.12481        0.810862        -2.03281
LJ          0.459609       -0.601056        0.801147
LJ          0.218968      -0.0272804        -1.12606
LJ           2.30595       -0.119042        0.423512
LJ          0.969493         2.23844       -0.278692
LJ           2.16448        0.522571         1.19985
LJ          0.433385           1.852        -0.97433
LJ          0.358299       -0.409284       -0.244026
LJ         0.0308721         -1.6135         1.17662
LJ          -1.84648         1.20323         1.62936
LJ          -1.43467       -0.208953        -1.18561
LJ         -0.896358      -0.0834557        -2.24637
LJ          0.139465       -0.116285         -2.3033
LJ         -0.265268        -1.83745        -1.37757
LJ          0.155304         -1.3678        0.147519
LJ          -2.06887         1.97911         2.20392
LJ          0.749664       -0.435859         1.75113
LJ          -2.06476          0.2139       -0.518344
LJ          -1.09605        -1.09328         1.66154
LJ           1.97147         1.27324        -2.19808
LJ          -1.83941       -0.747308        -2.30264
LJ            2.3095         2.28495        -1.58119
LJ         -0.835789          1.7949       0.0509161
LJ         -0.621503       -0.995811        0.640295
LJ          0.341356        -1.24569       -0.899481
LJ          -1.93014        -1.60039       -0.277896
LJ          0.201804        0.708397         1.51773
LJ           2.06583        -1.09056        0.552212
LJ          0.971231         1.37334         1.16643
LJ           1.84183        -2.22249       -0.746474
LJ           1.71639       0.0100543        -2.25868
LJ         -0.344123         1.09878       -0.451205
LJ           2.16665       -0.731292       -0.368867
LJ          0.987047        -1.33694         2.10248
LJ          -1.05109         1.54893          2.1499
LJ          0.464635         -2.2076        0.492284
LJ          -2.12255         2.06275         0.58246
LJ         -0.021215        0.252029        0.297319
LJ           1.53165       -0.234801         1.09678
LJ          -1.48787       -0.169256         1.66388
LJ         -0.656579        -2.17054         1.56009
LJ           1.66874         1.08665        0.340608
