108
#Comment!
LJ           1.31866         1.78605         0.25872
LJ          -2.01881        0.684097       -0.911285
LJ          -1.13525        -1.52572        -1.98286
LJ          -1.35327        0.817229         1.66359
LJ           1.64056        -1.37669        -2.21107
LJ          -0.50676         2.20977        -0.65594
LJ           1.28676        -1.99791       -0.427335
LJ          -2.03003         2.36614         1.18824
LJ         0.0442977         1.74158         1.97518
LJ          -1.31881         1.68154        -2.30321
LJ         -0.630834        -2.35494         2.22762
LJ          -2.37448          0.1514       -0.165995
LJ          -2.37135        -1.47886        0.834578
LJ          0.609811         1.50506         1.07235
LJ         -0.307566        0.848143         1.30248
LJ           1.77311        0.730791        0.387902
LJ         0.0132205        -1.34597         1.03282
LJ           1.03451         2.18246        -1.52942
LJ         -0.484235        -2.17728         1.26761
LJ          0.226678       -0.761153        -1.12516
LJ          -1.23372        0.747508        0.036534
LJ           1.34439        -2.35472         2.29974
LJ           1.83391        0.809289       -0.645269
LJ          -2.12777         1.30503      -0.0893434
LJ         -0.396797       -0.421614        0.903098
LJ          -2.32338         1.34133        0.978748
LJ          -2.22233        -2.29877       -0.731099
LJ        -0.0969489        0.437533        -1.41808
LJ         -0.264906        -1.07346       -0.146547
LJ          0.806022        0.542066        0.682585
LJ         -0.465149         0.88549         2.30202
LJ          -2.01503        0.490058        0.696213
LJ          -1.23494      -0.0782689         0.54606
LJ          -1.35451        0.552876        -1.91757
LJ          0.712415         2.00715       -0.569622
LJ          0.593134         -2.1617         1.33467
LJ          0.101334        -1.79261       -0.725808
LJ          -1.57408         2.36761        -1.53594
LJ          0.396178       -0.422012        0.268502
LJ          -1.50013       -0.300807         2.36259
LJ         -0.910401         1.70939         1.55553
LJ          0.652883        -1.50615         0.11342
LJ           1.17979         0.29296        -1.25003
LJ           1.78393        0.796698         1.55365
LJ           1.54281       -0.625901        -1.50224
LJ           2.36385         2.18524        0.230431
LJ      -0.000512459         1.71595        -1.74088
LJ        -0.0398054        -1.13762        -2.00323
LJ           1.77317         1.82789       -0.626213
LJ          -1.33393        -1.62064         1.34349
LJ           1.31434       -0.018793       -0.175069
LJ         -0.605367        -0.14413       -0.184043
LJ           0.79276         1.19244        -1.20113
LJ          -1.33738         1.75342        0.689223
LJ         -0.531082        -1.32818         1.94081
LJ           1.88943        -1.64322         -1.0905
LJ           2.17684       -0.637778       -0.685882
LJ           1.54775     -0.00179235         1.00462
LJ          0.253786       -0.532736         1.79391
LJ          -0.38845        -1.95427        0.326163
LJ         -0.650406      -0.0214201         1.80194
LJ           1.09188       -0.888797       -0.672128
LJ          -1.21063        -1.84864       -0.743132
LJ          0.966124         1.55551         1.96184
LJ          -2.10201        -1.20067         1.84919
LJ          -1.36804        -2.10611        0.281366
LJ         -0.800362        -1.01587        -1.09234
LJ          -2.19746       -0.540063        0.696916
LJ           -1.5264       -0.470093       -0.462126
LJ          0.451591         2.22652        0.413002
LJ          -1.42856         1.95254       -0.402917
LJ          0.384335        -2.19453        -2.28778
LJ          0.515537        0.411474         1.69347
LJ          -2.13879        -1.35387       -0.244242
LJ          0.477036        0.864823         -2.1697
LJ         -0.143487        0.663287        0.304803
LJ         -0.599131       -0.335903        -1.85297
LJ           1.49996         2.09918         1.30822
LJ           1.54432        -1.98053        0.623326
LJ           1.00216        -1.10594         1.05997
LJ           2.17626       -0.257953         1.67924
LJ          -1.15634        -1.17342        0.334519
LJ           1.36459       -0.437871         2.27948
LJ          -1.84211       -0.120684        -1.47285
LJ          -2.17659        -1.74101        -1.99946
LJ          -2.36097       -0.694877        -2.08108
LJ         -0.993038        0.374308       -0.934715
LJ            1.5967         1.41171        -1.87834
LJ         -0.299042         1.68243        0.764343
LJ          0.734052        -1.41169         2.07369
LJ           2.04964         2.29103         -1.6933
LJ          0.833108        -1.53533        -1.40022
LJ           2.08016        0.379926        -1.56924
LJ          -1.41737       -0.660755         1.37723
LJ         -0.190216         1.22637       -0.589805
LJ           1.41705        0.566733        -2.32591
LJ          -2.26992        0.717142         2.23066
LJ          0.466238       -0.348708        -1.97137
LJ           1.89638        -1.79997         1.69277
LJ          -1.81159        -1.17034        -1.18365
LJ         -0.921244         1.55396        -1.30554
LJ          -1.96947         1.43921        -1.53939
LJ          -2.29836         1.68437         2.01661
LJ          0.445552         0.28968       -0.537627
LJ           -1.6378        -2.16023          2.1086
LJ          0.823373         1.09275       -0.197218
LJ           1.78121        -1.09212        0.170698
LJ         -0.543006         -2.1555        -1.47458
