108
#Comment!
LJ          0.189175         1.67159        0.985715
LJ          -1.78119         1.40363          1.5669
LJ           2.03546         -1.5342         -1.4594
LJ          0.298596        -1.06185         1.23989
LJ         -0.110522        0.330267        0.440322
LJ          0.788539         1.85007      -0.0290847
LJ          0.404015        0.852525       -0.294717
LJ          -1.87117        -2.28853         1.15206
LJ          0.820136       -0.541124        -1.93843
LJ          -1.14878        -1.22562       -0.505143
LJ          -1.82818        -1.75142        0.141306
LJ           1.69528       0.0134732         2.01893
LJ           -1.6567        -1.58637        -1.32757
LJ           2.12457        0.339608       -0.879745
LJ            1.9636         -2.1546        0.528621
LJ          -0.35905        0.370978       -0.670706
LJ          0.270771         1.10419         -1.2838
LJ           1.03825        -1.05792        -1.05389
LJ       -0.00412627        -2.27714        0.016556
LJ          0.292809         -1.2123       0.0626089
LJ         0.0893361         1.40279        -2.32107
LJ         -0.745274         -1.2664        -1.82852
LJ          0.741679        0.832656        0.706674
LJ           1.68564         1.99971       -0.433327
LJ          0.671449       -0.133969        0.910042
LJ           1.62874        -1.17389        -2.28139
LJ         -0.726439        0.944219        -1.44549
LJ          -1.44317       -0.657819        0.465718
LJ          -2.31617        -1.88817         2.16658
LJ          -2.14924        0.893029      -0.0156064
LJ         -0.957446          1.9039         1.20994
LJ         -0.407328         1.42262        0.180831
LJ          -1.16936         2.22359        0.104671
LJ         -0.617853         1.81368       -0.767184
LJ          0.621549        -1.30504         2.18285
LJ         -0.404572        -1.56434         1.97655
LJ           1.57944         1.21045        0.253423
LJ           1.30398        0.583589        -1.97588
LJ           2.26147         1.48062        0.894333
LJ          -1.27588       -0.298243        -2.26136
LJ          -1.52689        -1.29626         2.22735
LJ         -0.223703        -2.09756          1.1751
LJ          -1.34691        -2.30866         1.97878
LJ         -0.542115       -0.025621         1.60095
LJ         -0.975795        0.880503         1.39725
LJ         -0.439209         2.03839          2.0289
LJ          -1.21335        -1.57119         1.32441
LJ          -1.96012       -0.666751       -0.802125
LJ           2.37702         1.49465       -0.919088
LJ        -0.0532634       -0.697174       -0.845652
LJ           1.06931        -1.85243       -0.321709
LJ            1.6908         2.34494        -2.27389
LJ          -1.61017       0.0482766        -1.39534
LJ          -2.06404       -0.737286        -1.81803
LJ          -1.16657        -2.24611        -1.84203
LJ           1.21772         1.95706        0.997726
LJ          -1.23417      -0.0738485        -0.50316
LJ           1.34292        0.252029       0.0751297
LJ         -0.255726       -0.683834         2.34368
LJ          0.206232        0.286633        -1.87648
LJ          0.553191         2.14673         1.91419
LJ          -1.07845         1.55652        -2.19437
LJ         0.0946911        0.826665         1.62172
LJ          -2.06711         1.81213        -2.36206
LJ           2.36143       -0.773937         1.97117
LJ          -1.60315        0.463717         1.98457
LJ         -0.631892      -0.0984984        -1.53998
LJ          0.463821         2.34194       -0.920849
LJ          0.986279         1.64677        -2.03599
LJ           1.44711       -0.634586       -0.296025
LJ           2.04672       -0.318915         1.02149
LJ           2.31531       -0.073817       0.0983457
LJ          -1.70726        0.968095         -1.6549
LJ         -0.193542        -2.29322        -1.70425
LJ          0.762006        -1.94794         1.14158
LJ            1.3003         1.33979         1.79157
LJ          0.523734       -0.218981         1.92455
LJ           1.44609        -2.35649        -1.26254
LJ            1.7072        -1.77827         1.49595
LJ            1.3017        -1.32857         0.52937
LJ          -1.50504       -0.358743         1.40477
LJ          -1.14941        0.251864        0.639621
LJ           2.09735         2.04879         1.66995
LJ          0.910978        0.122707        -1.08905
LJ         -0.531831       -0.618774        0.144544
LJ          -1.44928         1.32451        0.478339
LJ          -2.16715         1.96383        0.105704
LJ          0.513761       -0.250003       -0.168089
LJ           2.12945         -1.8149       -0.488869
LJ         -0.692032        0.661465        -2.37591
LJ          0.761844        -2.05972         -2.0042
LJ          -2.03666        0.539297        0.961885
LJ           2.30161         -1.0276        0.164415
LJ          -0.78539        -1.56667        0.358897
LJ          -1.51075         2.30946       -0.839366
LJ           1.20641          1.0222        -0.88014
LJ          -2.22441         2.32863        -1.56316
LJ           1.31067       -0.825537         1.38187
LJ           1.71861       -0.480057        -1.49421
LJ         -0.322395        -1.64086       -0.791256
LJ           2.17495         0.91676         1.99722
LJ           2.36906        0.192949        -2.10582
LJ            2.1622          1.1575        -1.84693
LJ          -2.21673        -1.26266         1.10423
LJ          0.236889        -1.25936        -1.55715
LJ           1.59425        0.552613         1.28176
LJ          -1.16781         1.00494       -0.378912
LJ         -0.630263       -0.830692         1.15104
