108
#Comment!
LJ          0.135591        -0.88016         1.18466
LJ           1.25255        0.132894         2.35413
LJ            0.9264         0.80632         1.65015
LJ          0.523268         1.35873       -0.412854
LJ          -1.54601        -0.81735         1.77925
LJ         -0.738658        -2.09466        0.750985
LJ           1.78642         2.20307        -1.60305
LJ          -1.66755         1.63315         1.78252
LJ           2.26277         1.85212         1.19327
LJ          0.432237        -1.70242       -0.380459
LJ          0.113163        -2.27205        -2.32224
LJ          -1.77645        -2.12248        -2.02109
LJ          0.577964       -0.291632       -0.747694
LJ          -1.80718       0.0210712       -0.237137
LJ         -0.472748        -1.23116        0.407449
LJ          -0.71157         2.07695         1.61923
LJ          -1.06885        0.848026          1.3014
LJ          -2.34288        -0.73521       0.0867867
LJ          -2.13923         -1.9457        -1.09555
LJ           0.36459        0.724659        -2.13693
LJ          -1.70766        0.170105        0.890233
LJ         0.0718916         2.19767         0.19616
LJ           1.93118        0.331318         1.51209
LJ           1.44368         1.05874        0.819257
LJ         -0.257965       -0.795938        -1.43492
LJ          -1.16589         1.67147        0.778091
LJ          -2.04067         1.88654        0.290331
LJ          0.960117       -0.580997          1.6679
LJ          -2.29066        -1.70787        -0.10688
LJ          0.549034       -0.894249        0.196058
LJ          -1.87068        -2.10846         0.82413
LJ         -0.801502       -0.102167         0.34043
LJ          0.488813        0.924687         0.51809
LJ         -0.434363         -1.6932       -0.853949
LJ           1.47192       -0.421654       -0.106723
LJ           2.19013         1.06102      -0.0895661
LJ           0.22157        -2.22461         1.40233
LJ         -0.146775         1.07953         1.81839
LJ         -0.274661       -0.592251       -0.314984
LJ           1.28291         1.14891        -2.10707
LJ           1.63328       -0.847217         2.37559
LJ         -0.892321         2.30893        -2.15232
LJ           2.04946          1.2828         1.95704
LJ          0.993304         2.25411       -0.229077
LJ         -0.729851        0.794848        -1.79496
LJ          0.571283       -0.414705        -1.88742
LJ          0.158119         0.33891       -0.118617
LJ           2.15353        0.344506       -0.800125
LJ          -1.79079         0.70276         2.04445
LJ         -0.238598        0.240498         1.01781
LJ            1.1997         0.49068       -0.299479
LJ           1.45926         1.48321       -0.667356
LJ           1.67425       -0.522562        -1.40489
LJ         -0.265498         1.61462        -2.00627
LJ          -1.18466        -2.26164        -1.14947
LJ          -1.16401         -1.7987        -0.11686
LJ         -0.141616         1.61341        0.923896
LJ            -1.131        -0.28378           -1.66
LJ          -1.39065         1.14353       -0.903911
LJ          -2.25637       -0.173872          2.2462
LJ         -0.775258        -0.58932         1.15555
LJ          -1.02141        -1.25295         -2.0504
LJ           0.55512         1.47279        -1.45325
LJ           1.58022        -2.21341        0.602048
LJ          0.754234       0.0151379        0.779936
LJ           1.80566        -2.23268       -0.644015
LJ         -0.299424       -0.658952         2.34431
LJ           1.52853        -1.56294         1.59492
LJ          0.573006         1.63696         2.19828
LJ          -2.24612         1.82015        -0.67815
LJ           2.05572        0.406544         -1.7865
LJ           1.52941       -0.812817         0.76862
LJ         -0.901671         1.90548       -0.299133
LJ          -1.37574        -1.28003         -1.1171
LJ          -0.89435        0.134003         2.13824
LJ          0.358071        -1.36805         2.07673
LJ          -1.72107        0.530134        -1.59277
LJ         -0.931764        0.203296       -0.629159
LJ           1.94789         0.24602         0.46637
LJ         -0.574511        -1.69991         1.88887
LJ          0.299134        -1.54649        -1.54867
LJ           1.07937        -1.85546        -2.08844
LJ        -0.0750164        0.314718        -1.24319
LJ          -1.40697         1.51696        -1.87766
LJ           2.25117        -1.42847        0.925512
LJ           1.15044        0.512692        -1.36715
LJ          0.856112        -2.32711        -1.19908
LJ          0.246175       0.0990879         1.87154
LJ           2.33645       -0.507374         1.31866
LJ         -0.141226         2.12823       -0.994739
LJ          0.588359        -1.79605        0.616714
LJ           2.36648        -1.50946         2.16119
LJ          -1.54183        0.961821        0.131853
LJ          -2.34724          1.3151        -1.89381
LJ           1.30937         1.93172         1.59002
LJ          -1.56962        -1.85943         1.72365
LJ           2.05415         2.31167         2.27003
LJ         -0.410336         1.17817       -0.880268
LJ          -1.95884       -0.909257        -1.93845
LJ          -1.29346       -0.781387       -0.184729
LJ         -0.536492        0.911286        0.360881
LJ          -1.61087        -1.08532        0.741348
LJ           1.47144        -1.39405      -0.0314203
LJ          -2.29952         0.97945         0.86012
LJ            1.1059        -1.20281       -0.948227
LJ          0.840352          1.8097        0.680393
LJ           -2.0911       -0.475453        -1.06422
LJ           1.96529        -1.44039        -1.63073
