108
#Comment!
LJ           1.76886        -1.85952        0.845097
LJ         -0.624683        -0.91531         1.49238
LJ          0.431543        -1.36988        -1.24908
LJ           1.32822       0.0108366         1.19359
LJ          0.381278       -0.147856      -0.0383565
LJ           1.11897         2.03598       -0.538191
LJ         -0.590183        0.740892       -0.953395
LJ          -1.31787        -1.14254       -0.137343
LJ         -0.683418       0.0660207         1.69428
LJ          0.204428       -0.610744         1.12679
LJ          0.411253         2.28645        -1.26062
LJ          0.828376       -0.626985       -0.775207
LJ           1.22007        -1.73931      -0.0312595
LJ           1.89266         2.20691        0.177187
LJ           2.05057       -0.610483       -0.677355
LJ          -1.32073         1.70208        0.796969
LJ          0.314068        -1.35109        0.269098
LJ          -1.83014         1.00304         -2.0141
LJ          -1.56217        -2.16394       -0.226825
LJ           1.12522         1.38176         -1.3926
LJ          -1.35347        -1.91531        -1.28206
LJ           1.96936         1.31988         1.90026
LJ          -1.98835        -1.22833        -1.01998
LJ          -2.34223        0.181952        -1.22309
LJ          -1.47633        0.107974         2.31707
LJ          0.898045        0.475551        -1.84127
LJ         -0.889469        -1.75596        -2.25998
LJ            1.0413        -1.64441          -2.007
LJ          -1.50808        -1.88642         1.68676
LJ          0.546434       -0.545912        -1.83825
LJ          -1.37734        -1.34108        0.815699
LJ         -0.687135       -0.226012       -0.328487
LJ          0.207382         0.91133        -2.37845
LJ          -2.34616         2.30046         1.89744
LJ           2.12642       -0.475658         1.70275
LJ           2.23135        0.198474       -0.127256
LJ           1.26125        -1.70503       -0.984694
LJ          0.878028          1.2376        0.409962
LJ          -1.51368      -0.0595218        0.358132
LJ          -1.96339         1.68867      -0.0330973
LJ          -2.12514          2.0012        -1.73207
LJ           1.53112         1.89496         1.19735
LJ          -2.31751        -1.19516        0.351179
LJ         -0.490753        0.198075        0.582906
LJ         -0.617066         2.29274       -0.649494
LJ           1.71899         0.91854         0.87992
LJ         -0.758449         1.93292         1.83636
LJ          0.109507         1.41081       -0.846695
LJ         -0.176019        -1.76276         1.68665
LJ          -2.03164        0.531198         1.61212
LJ          -1.17655         2.04065        -2.04564
LJ           1.36057         0.56721       -0.806836
LJ         -0.545319        -1.86996        0.112662
LJ           0.32358        -2.18545       -0.314856
LJ           0.02516        -1.95892        -1.98258
LJ          0.828955         1.15875         1.40134
LJ          -2.03156        -2.12758        0.797752
LJ           1.93539        -1.30647         2.26074
LJ         -0.494105       -0.804741        -2.29565
LJ           1.53885       -0.428091        -1.52132
LJ           2.10459         -1.8721        -1.49963
LJ          0.350764         2.10856         1.47023
LJ          -2.29678         1.66874        0.974695
LJ          -1.51985       -0.446035         1.25032
LJ          -1.66668        -0.32446       -0.659823
LJ         -0.906637         1.08775        -2.29091
LJ           1.94521        0.967101         -1.8569
LJ          -1.27967         1.37487        -1.25425
LJ           1.15023        -2.09812         1.78464
LJ          0.721965         2.29082        0.534291
LJ         -0.940714         1.04008        0.164885
LJ          0.704218         1.84755         -2.2079
LJ          -0.17419         1.83154        0.128894
LJ          -2.08402        0.762486        0.597648
LJ           2.09292       0.0531717        -2.22524
LJ          -2.31779         -1.3475         1.39547
LJ           1.34997        0.554934         2.03421
LJ          -1.91309        -1.70473        -2.12045
LJ           -2.2429         1.13976        -1.04569
LJ         -0.189368       -0.498931        -1.19134
LJ          0.357469        0.397981        -1.00456
LJ           2.27721        -0.23205         0.75826
LJ            1.6124         2.23186        -2.20152
LJ          -1.55679        0.636435       -0.488686
LJ           2.03444          1.9973       -0.933381
LJ           1.28931        0.348016        0.224989
LJ           1.26135       -0.486896         2.20628
LJ            1.7252         1.26108       -0.190644
LJ          -1.37763       -0.724775        -1.67887
LJ           1.51548       -0.969377         1.13913
LJ           2.25961        -1.89642       -0.476421
LJ          0.416951        -1.03172         2.06356
LJ         -0.585998       -0.723686        0.552617
LJ           1.46085       -0.695988        0.143189
LJ          0.400335        0.392419        0.937971
LJ          0.741429        -1.52041         1.14422
LJ          0.468762       0.0797836         1.89854
LJ         -0.163078         1.26236        0.953349
LJ         0.0193778        0.861991       0.0425594
LJ          -1.19068        0.701344         1.12391
LJ           2.38029       -0.793273        -1.83341
LJ          -0.46728        -1.44294       -0.933656
LJ          -1.36183        0.276307        -1.48207
LJ         -0.297328        0.306648        -1.83374
LJ         -0.341027         1.71514         -1.7002
LJ          -1.51686        -0.92461         2.11654
LJ          -1.61098         1.50168         1.81678
LJ         -0.754975        -2.24016        0.983308
