108
#Comment!
LJ         -0.145962        0.997844        0.858168
LJ           2.30016         2.16935        -2.13461
LJ           1.02285        -1.01922        0.847835
LJ           2.25756        -1.12196         1.36052
LJ           2.24767        0.925134         0.57978
LJ           1.76733         2.01714        0.888947
LJ          0.712272        -2.29044         1.09505
LJ           1.42597         1.30195       0.0638152
LJ          -1.40297        -1.86883         1.08521
LJ         -0.807497        -2.27424        -2.24056
LJ         -0.148072           1.653         1.62035
LJ          -0.48072         0.43876         1.86907
LJ           1.01522        -1.24434         1.93417
LJ          -2.01625         1.22802         1.56346
LJ           -1.5887        -1.71445         2.24051
LJ          -1.94514         1.91877        0.819166
LJ          0.401762        0.604779        -1.03812
LJ          0.543272       -0.246454         1.20344
LJ          -1.55425       0.0519865       -0.543113
LJ         -0.979578         1.21748         2.05714
LJ         -0.525888        0.377145        0.168035
LJ          0.336716         1.86479        -2.00532
LJ           1.53253        0.583241         1.33806
LJ           2.01542       -0.542296        -2.02977
LJ          -0.96201        -2.16507      -0.0277962
LJ          0.718977         1.61387        0.659672
LJ          0.914534         1.70219         1.64485
LJ           0.51371         2.18807       -0.384239
LJ          -1.61595        -1.28944       -0.891793
LJ          -1.30738         2.10594         1.76147
LJ         -0.599342        -1.43623        0.809839
LJ          0.829259        -1.78224        0.234678
LJ          -1.21479          1.1669         1.02383
LJ           1.82363         1.97389        -1.06814
LJ          -1.91491       -0.700066         2.05842
LJ          -1.00042         1.58954        -1.77757
LJ           1.21003         0.54655       -0.507587
LJ           1.53023        -0.39109         1.53111
LJ         -0.993815       -0.319836        -2.37937
LJ          0.014008       -0.658625         2.36506
LJ           0.47931         1.12119       -0.207629
LJ            0.1138         -2.0477        -1.53359
LJ          -1.90004        0.293616         2.26879
LJ         -0.628542        0.730435       -0.895443
LJ            1.2916         1.60287        -2.13955
LJ          -2.36686         1.21453        -2.23316
LJ           2.23583        -1.96715        -1.23986
LJ          0.958379         1.49256       -0.982407
LJ           1.11589        -2.22144        -1.82519
LJ          -2.20355       -0.402275        0.282832
LJ          -2.36206       -0.458815       -0.985289
LJ          -1.66171        0.534256        0.294491
LJ          -1.42742         1.64419       0.0464892
LJ          0.435913        0.799259         1.71543
LJ         -0.782896        -1.18498      -0.0699508
LJ        -0.0190072        -2.23762         0.39212
LJ           -1.9023       -0.963018        -1.74699
LJ          -2.23775        -2.24219         1.52208
LJ          -0.36002         1.63275      -0.0922154
LJ            1.3798       -0.849245      -0.0268825
LJ          -0.51823       -0.107448         1.04613
LJ         -0.698531        -1.67759        -1.03572
LJ           1.77935        -1.81092        0.714638
LJ         -0.787297         2.10106        0.817469
LJ           1.52039          -2.074         1.66333
LJ         0.0119371      -0.0535359        -1.63336
LJ          -1.62057       -0.847292         1.09096
LJ           1.63924        0.153774        0.480929
LJ          -1.54322          1.0374       -0.748243
LJ           2.37556         1.54104       -0.216229
LJ          -1.13689        0.565637        -1.92173
LJ          0.769198        0.681785        -2.03739
LJ          -1.82918        -2.23003       -0.520376
LJ          -1.73693        -1.37342       0.0185081
LJ           1.81905         -1.5926        -2.24521
LJ           1.88307         1.72524         1.79642
LJ         -0.125609       -0.960032        -1.26393
LJ          -2.07381        0.379597        -1.45742
LJ         -0.781565        -1.32485        -1.99167
LJ          0.329329         -2.0392         2.23165
LJ          0.752365        0.552297        0.712378
LJ          -1.50942        -1.97299        -1.59423
LJ          -1.03734         2.05778        -0.91303
LJ          -1.20077       -0.378913        0.354012
LJ           2.35711       0.0716375         1.14782
LJ          0.999222        -1.85437       -0.946418
LJ           1.63225        -1.15322        -1.37728
LJ         -0.189952        0.896372        -2.04196
LJ        -0.0240709          1.8776         -1.0639
LJ           2.17994        0.231969       -0.344789
LJ          0.166271       -0.903007        0.243993
LJ          0.656977        -1.13863        -1.78527
LJ          0.151801        -1.31042           1.461
LJ           1.78434        0.404009        -2.36384
LJ         -0.431685        -2.16363         1.60898
LJ          -1.43448        0.210451         1.25594
LJ          0.749635       -0.517758       -0.885042
LJ           1.56465         2.26042       -0.113916
LJ           1.46089       0.0452705        -1.32621
LJ         -0.839472        -1.07226         1.74273
LJ         0.0658619        -1.59457       -0.364394
LJ         -0.542402       -0.294238       -0.522728
LJ           -1.9076         1.76233        -1.22661
LJ            1.0705       -0.365757         -2.3162
LJ           2.04584        -1.63456       -0.267802
LJ           -1.2378       -0.319993        -1.42855
LJ              1.84         1.01404        -1.23582
LJ          0.384847      -0.0275312       -0.103506
