108
#Comment!
LJ          0.820318        -2.06827        -1.61948
LJ           1.77468       -0.105652          1.5383
LJ         -0.322685         2.26282        -0.74312
LJ          0.476761          -1.773        0.765242
LJ         -0.687782        0.250867        -1.53378
LJ            1.6809         0.39719        -2.24169
LJ          0.954887        0.801279       -0.106666
LJ         -0.213711       -0.922081         0.42955
LJ           1.31729        -2.30445       0.0506884
LJ            2.1711         -1.3128       0.0690986
LJ          0.790072         2.07341         1.03111
LJ         -0.895757       -0.804899        -1.10952
LJ           2.08392        -1.42512         2.02054
LJ         -0.753183        0.030821        0.740238
LJ         -0.401036        0.347965       -0.271063
LJ          0.447795      -0.0579529        0.327191
LJ           1.55873         1.65089        -1.76198
LJ         0.0774427       -0.639593        -1.58591
LJ          0.685183        -1.01532       0.0748784
LJ          -1.91464         1.72084        -1.04694
LJ          -1.90615        -1.97165         2.32394
LJ          -2.18244       -0.163833        -2.32416
LJ         -0.221972        0.811142        -2.18721
LJ           1.68549       -0.568551        -2.27589
LJ          -2.20669        0.824656        -1.67934
LJ          -1.22183         -1.0544         1.02803
LJ           2.08803        -2.32384        0.695607
LJ          0.316579        -1.97271       -0.203196
LJ          -1.80552       -0.196184        0.618967
LJ          -1.00865         1.64711        -2.26536
LJ          -1.80924         1.95694        0.844938
LJ          0.529031         1.41107        -1.83612
LJ          -1.98969        -1.99899        -1.44135
LJ           1.91335       -0.254608        0.494756
LJ          -1.85401        0.765603       -0.420714
LJ         -0.209956         2.25268        -1.81795
LJ          -1.49638        0.169594          1.4864
LJ           2.33465        -1.01325        -0.97329
LJ           1.53079        -2.07155         1.44266
LJ          -1.09848         1.48065       -0.489833
LJ           2.06942      -0.0142519        -1.38424
LJ          -1.17029        -1.52019        -1.72825
LJ           2.37802        -2.30852       -0.261437
LJ          -2.11815        -1.15307        -1.92613
LJ          -1.32307        -2.05725         1.25864
LJ           1.32029        0.525763        0.774543
LJ          -1.97757       -0.705551         1.65337
LJ           1.46969       -0.580291       -0.420622
LJ           1.13522       -0.497183        -1.47654
LJ           1.60771         1.38432        -0.54768
LJ           1.29462        -1.58947        -0.61704
LJ         -0.124245        -0.44268          1.3148
LJ        -0.0327152         2.13404        0.454384
LJ          -1.29807        -1.08944       0.0265724
LJ          -1.95194         1.90147        -2.14713
LJ          -2.15998        -1.52689         1.00799
LJ         -0.629877      -0.0218111         2.07989
LJ           1.62285        -1.38921        -1.62887
LJ           2.37722        0.864373         1.36753
LJ          0.595608        0.268357        -1.88291
LJ           2.09982         1.25325          2.2906
LJ          0.730739       -0.429818         2.12107
LJ            -1.669        -1.94736        0.304339
LJ          0.850124         2.06652       -0.708874
LJ           1.50349         1.60836         0.45003
LJ          -2.33201         1.51168        0.112248
LJ         0.0891935          1.4744         1.93205
LJ         -0.107922        -1.61662        -2.18841
LJ           1.96279        0.568957       -0.241948
LJ         -0.923424        -2.19076         2.21909
LJ         -0.996222         2.08163         0.28338
LJ          0.199657        -2.32597          1.7219
LJ          -1.28523         1.02898        -1.37902
LJ          0.783205      0.00169915       -0.763749
LJ          0.518178        -1.30184         1.57193
LJ           1.16984        -1.62032         2.30567
LJ           0.90874       -0.516288         1.11421
LJ          -1.23781        -1.24205         2.02352
LJ         -0.728106         1.12092        0.506426
LJ         -0.440685          1.4253        -1.29471
LJ           1.08713        0.879416        -1.25176
LJ           -1.7231        0.838194          0.6156
LJ           1.02385          2.0203         2.25064
LJ           1.90265        -2.18571         -2.1369
LJ          0.111235        0.649283         -1.0458
LJ           1.64384         1.57143         1.46034
LJ         -0.641327         1.96336         1.43838
LJ          0.970036         1.00692         1.90003
LJ          0.247693         1.24398        0.730516
LJ         -0.612806        -1.80843        0.583926
LJ          0.138712         1.42588       -0.415336
LJ          -1.27281      -0.0676704       -0.235773
LJ        -0.0267038       -0.598735       -0.519573
LJ          -1.26566       -0.452779        -2.01976
LJ         -0.425916        -1.50563         1.45167
LJ          0.173466        0.454742         1.67985
LJ         -0.750198         0.84622         1.59049
LJ          -1.71358      -0.0492099        -1.21096
LJ          -1.62954         1.51932         1.74009
LJ         -0.616969        -1.55933       -0.507944
LJ          -2.20766       -0.332682       -0.379731
LJ          -1.38092        0.562557        -2.22679
LJ          0.251624        -1.44269        -1.01786
LJ          -2.37436          2.2145         1.69243
LJ          -1.15218          2.2138        -1.48223
LJ           1.61324         -1.1723        0.870637
LJ           1.71304        -2.33735         -1.1641
LJ          -1.45198        -2.07897       -0.654608
