108
#Comment!
LJ          0.828003         -2.1617        -1.32511
LJ          0.699369         2.29079         1.39212
LJ            1.3757        -0.31208       -0.854199
LJ          0.552576        -1.89866          2.3172
LJ           1.00846        -1.63417        0.989889
LJ         -0.504071       -0.660391        -1.95977
LJ         -0.441222         2.07719        -1.56517
LJ           1.68025         1.50223         1.62109
LJ         -0.942657       -0.694849        0.869409
LJ          -1.62871          1.0259        0.933362
LJ         -0.247794        -1.75687        -1.61459
LJ          -2.28138         2.13581       -0.297591
LJ         -0.651576       -0.605818      -0.0528579
LJ            2.2581         1.52626         0.85129
LJ           1.88896       -0.618985       -0.122799
LJ           1.85632         1.17808       0.0140281
LJ          -1.47987        0.173623         1.36719
LJ          -2.34655        -1.11387        -1.98252
LJ          -0.54329        -1.54025         2.19696
LJ           0.22494        -1.06827        -0.93831
LJ         -0.158211      -0.0664905        0.852615
LJ           2.19239        -1.09734       -0.926376
LJ        -0.0027121        0.112539        -1.47904
LJ          -1.05418        0.365254        0.478826
LJ           1.56103       -0.423981         2.29609
LJ          -1.52165       -0.221913        -1.92525
LJ          0.375722         1.77177        -2.00166
LJ           1.43357         2.20192         2.32525
LJ         -0.384542         1.24821         2.28135
LJ          -1.21165        -1.28237        -1.85707
LJ          0.210909         1.24667        -1.15588
LJ          -1.63362       -0.404031      -0.0467659
LJ           -2.0839         1.90224         1.87512
LJ           1.74288        -2.19084        -1.12499
LJ           1.13161         2.11851       -0.418931
LJ         -0.136393         1.68295          1.2976
LJ           1.71289          -2.021       0.0303518
LJ          0.474366        -1.86403       -0.439172
LJ          -1.42556         2.00807        0.769977
LJ           -2.3122        -2.17754        0.683881
LJ          0.526101       -0.867838        -1.92483
LJ          0.203353         1.77455       -0.232129
LJ          -2.05354        -1.55659      -0.0415789
LJ           1.91633        0.485496        -0.77745
LJ             1.072        0.524839        -1.51123
LJ            1.3176         1.20443        -2.14331
LJ          -1.15538         1.57261         1.64289
LJ         -0.272556        0.243304         2.24134
LJ           0.49657       -0.331617         1.89575
LJ         -0.712304       -0.553009         1.84306
LJ          -2.23259        -1.98549         2.32498
LJ           1.37053         0.22599        0.126427
LJ         -0.483699         2.05842         0.45144
LJ          0.406032       -0.179475       -0.190643
LJ           1.54589        -1.61396        -2.08953
LJ           1.48248         2.11315        0.800467
LJ         -0.609747        0.689643         1.35527
LJ           1.08825        -1.17471         1.88944
LJ         -0.840302        0.552396        -1.76219
LJ          0.603722        0.631582         2.37805
LJ           2.36411         1.80044        -1.86372
LJ           0.40066        0.487995         1.40604
LJ           -1.2034         2.10127        -0.24909
LJ          -2.20442        0.438284        0.128876
LJ          -1.60544       -0.699443        -1.04288
LJ           1.76729         -1.9871         1.56398
LJ           2.07218        -1.25458        0.682926
LJ          -1.68141         1.31158     -0.00430049
LJ           2.28135      -0.0176452        -1.55809
LJ         0.0101487         -1.2708        0.249502
LJ         -0.415504         1.07886        0.336196
LJ          -1.28796          1.4317         -2.1339
LJ         -0.722385         1.36496       -0.694211
LJ           2.31148        0.565223         1.24922
LJ           1.70671       -0.249604         1.02932
LJ          -1.28307        -2.19994         1.74069
LJ          0.150525        -1.16114         1.31852
LJ           1.05569        -1.20479       0.0766879
LJ          -1.59367         1.91399        -1.26005
LJ          -1.09708        -1.63423        0.572209
LJ           1.41908         0.83037        0.831777
LJ          0.359715        -2.17629        0.472926
LJ          0.694277         1.53864         0.71917
LJ          -1.75961         0.81849        -1.51234
LJ         -0.447204        -2.03101         1.20831
LJ          -1.23381        0.431235       -0.780558
LJ          -1.11997        -1.53058       -0.391664
LJ           1.27318         1.70439        -1.27314
LJ          -1.88933        -1.79929        -1.23159
LJ           2.10197        -1.01288         1.65912
LJ          0.653731         1.43809         1.78556
LJ          -1.25641        -2.26719        -2.06338
LJ          -1.83552        -1.31281           1.135
LJ          0.727299       -0.511835        0.785104
LJ          -1.49555        0.629721         2.20038
LJ          0.562415        0.679301        0.300587
LJ           1.05346        0.988828       -0.596842
LJ          -2.10539       -0.340496        0.867907
LJ         -0.639318       -0.439554        -1.02194
LJ          -2.30794      -0.0429813         2.01904
LJ           2.35992        0.914328        -2.28745
LJ           1.22405        -1.37808         -0.8764
LJ         -0.452815        -2.17411       -0.705866
LJ          -2.25481          1.3001       -0.863933
LJ         -0.257979        0.552707       -0.518962
LJ           1.37516        0.476886         1.80947
LJ         -0.388524         2.26734         2.07254
LJ          -1.62923       -0.836448         2.09424
