108
#Comment!
LJ          0.629708      -0.0505159        -1.82488
LJ           2.16337        -1.52826        -2.24898
LJ          -1.22583       -0.806539       -0.762564
LJ            1.5874        0.904895       -0.386917
LJ            2.2765         1.69793        0.221596
LJ          -1.46036          -0.533          1.1374
LJ           1.28023        -1.95542        -1.86649
LJ          -1.49351         2.01994        -1.94673
LJ           0.73229       -0.856439       -0.575379
LJ           1.83524        -0.51829        -2.05942
LJ           1.94411          0.4733        -2.09278
LJ         0.0442646         1.06092           1.124
LJ          -1.14238        -1.90538        -1.28888
LJ          -1.20181       -0.166029         2.11368
LJ          -1.61965        0.690071        -2.21198
LJ          -2.14214        -1.95425        0.215251
LJ         -0.285453        -1.64174       -0.964671
LJ           1.26085        0.901614        -1.36759
LJ            -1.975       -0.192366        -1.86016
LJ          -2.09349        -1.83033         1.48555
LJ          -2.30747         2.16064         2.06615
LJ         0.0292184         2.29211       -0.386644
LJ          0.612046       -0.104218         1.01233
LJ         -0.931074       -0.833591        0.282562
LJ          -1.58779        0.628325         1.53787
LJ         -0.982835        -1.63653       -0.306343
LJ           1.33667         1.88309         -1.2949
LJ           2.15626        0.393738        0.975945
LJ          -2.30481     -0.00309163         1.87924
LJ           2.30324        0.441736        -1.15047
LJ           1.57176         2.17894       -0.365283
LJ         -0.952066         1.44043         1.12309
LJ           1.68309       -0.704869       -0.328942
LJ           1.85187        -1.71131       -0.904219
LJ           1.62294        -2.28823        0.713531
LJ          -1.93604        -1.57256       -0.684813
LJ           1.03934       -0.997236        -1.55488
LJ          0.671418         2.02719        -2.13337
LJ         -0.657385         1.21163        -1.08374
LJ        -0.0649784        -1.47273         1.29286
LJ           1.02024        0.857993        -2.33265
LJ           2.20744      0.00186161       0.0699876
LJ        -0.0886378         1.74853         1.83483
LJ          0.150629        -1.39737        -1.85181
LJ          -1.61815         1.26271        -1.22793
LJ          0.104929       -0.666567         2.25346
LJ         -0.731205        -2.32261         1.43848
LJ           -1.8201         2.25312       -0.948919
LJ             1.441         2.02643         1.95565
LJ          -2.05549        0.840038       -0.222719
LJ           2.19181         1.64883       -0.865232
LJ           -2.3735         1.98375         1.11888
LJ         -0.756785       -0.925011         -1.9356
LJ         -0.327541          2.1632        -1.35391
LJ          0.815065         1.69031         1.24085
LJ          0.281522        0.667594        0.130504
LJ          -1.10034        0.407744        -1.38537
LJ         -0.748031       -0.018132       -0.487477
LJ           1.70278        -1.73402         1.68328
LJ           2.11421        -2.35773         -1.6197
LJ           -1.2766        -1.74076        0.684673
LJ           2.31962       -0.668514        -1.20202
LJ           0.46128         1.12064       -0.751642
LJ           1.73572         1.26098        0.963112
LJ         -0.499144        -2.28543        0.404721
LJ         -0.356001       -0.543275         1.29535
LJ          -2.34736        -1.03872        0.943598
LJ        -0.0936736        -1.38438        0.166796
LJ           1.44302       -0.137269        -1.21097
LJ         -0.151253         -2.1813         2.37803
LJ         -0.549094         0.36114        0.658947
LJ          -1.78256      0.00518417       -0.666897
LJ           2.34297         1.33021        -1.84394
LJ           1.30074       0.0248415         2.04767
LJ           1.84885       -0.718743         1.74069
LJ          -1.72963        -1.02976         2.11256
LJ           1.25702        0.448209        0.399586
LJ          0.590198        -2.21883        -1.20836
LJ          -1.78678        -1.23556        -1.69799
LJ           1.06437        0.673023         1.38501
LJ        -0.0679726       -0.376693        0.239568
LJ          -1.54941         1.50761         1.92969
LJ         -0.755796         1.33048        -2.10309
LJ          0.270631        0.286582         1.91732
LJ          -1.00352         2.06796       -0.426779
LJ          0.953704        -1.88228       -0.128815
LJ          -1.39122        -1.91987         2.19186
LJ        -0.0130447       -0.708458        -1.15285
LJ           2.17454          1.1942         1.89738
LJ           0.45166        -2.09064        0.691413
LJ          -0.26642         1.50315        0.217486
LJ         -0.590868        0.738194         1.85519
LJ          -1.56109        0.139707        0.371043
LJ          0.814291        -1.08108         0.79985
LJ           1.00741        -1.08939         2.06307
LJ          -1.50196         2.04788        0.592506
LJ          -0.46025      -0.0167904        -2.00921
LJ          0.597802         -2.2015         1.70412
LJ          -1.05728        0.928708       -0.144225
LJ          0.148477         1.08964         -1.7579
LJ           1.58992        -0.48174        0.654179
LJ        -0.0605869         0.31763        -1.06394
LJ           1.75761        -1.44361        0.240093
LJ         -0.970706         -1.2752         1.48519
LJ          -1.92528         1.10827        0.772497
LJ          0.928907         1.42845        0.190978
LJ          -1.92874       -0.778174      -0.0429164
LJ            0.8275           0.161       -0.476019
