108
#Comment!
LJ           1.52051        -2.20321       -0.177599
LJ           -1.1224        -2.32099         1.98506
LJ           2.34276        -1.79176       -0.757529
LJ          0.158565       -0.820668       -0.338145
LJ           1.21242         1.30597         1.08718
LJ          0.957077       -0.920444         1.41357
LJ           2.05903      -0.0588345        -1.67873
LJ          0.418423        -1.73863       -0.108322
LJ           1.11072        -1.05582       -0.351131
LJ          -1.03108       -0.865257           2.215
LJ          -1.34176         2.31778       0.0870223
LJ          -1.83881        0.395216         1.16842
LJ           1.95783       -0.407694       -0.696181
LJ           1.29992        0.785005        0.133018
LJ           1.76582          1.7063         1.88485
LJ          -1.82846      -0.0827173         -1.1715
LJ          0.882747        -1.89286         1.68443
LJ           1.50337       -0.168848        0.257426
LJ         -0.545717        0.462729       -0.484856
LJ         0.0674244         2.00954        -1.26164
LJ         -0.495062        -1.92826       -0.724215
LJ          -1.59038        0.837446        -1.50447
LJ          0.821475         2.29884        0.787565
LJ            2.2156         1.52731        0.163425
LJ         -0.888484        0.703312         1.05541
LJ          -2.13184         2.10706         2.28949
LJ           -2.2168         1.98949       -0.629172
LJ          -1.04881      -0.0292149         1.75227
LJ         -0.222192       -0.301628        -2.33685
LJ           1.87888         1.59606        -1.64251
LJ           1.83301       -0.246903         1.23683
LJ          0.553762        -1.45134        -1.06288
LJ          -1.53461         1.27228        0.588612
LJ         -0.131182         1.37814       -0.475656
LJ           0.53363        0.515979        -1.67075
LJ          -0.97141       -0.392896       -0.394818
LJ          0.562987        -1.90133        -1.87927
LJ           1.34737        -2.30179        -1.17395
LJ           2.28318        0.824114        -1.13688
LJ          0.794971         1.19074         2.18314
LJ         -0.368375        -1.22908        -1.57993
LJ          -1.01219         1.76002         -1.0577
LJ         -0.652521         1.38391         1.75804
LJ           1.46373        0.729861        -1.98899
LJ          -1.43363        0.948843         2.16033
LJ         -0.997112         1.77608          -2.053
LJ          -1.03837       -0.514137        0.752822
LJ           2.02356        -1.15233       -0.032649
LJ           0.85998         1.44004        -1.46653
LJ           0.61624       -0.523624        0.549048
LJ         -0.460759        -1.36799        0.258749
LJ          -1.27294        -2.03178        -1.24913
LJ          0.721542          1.9289       -0.383525
LJ          -1.23641      -0.0561513        -2.01381
LJ          -1.91594         1.87169        -1.52268
LJ          -1.64203         1.18617       -0.516386
LJ        -0.0123828         1.56969         -2.2741
LJ          -1.93021          -1.995         1.32254
LJ          -1.27231        -1.07314          -1.195
LJ            1.5918         1.34749       -0.638049
LJ          -1.07295        -1.52483         1.12806
LJ         -0.511386        0.610175         2.37853
LJ           2.15323       -0.800944         2.11699
LJ          -1.76735        -1.57513        -2.31497
LJ           1.27804        -1.58508        0.646019
LJ       -0.00721582         -2.3464         2.01343
LJ          0.517817      -0.0146356         1.83431
LJ           2.09404        -1.99507        -1.80251
LJ          -2.35841        0.475237         -0.1369
LJ          -2.24785        -0.30027        0.446096
LJ           2.09252        0.849386        0.905503
LJ          -2.29731        -2.15933        0.236771
LJ           -2.0902         1.42916         1.49413
LJ           1.84288         -2.3535        0.940687
LJ          -2.20009       -0.921397        -1.69929
LJ           0.47227       -0.914923        -1.99271
LJ          -2.37416         1.09371        -2.36222
LJ           1.33033        -1.23665          2.2496
LJ          -1.80609       -0.855044         1.58844
LJ          -0.24467         2.35581        0.160641
LJ          -0.40229        0.855597        -1.44228
LJ            1.4214       -0.157764          2.2003
LJ         -0.481138        -2.17756        -1.86318
LJ            1.5831        -1.11461        -1.47553
LJ          0.321559        0.854959        0.509441
LJ         -0.446897         1.43983        0.521869
LJ          -1.30357         2.10993         1.06962
LJ         0.0187423        0.702481         1.44108
LJ          0.735451       -0.432526        -1.05509
LJ         -0.400655        -2.27474         1.09453
LJ         -0.212863      -0.0993207        0.359204
LJ          -0.30132       -0.182482        -1.34048
LJ           1.91612         -2.0628         2.01474
LJ         -0.191978       -0.591398         1.31206
LJ          -1.40731        0.387827        0.114566
LJ          -1.91421       -0.729899       -0.380689
LJ          -1.79445        -1.16436        0.534268
LJ           1.72022        0.659554         1.82175
LJ          0.120379         -1.2528         1.97841
LJ          -1.29132        -1.49695       -0.283099
LJ          0.260779         1.66599         1.29574
LJ          -2.32154       0.0763653         2.17713
LJ          0.467516        0.193931       -0.285777
LJ            1.0279        0.255249         1.02247
LJ            1.3283         0.36433        -0.98503
LJ           1.98117        -1.37461         1.24881
LJ           1.08852         2.13706        -2.33393
LJ          0.245332        -1.57174        0.961124
