108
#Comment!
LJ          -1.21411        -1.16297       -0.765621
LJ          -1.69259        0.212158         -1.3153
LJ         -0.490006        -1.09525       -0.183354
LJ         -0.578337         1.56146       -0.920745
LJ          -2.07314        -1.89487         1.14063
LJ         0.0703267         2.21186        -1.33607
LJ         -0.807721       -0.751689        -2.04421
LJ          0.619952         -1.3243        -1.06553
LJ          -0.47245        -2.19203         1.63456
LJ           1.20887        -1.24601         1.90628
LJ          0.527007       -0.882461        -1.97231
LJ            1.5366        -1.02382         -1.8927
LJ          -1.72437         2.33144         1.93079
LJ          -1.75194       -0.118611         2.15046
LJ          -1.71994       -0.752562        -1.70054
LJ          -0.50882        -1.95349       -0.903086
LJ        0.00555223       0.0156558        -2.08773
LJ          0.250051         1.53926         1.65056
LJ         -0.938583       -0.141511       -0.597493
LJ          0.807708        -1.90271        -1.86533
LJ           1.07012        0.368073         1.89459
LJ          0.970348       0.0364176        -1.76006
LJ           0.11373        0.596253         1.78026
LJ           2.32976        -2.04931        -1.96313
LJ          -1.12739         1.11191        -1.61784
LJ          -1.54937        0.427141         1.35896
LJ           -1.9048         1.74491        -1.85728
LJ           1.98453       -0.199928        -2.06647
LJ           -1.0137        0.191482         -1.9993
LJ          0.935219         1.42765         -2.3216
LJ         -0.836703         2.28008        -1.73583
LJ         -0.916038           1.815         2.09281
LJ           1.67676        0.852096        -1.93453
LJ           2.14676         1.56702         2.04354
LJ           1.60434        -1.79124        -1.19129
LJ           0.51705         0.27012        0.934546
LJ           1.82267         1.35665        0.592434
LJ          -1.65302         2.05065        0.305699
LJ          -1.39764         2.01127       -0.963541
LJ          -2.29952        0.200671        0.698758
LJ          -0.53803         1.34124        0.155168
LJ           0.58112       -0.488516        0.355891
LJ          0.940447        -1.49254        0.835062
LJ          -1.53455        -1.77867        -1.51102
LJ          0.806981        -2.27435       -0.719391
LJ           1.73773          2.2927        -0.37045
LJ           1.86942        -1.29173         1.06576
LJ           1.69923         -2.3602         1.01005
LJ           2.16577      0.00448191        -1.16484
LJ          -1.86677       -0.269454       -0.457027
LJ           1.57822       -0.303128      0.00587816
LJ           2.21027        -1.83576        0.254114
LJ          -1.28203        0.938247       -0.397122
LJ         -0.234757         1.47073        -1.92161
LJ           2.01637       -0.356674         1.71328
LJ           0.33776        -1.73651       0.0193695
LJ           1.28115        0.728777       -0.956157
LJ           0.62156     -0.00880166       -0.668654
LJ          0.332825       -0.405026         1.79481
LJ          -2.02849        -1.87864       -0.579913
LJ           1.40045       -0.689735       -0.985219
LJ          -2.19484         1.06798        -1.06548
LJ          0.813862        -2.36906         1.60577
LJ           1.29366         1.71298        -1.34651
LJ         -0.393793        0.625094        -1.05796
LJ          0.453939          1.0928        -1.37291
LJ          0.241149         1.08502       -0.356025
LJ         -0.170897        0.102168       0.0766164
LJ           2.18725        0.514254       -0.203063
LJ          -2.32513         1.55991         -0.2487
LJ          0.968567         2.33445         0.35975
LJ          0.387219         1.27727        0.625492
LJ           -1.1272        -1.98154       -0.160087
LJ          -1.10696        -2.16712         0.89124
LJ           2.09469        -2.05661         1.88385
LJ          -2.21534           1.837         1.22118
LJ         -0.630702         1.68755         1.14264
LJ         -0.606066        -1.07258         1.73229
LJ          0.275245        -1.55062         1.76826
LJ         -0.298964        -1.61026        -1.94679
LJ           1.35639        -1.46328       -0.227443
LJ          -2.35148       -0.788494        0.324977
LJ           1.15991       -0.468687         1.25069
LJ           2.24416         2.07967         -1.1732
LJ          -1.36511       0.0393471        0.393554
LJ          -2.37186        -1.14809         2.23137
LJ           2.14122        0.574215         1.70923
LJ          -1.31778        -1.54817         2.23164
LJ           -0.3139        -1.46556        0.875528
LJ         -0.285203       -0.638117        -1.22031
LJ         -0.785977       -0.117659         1.66607
LJ           -1.1508        -0.97796        0.480187
LJ          -0.83379        0.834614         1.98583
LJ          0.999775        0.535167        0.102331
LJ           1.21392          1.4551         1.46104
LJ          -2.32033         -1.0222       -0.978332
LJ           1.52492        0.451742        0.953775
LJ          -1.36776         1.13546        0.614849
LJ          -2.07885        0.814492        -2.01125
LJ         -0.522208        0.685722         0.91955
LJ          -1.87482       -0.830809          1.3117
LJ           1.11078         1.53447       -0.329406
LJ         -0.163447         2.20153       -0.161262
LJ          0.162619         2.22792        -2.36983
LJ         -0.288523       -0.465213        0.884809
LJ          -1.72602         1.27793         1.86457
LJ          0.110106         2.33307        0.878553
LJ           1.50605         2.25517        -2.33587
