108
#Comment!
LJ           1.38652        -1.27864        0.265198
LJ           2.30857        -1.31692       -0.263362
LJ           1.55507       -0.269541       -0.125307
LJ           -1.6739        -1.74356       -0.865507
LJ          -1.96618        0.758837        -1.26902
LJ          -2.36577        -1.71845        -2.17554
LJ          -2.07835         2.01426       -0.280626
LJ          0.280443          1.4032       -0.395228
LJ           1.07749         1.70476       -0.972555
LJ         -0.668478        0.280292        -1.88809
LJ           1.98053         1.12888        -1.90212
LJ         0.0366478         1.32269        -1.43906
LJ           2.11265        -1.75013        -1.11775
LJ          -1.32238        -2.12019         1.01679
LJ          -1.53531         1.69405        -1.05609
LJ         -0.620485      -0.0470608         1.24336
LJ            2.0748        -0.56642        0.884161
LJ           -2.2864         1.13554         1.73325
LJ          -1.49258        0.314882       -0.358667
LJ           1.62994        -2.29282         -1.9071
LJ          -2.29485       -0.840496        -1.49374
LJ          -2.24238         1.57894        0.795233
LJ          -2.22747         2.16677         1.66092
LJ          0.691646         1.78473        -2.07887
LJ          -1.93182       -0.208292          1.4343
LJ          -1.01019       -0.596008        -2.29654
LJ         -0.230852         1.80751         1.32174
LJ           1.40675        -2.14118         1.82189
LJ         -0.713953         0.82357       -0.683678
LJ           1.40538      -0.0784169        -1.93474
LJ          -2.12808        -0.31027       0.0720687
LJ         -0.215165         -1.9493       -0.370561
LJ         0.0481558        -1.24212         1.46208
LJ           1.77399       -0.790221         1.90918
LJ            1.7945        0.802051       -0.978719
LJ          0.593661        -1.21291        -1.40363
LJ          0.668139         1.54484         1.73919
LJ          0.641138        -1.45184       -0.464107
LJ           -2.0413         2.17376        -2.03597
LJ          -1.13672           2.263       0.0934634
LJ          0.646477         2.31401       -0.306706
LJ         -0.359108         1.63694        0.336176
LJ          0.510761         1.96861        0.652681
LJ          0.531407        0.232191        -2.21069
LJ          -1.65091        0.166044         2.31518
LJ          -0.22726       -0.754249         0.58296
LJ           1.74845         1.79304         2.11566
LJ         -0.297961         2.24225        -2.15241
LJ          -1.69609        0.676203         1.05117
LJ          -1.88923       -0.923345         2.13624
LJ          0.205941        0.419304         -0.7822
LJ           1.58392         1.69332         1.13486
LJ           1.42632         1.67209      -0.0142475
LJ         -0.208182        0.241035        0.140859
LJ          -1.32851       -0.161014        -1.37684
LJ          -1.23246       -0.252922        0.513682
LJ           1.02151        -2.08153        -1.15655
LJ          -1.05183        -1.00486         1.43924
LJ          -1.80859         1.07625        -2.13299
LJ           1.13725       -0.068055         1.80921
LJ           0.15929        0.701866         1.60473
LJ           1.05204        0.801265       -0.257912
LJ          0.680521       0.0971114        0.424079
LJ          0.362231        -1.57177        0.495225
LJ          -1.45399       -0.776028       -0.519598
LJ           1.54529        -1.20612         -1.8883
LJ          -2.21556        0.944885       -0.183814
LJ          0.461569        -2.30142         1.54247
LJ           2.35785       0.0676875        -1.77402
LJ          -1.07334        -1.44156        0.128786
LJ         -0.357244        -2.21061        0.648609
LJ         -0.961858         1.20125        -1.70048
LJ         -0.571334        -1.99945         1.63873
LJ          -1.30945         1.60937         1.11297
LJ           2.18157        0.341763        0.648334
LJ         -0.173582         1.30593          2.3105
LJ         0.0317222        -2.12244        -1.28357
LJ           2.23697      -0.0144211       -0.795366
LJ           1.61062         -2.1671        -0.24961
LJ          0.974476        0.936479        -1.61812
LJ         -0.962918        -2.13353        -1.49998
LJ          -1.93333        -1.37191         0.62622
LJ         -0.705256        -1.27594       -0.932173
LJ          0.922986        0.991849        0.802959
LJ           1.06429        -1.26817         1.21723
LJ           2.14408        -2.18183        0.582422
LJ             2.199          1.7329         -1.1233
LJ         -0.434138         -1.3958        -2.17642
LJ          -1.14948         1.93012         2.10018
LJ         -0.978667        0.735046         1.89392
LJ           1.52764       -0.998539       -0.854463
LJ         -0.577414       -0.288099       -0.615793
LJ           2.38055         -1.6168         1.51702
LJ          0.384852       -0.303452         1.21408
LJ            1.2157        -2.12983        0.712782
LJ           0.73596        -0.71612        -2.30949
LJ           1.34141        0.891405          2.0761
LJ         -0.688294        0.776351        0.762361
LJ          0.906793       -0.304314        -1.10994
LJ          -1.43496        -1.87796         2.19927
LJ          -1.27335         1.27916         0.05126
LJ         -0.223731       -0.536569        -1.61284
LJ         -0.503275         1.87253       -0.910541
LJ           2.09464        0.207527         1.96858
LJ          0.568606        -1.73685        -2.31087
LJ          -1.43951        -1.30658        -1.69793
LJ         -0.112055       -0.383264         2.07268
LJ          0.344257       -0.560603       -0.301925
