108
#Comment!
LJ           0.90411        -1.73877         -1.8811
LJ          0.542531        -2.08428         1.17445
LJ           1.19245       -0.693793        0.152045
LJ          0.189937       -0.829284        -1.97374
LJ           1.16044        -1.45439        0.695471
LJ         -0.732166        -1.12897        -1.89906
LJ          0.247746         1.46574        -1.11335
LJ           1.06067         1.61956        0.961733
LJ          -0.84549         -1.3566         0.91893
LJ          -1.07857         1.62526        0.770095
LJ         -0.579049         1.98812        -1.80518
LJ           -1.7268         2.32761        0.667741
LJ         -0.955817        0.231424       -0.144852
LJ          -2.24042         1.39844        0.607365
LJ           2.28563       -0.759205       0.0281726
LJ            2.3012         1.45964       -0.437149
LJ           -1.5006       -0.254201         1.15283
LJ           2.37853       -0.775149         2.25589
LJ         0.0830475        -1.18592         1.42689
LJ         -0.113601        -1.22707        -1.01493
LJ         -0.451933       -0.195778         1.07935
LJ           1.84554       -0.947175        -1.47469
LJ          0.272948        0.336031       -0.981025
LJ         -0.839007        0.664569        0.967229
LJ           1.22067       -0.574665         -2.2385
LJ          -1.70636       -0.899978        -1.71823
LJ          0.587848         2.04331        -1.86949
LJ           1.11705        -2.29898         2.04694
LJ          -1.25842           1.044        -2.13028
LJ          -1.21442        -1.97776          -1.328
LJ          0.980002         1.01155        -1.53435
LJ          -1.50094       -0.618228       0.0835212
LJ           1.78493         1.58399         1.90458
LJ          -2.21326         1.97949        -1.24551
LJ           1.21824         1.79226       -0.599466
LJ         -0.276308        -2.12297        0.627744
LJ           2.27406        -2.36032       -0.124159
LJ        -0.0142118        -2.14012        -1.28957
LJ          -1.04975         2.35645         1.60538
LJ          -2.05483         2.17757          1.6007
LJ          0.816521       -0.787872        -1.12642
LJ          0.215357         2.25597       -0.442049
LJ          -2.20235         -1.4894        -0.53849
LJ           1.63991        0.054411       -0.484892
LJ           1.17325        0.100764        -1.43437
LJ          0.799319         1.22016         1.91266
LJ         -0.813237         1.41128         1.79632
LJ         0.0250517         1.22648        -2.19631
LJ         -0.389292       -0.425509         2.12169
LJ           -1.3615       -0.595044         2.09725
LJ          -1.70993        -1.62875         2.29972
LJ           1.63145         1.06322          0.1503
LJ         -0.640445         1.71677       -0.236396
LJ          0.415872       -0.373517       -0.311845
LJ           1.84004        -1.55385        -2.23397
LJ           1.82821         2.26926        0.744986
LJ        -0.0515275        0.553854         1.79595
LJ          0.565181       -0.312096         1.58776
LJ         -0.476055         0.37544        -1.97748
LJ          0.500577        0.174871        -2.21806
LJ           2.24074         2.30228        -2.26301
LJ           1.12086        0.534275         1.25435
LJ          -1.48696         2.26254       -0.523321
LJ          -1.96504        0.390536        0.440645
LJ          -2.12752       -0.506269       -0.901393
LJ           2.05653        -1.83507         1.57212
LJ           2.24189        -1.60831        0.574324
LJ          -1.51677         1.17712    -0.000992243
LJ           2.28158     -0.00895864        -1.60776
LJ          0.745166        -1.74925       -0.763401
LJ         0.0337277          1.3812          1.1059
LJ          -1.53006         2.09456        -2.18173
LJ         -0.535576        0.782674        -1.06411
LJ          -1.71779         1.11588         1.38568
LJ           1.84643       0.0715804        0.500572
LJ         -0.769299        -1.45217         1.91273
LJ           1.03407        -1.26929         1.71904
LJ           1.62579        -1.35675        -0.50237
LJ          -2.13306         1.08746        -1.62709
LJ         -0.479973        -0.76282        -0.23744
LJ           2.08417        0.757896         1.17134
LJ           1.19715        -2.12742       0.0143984
LJ          0.514189         1.37295       0.0696367
LJ          -1.45831        0.105556        -1.52615
LJ          0.335098        -1.35028    -0.000747287
LJ          -1.93671        0.556826       -0.723571
LJ          -1.19259        -1.17793       -0.779355
LJ           1.75407         1.55487        -1.86129
LJ          -2.18632        -1.86372        -1.44039
LJ           1.71483       -0.115864         1.73575
LJ         0.0497428         2.04156         1.96833
LJ          -1.26624         1.50726        -1.12849
LJ          -1.43633        -1.62019       0.0961864
LJ          0.337839       -0.628884        0.661018
LJ         -0.985865        0.355251         1.93924
LJ          0.906773        0.312443        0.325622
LJ           1.00416         0.80852       -0.570642
LJ           2.11434       -0.707128         1.00696
LJ         -0.645528       -0.278534        -1.16843
LJ          -2.01702        0.186023         1.88335
LJ          -2.12389         1.28823         2.17989
LJ            1.6292        -2.35582        -1.28029
LJ         -0.617071          -1.867       -0.370433
LJ           1.85201        0.774729        -1.12002
LJ        -0.0940577        0.623869        0.236744
LJ           1.75993        0.669474        -2.34148
LJ        -0.0121751          -1.772         2.33735
LJ           -1.7092        -1.66104         1.28136
