108
#Comment!
LJ         0.0682971        -1.22929        -1.84124
LJ            1.2045        0.302142         1.52572
LJ           1.22743       -0.227356        0.512763
LJ          -1.50381       -0.433778       -0.689304
LJ         -0.711916       -0.571677        -1.57292
LJ          0.434464         1.82855       -0.724293
LJ           1.81625         1.36368        -1.16582
LJ          -1.08868         1.98237        -2.07777
LJ           1.47304         2.18066        0.275277
LJ         -0.260857        -1.71972        0.663957
LJ           2.19817        -1.38492        -1.26237
LJ           1.88809        -1.21794        -2.29444
LJ          0.454509       -0.122898        -1.44579
LJ          -1.83118         -2.0203        -1.69091
LJ          -1.65698        -1.46772       -0.913369
LJ          -1.31415       -0.126357         1.17226
LJ          -1.28567       -0.353274         2.24836
LJ           1.52991       -0.732755         1.66464
LJ           2.36902        0.834156       -0.122166
LJ         -0.257473        -1.46551          2.0414
LJ         -0.298012       -0.351278        0.851608
LJ          0.647761        -1.70998       -0.109802
LJ          -2.36449       -0.359456        -2.26573
LJ           1.99565         2.36803         -1.5217
LJ         -0.857834        -1.67498        -1.76701
LJ           1.39693         0.65866       -0.208421
LJ          0.393701         0.51914        0.691675
LJ         -0.888363        -1.24263         1.29891
LJ          -1.23985         2.33289        -0.92688
LJ           1.59008         2.32672         2.31808
LJ           1.95632        -1.57023         1.42756
LJ         -0.724641        0.600284         1.55199
LJ         -0.896293         1.93529        0.369114
LJ         -0.254069         2.32768         2.27639
LJ           2.35848       -0.296319        -1.14728
LJ           2.05148        0.481963        0.741146
LJ         -0.477422        0.269379        -2.24878
LJ           -1.3966        0.783677         2.27811
LJ          -1.33237        -1.83285      -0.0619835
LJ          0.653923         2.22612         1.84841
LJ          -1.87941         2.15764        0.118513
LJ          -2.14396         -2.2327         1.90693
LJ            1.4659      -0.0310961         -2.2746
LJ         -0.257906         1.79018        -1.45125
LJ           1.41064         1.22857        -2.12902
LJ         -0.644752        -1.28034        -0.87257
LJ           -1.6797        -1.26869        0.706173
LJ          0.749314        0.794175        -1.16637
LJ          0.628859       -0.588446          2.3356
LJ          0.225327        0.393983         1.70653
LJ          0.635019       -0.454041         1.31769
LJ          -2.35032        -2.04528       -0.566258
LJ            2.2264        0.655746        -2.25478
LJ         -0.396319         1.40637       -0.327612
LJ          -1.71225        0.138977        0.323891
LJ         -0.334962         1.20425        0.840596
LJ           1.88552         1.06685         1.57962
LJ          -1.93794       -0.681788         1.60679
LJ          0.472782         1.09391       -0.110038
LJ          -1.96524         1.78934        -1.46066
LJ           -1.8543        -1.40225         2.28365
LJ           2.37524        -2.35633        0.951997
LJ           1.04611        -1.59949         -1.9356
LJ            1.5292         2.04382         1.35128
LJ            2.0756       -0.138196       -0.234589
LJ           2.31556         1.42903        0.654528
LJ           2.06267       -0.697093        0.587645
LJ           0.75786        -2.21554        0.908898
LJ          -1.07486         1.23386        -1.38229
LJ           1.40322       -0.589511         -1.3954
LJ            1.6417        0.359425        -1.35376
LJ           2.21406       0.0934815         1.66285
LJ           1.42148        -1.06933       -0.249912
LJ            0.7194         2.10808        -1.65439
LJ         -0.212101       -0.526781         1.87945
LJ          -1.38863        -2.18463        0.957436
LJ          0.084491         -2.0346         -1.2506
LJ         -0.898542       -0.672999       0.0942179
LJ           1.37869         2.32433       -0.740533
LJ         -0.491028        0.325601        0.127374
LJ         -0.345803         1.24846         2.19535
LJ          0.548223        0.145506       -0.180669
LJ          -1.62367         1.48605       -0.546516
LJ           2.10537         1.77592       -0.336044
LJ           1.11092          -1.289        0.843034
LJ          -1.50875         1.07406        0.351002
LJ          0.421844       -0.831538        0.325921
LJ          -1.24849        0.500545       -0.564998
LJ           1.92343        -1.70346        0.281311
LJ          -1.10933        -2.02308         1.90571
LJ          0.931995          1.2753         1.77876
LJ          -2.08252        0.804638        -1.09026
LJ           2.34956         1.64165        -2.29739
LJ         -0.329294        -2.18182       -0.327509
LJ           0.57688        0.803001        -2.21697
LJ            1.2105         1.32152        0.696485
LJ          -0.34147        0.633451       -0.936549
LJ          -1.13468         1.48265         1.38127
LJ          0.666095        -1.16438       -0.941026
LJ           -1.6771       -0.800365        -1.68072
LJ          -2.02491         1.62947         1.52813
LJ          -1.35332        0.280224        -1.53107
LJ          0.219007         1.92443        0.340348
LJ          -1.76202        0.694216         1.37741
LJ          -2.14332        -1.12348       -0.140169
LJ         -0.217438         2.07345         1.33043
LJ         -0.142855       -0.387236       -0.634063
LJ          0.888601        -1.48625         1.79137
