108
#Comment!
LJ          -1.52363        -1.93587         0.76051
LJ          -1.09525        0.820025        -1.77534
LJ         -0.274815       -0.629963       -0.408156
LJ           1.85158        0.228418         1.49606
LJ          0.399042       0.0664285         -1.1414
LJ           1.62123         1.44216        -1.06122
LJ          -1.10897         1.36997       -0.906579
LJ           -1.3407        -0.78071       -0.206465
LJ          -1.25009       -0.851911         1.00775
LJ           1.20808       -0.456167        -1.40717
LJ         -0.362407        -1.43045        -1.15875
LJ          0.609447        -1.19178        -1.13022
LJ           1.66727        -1.01825       -0.582876
LJ           -2.3306        0.929568        0.816366
LJ          -2.29986        -2.01744        -1.29476
LJ          -1.03088         1.55484         2.19782
LJ           1.44882       -0.741735        0.604139
LJ          -1.05013        0.566116          1.8652
LJ          -2.15566         2.36365         0.15226
LJ          -1.52953        -1.70773        -2.06995
LJ           1.96333        -1.70543         2.34738
LJ          -2.04784        -2.35525          2.2504
LJ           1.87344        -1.59719        0.301187
LJ          -1.73709       0.0478918         -1.6182
LJ          -1.92355         1.25346         1.82266
LJ           1.54046         2.06898         1.98356
LJ         -0.510218         1.58334         1.26327
LJ           -0.2255        -2.14513         1.45149
LJ         -0.742062         2.31597        0.395834
LJ           1.27607        0.189031         2.30714
LJ         -0.547919        -1.56144        0.692179
LJ           -0.4593         2.36625        -1.37652
LJ           1.54791        -2.30003         0.92148
LJ           2.28843        -1.87504         1.31879
LJ          0.985391       -0.885036        -2.31471
LJ           1.47942      -0.0329493       -0.397792
LJ           1.74976         1.78123       0.0798127
LJ          0.997756        -1.94147       0.0308354
LJ           -1.9071        0.050039        0.114746
LJ         -0.177109         1.76122        -0.55147
LJ          -1.11989         2.26491       -0.495277
LJ             2.374         1.93817         1.28164
LJ          -2.28195       -0.291969       -0.843904
LJ          0.180369         -1.1504         1.64889
LJ         -0.881004       0.0477623       0.0270007
LJ          0.622531       -0.405249         1.04097
LJ          0.779661        0.880919         1.66807
LJ            1.0111          1.3696        -2.24177
LJ          0.176177         1.88768        0.583929
LJ        0.00854697         0.82663         1.01751
LJ          0.134654        -1.68323        -2.06891
LJ           2.00459        0.203059         -1.7217
LJ          0.648844        -0.49695       -0.335308
LJ         -0.215537       -0.615363        0.687838
LJ          -1.36956         2.06377         -1.8328
LJ           1.17566        0.655331        -1.36249
LJ          -1.37595        0.420434       -0.761891
LJ           2.15901       -0.566364        -2.29963
LJ          -1.16299         2.29147         1.53313
LJ          -2.10967        0.268656         2.25441
LJ          0.826137        -2.23743        -1.66611
LJ          0.226517        -1.41693       0.0139377
LJ          0.355973       -0.217326         2.03227
LJ          -2.28161       -0.824375        0.242752
LJ          -2.19314        -1.08485        -1.56864
LJ          -1.56425       -0.471976         1.95356
LJ          -2.24361         1.44115        -2.01572
LJ         -0.479094       0.0568479        -2.24039
LJ         -0.144853         1.02862         1.98258
LJ           1.62579         2.36055        -0.71417
LJ          0.102324        0.413522       0.0095433
LJ          0.328064         2.15332         2.29878
LJ          0.770617         1.94335        -0.34874
LJ           1.89519         1.14681         2.05717
LJ          -1.95933       0.0809306          1.1924
LJ          -1.49616          1.7431        0.744368
LJ           1.48252         1.25044        0.996252
LJ            1.7493         2.23558        -1.81916
LJ           2.09019        0.694574       -0.265428
LJ          -1.17957       -0.822198        -1.59879
LJ          -0.25549        0.767366       -0.837621
LJ           1.97656       0.0696288        0.518422
LJ         -0.736626        -1.59701       -0.320328
LJ          -1.58668         1.00033       0.0458805
LJ          -1.99118         1.85906       -0.687058
LJ           1.00228        0.476617        0.573487
LJ           0.55518         1.53019        -1.21441
LJ          0.982855        0.815206       -0.453214
LJ         -0.621072        -2.23222        -2.33593
LJ          0.947347         -1.8421         2.03441
LJ          -2.18356        -1.54818       -0.453999
LJ          0.113302       -0.664636        -1.89014
LJ          -1.57241        -1.57103          1.6416
LJ           1.64611       -0.912873         1.72675
LJ          0.784974         1.82556         1.41841
LJ          0.788431        -1.51092        0.850935
LJ          0.388533        0.567633        -2.06785
LJ         -0.579533         1.30165        0.254805
LJ          -0.64852      -0.0333888        -1.25429
LJ         -0.592736       -0.470613         1.60625
LJ           1.59355        -1.51852        -1.50418
LJ          -1.42339        -1.68339        -1.03349
LJ          -2.12745        0.906868        -1.18821
LJ         -0.625718        -1.09465         2.35765
LJ         -0.251416         1.53174        -1.94445
LJ          -2.19498       -0.887667         1.30072
LJ          -1.21158        0.812667         0.99535
LJ          0.298366        -2.07248       -0.755772
