108
#Comment!
LJ           1.77865       -0.630645        0.851068
LJ          -1.56549         1.36774          -2.218
LJ          -1.62461        -1.12312        -0.48353
LJ            2.2481        0.768341         1.07626
LJ         -0.647394         1.20412        -1.39446
LJ          0.741421          2.2776       -0.925297
LJ         -0.771378         2.07888        -1.96879
LJ          -1.98293        -0.27808        -1.40606
LJ            -1.597        0.825248        0.419966
LJ           2.25911       -0.422709        -2.26191
LJ         -0.121889        -1.84393        -2.12645
LJ          0.528949        0.517387        0.173101
LJ           1.93737           2.268       -0.103335
LJ          -1.25791         1.11842       -0.646087
LJ          -1.77084        -1.18434        -1.99027
LJ           -1.3954         1.54279         1.16347
LJ           1.95932       -0.552359       -0.357244
LJ          -2.24051        0.704587         2.31463
LJ          -1.25824         2.07525        0.207665
LJ         -0.453399       -0.929549         1.90666
LJ           2.08273        -1.37767        -2.23996
LJ         -0.679149         1.07941         2.05455
LJ           1.14308        -1.84214         1.88271
LJ          -1.21665         0.29044         -1.7964
LJ           1.96493         2.23508         1.06152
LJ           2.10447        -2.27855         2.04413
LJ         -0.506342         1.63664        0.756084
LJ          0.793969        -2.22866        0.562997
LJ         -0.707753        -1.00904       -0.970849
LJ          0.740354        0.322751        -1.66963
LJ         -0.692729       -0.895543       0.0314004
LJ         -0.249572        -2.08084        -1.07225
LJ           1.41111         1.66216        0.404182
LJ          -1.76725        -2.37203        -2.38005
LJ          0.937211        -2.21772        -2.03941
LJ           1.19057       -0.637774        -1.62428
LJ         0.0235047         1.76287       -0.283143
LJ            1.1241       -0.993001       -0.752755
LJ          -2.28643         0.33163       -0.462765
LJ         -0.928943        -1.92008       -0.367415
LJ           2.20262         1.24548       -0.538552
LJ          -1.50819        -1.67111         0.39654
LJ            1.0486       0.0242902       -0.681121
LJ           1.32233       -0.783636         2.15141
LJ          -1.20265       -0.177449        0.983035
LJ          0.899188       -0.105043         1.02904
LJ           1.26807        0.824748         0.92353
LJ           1.03304           1.532        -2.21558
LJ          0.491628         1.48166        0.650287
LJ            0.3453       -0.234548          1.8643
LJ         -0.241589       0.0807374        -1.82187
LJ           1.85756       0.0876299        -1.39991
LJ            1.6503        0.304431       0.0917704
LJ            1.0228       -0.601592        0.136546
LJ          -1.87651         1.84303        -1.42861
LJ            1.3904         1.17882         -1.3936
LJ          -2.10641       -0.186899        0.409815
LJ          -1.54924       -0.451804         2.16146
LJ          -2.17488        -1.45396         1.54665
LJ           1.79548         0.11375         1.69737
LJ          0.842391         2.05236         1.47669
LJ           1.08565         -1.8592       -0.271031
LJ           1.68385          1.2194         1.75401
LJ           1.52811        -1.59203        0.782715
LJ           2.09278       -0.968206        -1.27966
LJ          -2.18189       -0.442536         1.38145
LJ           1.49219        0.579779        -2.19124
LJ          -1.33236        -1.06521          1.3935
LJ          0.897165        0.617775         1.77575
LJ           1.47814        -1.87077        -1.29009
LJ          0.176019       -0.337675       -0.117021
LJ         -0.753435         2.34638         1.57857
LJ         -0.106021        -2.09867       0.0628817
LJ           -2.1778         1.70343         1.75681
LJ          -1.75273        -2.27825         1.18687
LJ         -0.575867        -1.50723        0.887973
LJ           1.01475         1.27941       -0.412275
LJ          -2.25497         -1.9784        -1.63315
LJ           2.09763         1.54344        -2.08795
LJ         -0.620819        0.122854       -0.933873
LJ          -1.42711       -0.196921       -0.308745
LJ          -2.27947         1.55516        0.366039
LJ           0.23655        -1.24833        -0.47151
LJ         -0.628889        0.648989      -0.0235973
LJ           1.81684         1.99678         -1.0725
LJ         -0.890519         2.00207       -0.867303
LJ           0.21099          1.7897        -1.59919
LJ          -1.95335        -2.26913       -0.579163
LJ          -1.16497        -1.61053         2.14938
LJ         0.0852539        -1.92919         1.66677
LJ           2.04923        -1.60445       -0.460735
LJ          0.164735         0.84716       -0.837686
LJ          -2.33273        -1.12608        0.270054
LJ          0.678492        -1.08473         1.39082
LJ          0.187304         1.31772         1.52433
LJ          0.212408       -0.988316        0.558925
LJ          0.167765        0.924829        -2.23898
LJ         -0.559931         0.68493         1.14289
LJ          0.114179       -0.513683        -1.15324
LJ         -0.120315       -0.162338        0.908093
LJ          0.409541       -0.957239        -2.16406
LJ          -1.16859         -1.7532        -1.40695
LJ          -2.03005        0.741343        -1.40164
LJ         -0.749313       -0.784269        -1.84303
LJ         0.0455582         1.97364         2.24061
LJ           -1.4304        0.504167         1.68894
LJ         -0.600102       0.0750932         1.97445
LJ          0.526883        -1.56759        -1.40842
