108
#Comment!
LJ          -2.18471        -2.33702        -1.77033
LJ          -1.50763       -0.237973        -1.96495
LJ         0.0814503        0.398277       -0.720249
LJ           1.36366         2.21349       -0.708758
LJ           2.01463        -1.24728        -2.26264
LJ           1.41617       -0.568458      -0.0309654
LJ         -0.168925        0.402961        0.355242
LJ           1.59286          1.2969        -1.55822
LJ         -0.219353         2.01967        -2.07226
LJ         -0.232941       -0.829682        0.726817
LJ           1.16766        -1.48958         -0.4007
LJ           2.19819         2.01438         1.32444
LJ           1.23682        -1.89992        0.599975
LJ           1.93689        0.164704       -0.377784
LJ           1.46418         1.29484         1.09541
LJ           -1.5566        -1.24954        -1.84714
LJ         -0.172275        0.830186         1.26027
LJ         -0.423815        -2.19424       -0.179905
LJ          0.234652         1.24052      -0.0171861
LJ          -0.65093        -0.07868        -1.32129
LJ          -1.05062         1.47728        -2.20055
LJ          -1.25763       -0.697593       -0.978714
LJ          0.397594         1.83882         1.21574
LJ          0.958269         2.19423        -1.63485
LJ         -0.719738        -1.78256        0.877944
LJ           1.39902        0.269539        0.635582
LJ           1.25175         2.33546         1.42462
LJ         -0.491155      -0.0409528         1.78447
LJ           2.16809       -0.106735          1.2726
LJ           -2.1661         1.44496        -1.78516
LJ           1.55864        -0.51295       -0.987987
LJ          0.626583        0.832733        0.777975
LJ          0.687982         2.02475         2.17814
LJ           1.15938         -1.5998         2.02008
LJ           1.33764       -0.491215          1.9633
LJ          0.340641       0.0669074        -1.57787
LJ          -2.11046        -1.85473         2.17362
LJ         -0.542322         0.46785        -2.16398
LJ           1.97319         2.04776        0.324372
LJ          -2.27918       -0.642435        -1.45546
LJ          0.963525        0.389891       -0.217776
LJ          -1.41144         2.14381       -0.253837
LJ           -1.1478       -0.232894         1.00564
LJ          -1.34337         -1.6786       -0.925754
LJ          -2.25509        -0.95598         1.68592
LJ         -0.387147         1.00582        -1.32148
LJ          -1.73615        0.726035        -2.30532
LJ          -1.18479        -2.30914        -1.97592
LJ          -1.80559     -0.00832875          1.8726
LJ          -2.12408        0.492602        0.494271
LJ           1.77967         1.09456       0.0718365
LJ           1.13353        0.449094        -1.28193
LJ           0.26335        -1.36666      -0.0382169
LJ           2.17849        0.564656        -1.28082
LJ           2.18016         1.59126       -0.790491
LJ          0.581558       -0.701659       -0.832429
LJ           1.22118         1.20104         2.04483
LJ         -0.767024        -1.26748      -0.0468235
LJ           2.15223        -1.65221        0.275643
LJ          -1.85106        -2.20178        0.800347
LJ          0.597594        -1.43183         1.19986
LJ          0.319562       -0.411497         2.25283
LJ           2.32997        -1.09164       -0.501535
LJ           1.60112       -0.952162        0.867586
LJ          0.968797         1.83747        0.321945
LJ          -1.43447       -0.521566      -0.0160319
LJ         -0.387283         -1.7337          -2.246
LJ          0.308315        0.733324         2.17867
LJ          -1.83223         1.44707        0.978883
LJ          0.446025         1.25004        -1.69391
LJ          -1.15287         -1.8486         1.76016
LJ          -1.56825        -1.15234        0.954223
LJ          -1.20479        0.674834        0.622726
LJ         -0.571074        -2.28009        -1.19905
LJ          -1.28817       -0.881244         1.97108
LJ         -0.667421         1.57912       -0.448039
LJ          0.257734         1.81808       -0.919309
LJ          -1.78367         1.24514       -0.329244
LJ           2.22911       -0.114955        -2.30995
LJ          0.752116        -1.52036        -1.76542
LJ          0.299273        -2.15313        0.553358
LJ          0.551042       -0.245923         1.21423
LJ           -1.9414      -0.0327208       -0.699061
LJ           1.13458        0.383558         1.60919
LJ           1.72659        -1.60286        -1.30367
LJ          -2.30025        -2.20616       -0.500836
LJ          -1.67283        -1.56758       0.0427339
LJ           1.13445       -0.579412        -1.84432
LJ          0.434606        -1.98243       -0.915313
LJ         -0.882521        0.610802        -0.52732
LJ           1.71478         2.15829        -2.32558
LJ          -1.56939        0.730029        -1.31959
LJ           2.01351        -1.74182          1.3902
LJ         -0.783998         1.92221         1.67849
LJ          0.053044          -2.117         1.70536
LJ           1.37817        0.367892        -2.21084
LJ           1.08656         1.24612       -0.743983
LJ         -0.492083          1.7954        0.732465
LJ         -0.407025       -0.822718        -1.88067
LJ          0.494648       -0.367086        0.210039
LJ          -1.33777         1.68065        -1.19519
LJ           2.35702       -0.489642        0.348892
LJ          -1.15648         1.00076         1.67378
LJ          -1.81774         1.90556         2.09687
LJ         -0.247095        -1.04552         1.72921
LJ         -0.536943       -0.301564       -0.296312
LJ           2.19607        0.919591          1.8959
LJ         -0.231797        -1.21277        -1.04774
