108
#Comment!
LJ          0.665887         1.30647         2.00095
LJ         -0.737926        0.707772         1.75553
LJ           1.50896        -1.03894        -1.85449
LJ          0.790182        -1.11757       -0.125736
LJ          0.442965        0.511818         0.73533
LJ           1.25622         1.93901        0.666618
LJ           1.63727        0.520001        -1.02735
LJ           2.10007        -1.89922         1.82485
LJ          0.301527       -0.437447        -2.24157
LJ          -1.68918        -1.16173        -1.05179
LJ           -1.1135        -1.65346        0.664353
LJ           2.07576        0.874946         2.02807
LJ          -2.25857       -0.589533        -1.60692
LJ          -2.29202        0.773853        -1.70955
LJ           2.28211         2.17163        0.408575
LJ         0.0305898         0.85165       -0.140379
LJ          0.534582          1.1701       -0.989631
LJ          -2.27189        -2.21725       -0.548578
LJ         -0.735238          2.1934        0.727067
LJ          -0.35174       -0.695909       -0.666014
LJ          0.677274         1.71059       -0.150052
LJ          -0.48484       -0.445311        -1.53447
LJ            1.1138        0.540203         1.53199
LJ           1.85073         1.43231       -0.203814
LJ           2.37228       -0.289555         1.46622
LJ           2.14705      -0.0643253        -2.36608
LJ         -0.292683        -2.37121       -0.172963
LJ          -1.08003       -0.672163      -0.0788537
LJ           2.23716        -1.02135         2.14274
LJ          -2.20869        0.490643        0.859159
LJ          -1.22441         1.92629         1.59671
LJ         -0.808443         1.39308       0.0702163
LJ         -0.992591         2.13228       -0.772944
LJ           1.54357         2.36652       -0.326175
LJ         0.0927769        -0.36827        0.312652
LJ          0.190049        -2.16216         1.95222
LJ           1.07746        0.769759        -0.20698
LJ           1.69418       -0.500084       -0.982698
LJ          -1.50624        -2.33204       0.0561862
LJ         -0.256505         -1.7921         1.10881
LJ          0.424266        -0.41048          1.2693
LJ        -0.0739367        -1.31381        0.303876
LJ          0.357748         1.98433         1.27986
LJ          0.208233        0.377805         1.71681
LJ         -0.325715         1.31916        0.964988
LJ         -0.311488         1.50431         2.32308
LJ          -1.10406        -1.52814         1.63113
LJ          -1.45065        0.213964       -0.966636
LJ           1.44577         1.75883        -1.16797
LJ          0.528342       -0.751461        -1.31115
LJ           1.57243        -1.77056         0.75054
LJ           1.61677       -0.986163          1.3548
LJ          -1.29678        0.838445        -1.65266
LJ          -1.32749        -1.36199        -2.19887
LJ         -0.346324        -1.32687         2.34705
LJ           1.63761         1.02343        0.663695
LJ          -1.41651         1.23217       -0.737238
LJ           1.20741       -0.133235        0.711768
LJ         -0.403431        0.433972        -2.13454
LJ           1.14552      0.00652099        -1.74648
LJ            1.3427         2.22467          1.8461
LJ         -0.501538        0.991696        -1.00132
LJ          0.479701        0.891527        -1.90404
LJ           2.22344         2.34472        -1.46758
LJ           1.49807        0.898967        -1.92798
LJ          -1.53592        0.316815         2.17864
LJ          0.250032        0.171202        -1.20134
LJ          0.110472        -1.60049       -0.736949
LJ         -0.298821          2.0331        -1.54751
LJ          -2.04228        -1.35042       0.0217555
LJ          -1.64746       -0.703463          1.8922
LJ          -2.18891       -0.496057       -0.578646
LJ         -0.733308       -0.362137          2.1717
LJ          0.545027         2.28182        -1.02031
LJ          0.646137        -2.11491        0.286419
LJ           2.04511         1.75956        -2.29863
LJ           1.22971        -0.36175         2.00369
LJ           1.08743        -1.60585       -0.966018
LJ          0.916389         -1.4061         2.07682
LJ            1.8192        -1.02071        0.139801
LJ         -0.733505       -0.755437         1.18073
LJ          -1.40374       0.0627108         1.22186
LJ            2.1407         1.62535          1.4103
LJ           1.78394       0.0440823       -0.071683
LJ          0.889789       -0.171461       -0.488175
LJ           -1.9691         1.35255       0.0906492
LJ         -0.444343        -1.73541        -1.49439
LJ           2.07664        -1.40978        -1.10697
LJ          -1.53807        -2.02623        -1.43072
LJ         -0.659971         0.20265       -0.428186
LJ           1.58763        -1.99318        -2.06759
LJ          -1.45509         1.16352         1.00327
LJ          -2.20138       -0.344212        0.367986
LJ         -0.856815        -1.60059       -0.468119
LJ         -0.807934        -2.21904        -2.28608
LJ          -2.31191        0.632941       -0.453804
LJ          -1.96691        -2.17804        -2.31785
LJ          0.694267        -1.40142          1.0657
LJ          -1.39099       -0.358241         -1.9026
LJ          -1.42291         1.80762        -1.81219
LJ          -1.81578         1.33239         2.08864
LJ          -2.30162         1.52958        -1.02133
LJ          0.947166         1.92975        -2.00769
LJ          -2.26997        -1.20693        0.942877
LJ          0.501063        -1.87068         -1.8271
LJ          -1.79892        -2.13865          1.0937
LJ          -1.45127        0.346059         0.19352
LJ         -0.589948        0.250604        0.725324
