108
#Comment!
LJ          0.233171        -0.79597         1.22494
LJ          0.980997        0.193341         2.20867
LJ          0.847361        0.849568         1.40242
LJ          0.613286         1.32373       -0.521395
LJ          -1.61657        -0.81352          1.3112
LJ         -0.665481        -2.14973        0.413942
LJ           1.36254         1.97243        -2.26814
LJ          -1.26465         1.63212        -2.29117
LJ          -1.48395         2.14793         1.51361
LJ          -0.03796        -1.11254       -0.208539
LJ         -0.371359        -1.80674        -2.07056
LJ          -1.98147         2.16003        -1.86994
LJ          0.684361        -1.70958       -0.619727
LJ          -2.08064      -0.0226265       -0.240821
LJ         -0.800604        -1.13205        0.497999
LJ         -0.540248         2.27717         1.97269
LJ          -1.08476        0.983109          1.6296
LJ           2.26299       -0.949476       -0.289872
LJ          -2.11385        -1.45764       -0.985506
LJ        -0.0911509       0.0673561         2.22833
LJ          -1.46151        0.172953         1.23181
LJ         0.0623597          2.0999         -0.4653
LJ           1.69121        0.599112        0.905201
LJ           1.28218         1.33087        0.326271
LJ          0.942302        -1.15144        -1.49641
LJ         -0.930359         1.78508        0.835784
LJ          -1.82318         2.12264        0.409517
LJ           1.01557        -1.01838         1.82429
LJ          -2.09534        -1.83182       -0.127996
LJ          0.754872       -0.520197        0.057553
LJ          -1.49456        -1.84111        0.891517
LJ         -0.773891        0.700631        0.720219
LJ          0.688363        0.563419        0.239049
LJ         -0.313281        -1.10004         -1.2409
LJ           1.62602        0.240856      -0.0290863
LJ           1.98386         2.13808       -0.120703
LJ          0.133268        -2.32364         1.12871
LJ         -0.141653         1.31591          1.6993
LJ          0.368909       -0.468315       -0.847391
LJ           1.75667        0.977452         1.81758
LJ           1.67038       -0.650381        -2.27065
LJ          -1.18611        -2.01207        -1.32649
LJ          -2.25556         1.61494         1.82019
LJ           1.13947         2.34209        0.405144
LJ         -0.555037        0.793517        -2.07501
LJ          0.404285         -0.6475        -2.12556
LJ          0.986832        0.423418       -0.715703
LJ           1.89018        0.372466        -1.07848
LJ           -2.0857        0.496219         1.98033
LJ        -0.0535024       -0.130062        0.461537
LJ           1.57599         1.23797       -0.696921
LJ           1.18789         1.00247        -1.57309
LJ           1.46927        -0.57348       -0.689284
LJ         -0.242422         1.78556        -1.93528
LJ          -2.01924         2.15583       -0.794799
LJ          -1.11468        -1.34205       -0.596363
LJ         -0.652197         1.46495       -0.153706
LJ         -0.684796       -0.199223        -1.69292
LJ          -2.14317         1.02812       -0.904534
LJ           1.99161       -0.121677         1.59739
LJ         -0.702962       -0.452709         1.24068
LJ          -1.40889        -1.01859        -1.87283
LJ           0.47698         1.07287        -2.26478
LJ           2.05178         1.98158        0.871032
LJ           1.00609       -0.177225         1.27363
LJ           1.65862        -2.09874         -1.2472
LJ         -0.534149       -0.813053         2.34327
LJ           1.35745        -1.55519        0.912031
LJ          0.381813         2.04434         2.11808
LJ           2.01142         1.71567        -1.46331
LJ           1.79926        0.392817        -2.04873
LJ           1.61353       -0.614898        0.509396
LJ          -1.08438         2.32357        -0.41636
LJ          -1.35501       -0.453513       -0.972927
LJ          -1.20266      -0.0506277          2.1647
LJ          0.274042        -1.73024          1.8724
LJ          -1.83668        0.288048        -1.81909
LJ          -1.13772        0.555513        -1.14757
LJ           2.23699         1.20204       0.0292609
LJ         -0.527059        -1.46432         1.38693
LJ          0.682429        -2.07669        -1.93749
LJ           1.23144        -2.02766          1.7347
LJ          0.128119        0.334308        -1.37336
LJ          -1.22665          1.5314        -1.26832
LJ            2.3005        -1.68413        0.837126
LJ           1.07215       -0.153912        -1.58302
LJ          0.922359         1.97189        -1.30263
LJ        -0.0207782        0.392043         1.27867
LJ           -2.2933       -0.129442        0.709921
LJ        -0.0969905        -2.23425          -1.291
LJ          0.463628        -1.45133        0.599818
LJ            2.2552        -1.08628          1.6513
LJ           -1.3403        0.754622       -0.151531
LJ          -2.27184         1.14779         -2.1377
LJ           1.12938         1.87585         1.36374
LJ          -1.40234        -1.71361         2.12046
LJ           -2.3264        -2.12023         1.87435
LJ         -0.120635         1.27342        -1.12018
LJ          -2.12753       -0.418037         2.34164
LJ         -0.996352       -0.308506      -0.0325427
LJ         -0.393991         0.49373       -0.294057
LJ          -1.77951        -1.05113        0.342268
LJ              1.53        -1.53323      -0.0338816
LJ          -1.91067         1.08741        0.903925
LJ           1.57205        -1.62023        -2.14369
LJ          0.332315         1.44435        0.795458
LJ           2.33438       -0.633041        -1.47596
LJ          -2.19017        -1.62092        -2.03067
