108
#Comment!
LJ           1.72888         2.17412        0.728416
LJ          -1.27489         2.18543         1.39076
LJ          -1.36447        -1.34753       -0.150046
LJ          0.575804       -0.609985        0.762745
LJ           1.20495        0.910301        0.261736
LJ           0.20297        -2.18416         1.85874
LJ           1.80295       -0.142202          2.2791
LJ          0.413957        -1.89595       -0.101056
LJ           1.05553        -1.29116        -1.32313
LJ         -0.665936       -0.168687        -2.23395
LJ          -1.53898         2.38055       -0.504414
LJ          -1.58928        0.380353         1.99716
LJ            1.0489        -0.14487        -1.58673
LJ           1.07411        0.368302       -0.622277
LJ           1.48132         1.28619         1.13281
LJ         -0.827771        0.012994        -1.01797
LJ          0.792931        -1.16034         1.61981
LJ          0.886536       -0.907165       -0.196209
LJ         -0.116637         0.64858       -0.561572
LJ           0.45238        0.868402         1.81183
LJ          -1.07613        -2.01036        -1.35267
LJ          -1.07225         1.00826       -0.837128
LJ           1.12562        -1.80697        0.786066
LJ           1.73249         1.23006          -1.003
LJ         -0.822351        0.851727        0.155877
LJ          -1.80194         1.79009         2.29597
LJ           2.07311         2.03841       -0.441739
LJ          -1.66895      -0.0468414        -1.68289
LJ         -0.237624        -1.02294         2.02163
LJ           1.27323         1.84626        -1.68445
LJ          -1.48785        -1.19315        0.952085
LJ          0.184922        -1.65722        -1.02053
LJ           -2.2862         1.91121         1.37251
LJ         -0.727298         1.69212        -1.81449
LJ          0.860469       -0.180412         1.97669
LJ          -1.66707       -0.586948       -0.822028
LJ         0.0948938        -2.37705        -1.72449
LJ          0.830593         2.37173       -0.984786
LJ          -2.23535         1.01898        -2.21948
LJ         -0.577479         0.67645         1.23182
LJ        0.00344664       -0.366211        -1.46519
LJ          -1.65639         1.86995         -1.4529
LJ          0.177552         1.36216        0.288297
LJ            1.6923         1.67088         2.04211
LJ          -1.42389         1.19445         1.52422
LJ         -0.862456        -2.18606         -2.3271
LJ          -1.10968       -0.107417        0.815852
LJ           1.73831       -0.616803       -0.548577
LJ           1.42893        0.696989         1.88226
LJ           1.31152      -0.0628596        0.247744
LJ         -0.595333        -0.87791        0.863811
LJ          -2.02744        -1.76594        -1.70105
LJ         -0.169656          1.7407       -0.918718
LJ         -0.457986        0.754078         2.29567
LJ           2.18593         1.87066        -1.75433
LJ          -1.71336         1.37244       -0.211248
LJ          0.389636         1.52523        -2.03652
LJ          -1.95277         2.06479        0.444998
LJ          -1.28402       -0.993865        -1.68081
LJ          0.693794         1.23418       -0.884946
LJ          -1.15038       -0.583214         1.71613
LJ          -1.72154        0.805662        0.632576
LJ           1.53871       -0.227739         1.26909
LJ          -1.65349        -1.60458         2.12487
LJ           1.55478        -1.82999       -0.168968
LJ        -0.0691797         2.32793        0.539624
LJ          0.720606        0.486388        0.896625
LJ           1.80829        -2.08281        -1.15876
LJ          -2.00242        0.919895        -1.16044
LJ          -2.06983       -0.416552        0.329403
LJ           2.24318        0.531178       -0.311592
LJ          -2.33557          -1.323        0.121872
LJ            2.1423         1.31766        0.410774
LJ           1.59475       -0.927683        0.563344
LJ          -2.07468        -1.57847       -0.763397
LJ          0.581638       -0.909643        -2.09813
LJ           2.36995         0.92528         1.51904
LJ          0.973445        -2.10776        -2.14965
LJ          -2.18089        -1.90914          1.0144
LJ         -0.825182         1.81867        -0.16313
LJ          -1.31647        0.866753        -1.87984
LJ           1.49809         -1.0998         2.30304
LJ         -0.390117        -1.43459        -1.82342
LJ            2.2404       -0.942024         -1.4057
LJ           1.08572         2.02484      -0.0700484
LJ         -0.609285         1.59884        0.910033
LJ         -0.397287         1.67558         1.88335
LJ         -0.227353        0.156231        0.442623
LJ          0.150353       -0.298583       -0.541969
LJ         -0.579007        -1.90279       -0.451063
LJ         -0.327346        0.784608        -1.48755
LJ          -0.94531       -0.274918      -0.0780597
LJ           2.08601        -2.00543         2.35519
LJ         -0.107201       -0.163811         1.38776
LJ          -1.62229        0.370106       -0.276269
LJ           1.95287        0.292557        -1.27232
LJ          -1.08189        -2.17599          0.4055
LJ          -2.06768       -0.303479          1.3402
LJ         -0.813462        -1.71334         1.61364
LJ         -0.567812        -1.00354       -0.903831
LJ          0.713254         1.97097         1.08739
LJ           -2.0527       -0.725786         -2.3707
LJ          0.395711        0.382881        -2.04182
LJ           2.17761        0.327652         0.78505
LJ           1.21983        0.908053        -1.92528
LJ           1.92982         -1.1737         1.45429
LJ           1.33237        -2.10065          1.7062
LJ           0.13663        -1.55318        0.915084
