108
#Comment!
LJ           1.03594        -1.76046         1.08969
LJ         -0.115858        -1.22123         1.60752
LJ          0.384275        -1.36752       -0.803055
LJ           1.18954      -0.0141783          1.7714
LJ         -0.411945        0.162207       -0.471681
LJ          0.952835         2.06412        -1.09026
LJ          -1.57342        0.596894        -1.62863
LJ          -1.06183        -2.07675       -0.865227
LJ         -0.916775       -0.358742         1.66798
LJ         -0.437534       0.0357221        0.796209
LJ         0.0210455        -2.27642        -1.56212
LJ          0.437496       -0.402315       -0.677576
LJ           1.05217       -0.917485       0.0465405
LJ           1.43967         2.21047      -0.0159144
LJ           2.15581       -0.783954       -0.136331
LJ          -1.51585         1.20329         1.18466
LJ         -0.463809        -0.82682       -0.391046
LJ          -2.35243        0.159564        -2.13998
LJ          -1.43165         1.58425        0.235373
LJ        -0.0419096         1.41764       -0.856274
LJ          -1.86492        -2.16113        -1.46134
LJ           1.21492         0.98282         1.61135
LJ            2.2094        -1.53483        -1.09596
LJ           1.51898         0.19107        -1.15686
LJ          -1.85021       -0.602617          2.1216
LJ         -0.391777        0.091067        -2.23895
LJ           -1.5186        -1.76915         -2.3129
LJ          0.997011        -1.84356        -1.75375
LJ          -1.86674         2.04657        -2.35435
LJ          0.578597         0.12632        -1.50035
LJ          -1.84961        -1.63067        0.627046
LJ          -1.26577        -0.36622       -0.908464
LJ         -0.667688         0.58173         1.62166
LJ           1.67321         1.82824         1.99574
LJ           2.09063       -0.826644         1.58184
LJ           1.58262        0.300664       -0.104021
LJ           1.30188        -1.85121       -0.810105
LJ          0.574886         1.75608       -0.172513
LJ          -1.71375        -1.33836       -0.412215
LJ           2.02496         2.33697         1.02362
LJ           1.58834         1.62188        -1.77592
LJ           1.26074         1.71247        0.968166
LJ           2.04692        -1.73262      -0.0865437
LJ          -1.58934        -0.24391      -0.0172557
LJ         -0.988098         1.65162       -0.932638
LJ           1.74406         0.46683        0.820692
LJ         -0.816274         1.99197         2.02659
LJ         -0.560956        0.700619         -1.3253
LJ        -0.0547853        -2.00273          2.1894
LJ           2.22748         0.13531          1.6048
LJ         -0.995098         2.18903        -1.77297
LJ           0.76382         1.18888        -1.45245
LJ         -0.896735        -2.06999        0.188871
LJ          0.691481        -1.88774     -0.00419037
LJ         -0.739872        -1.30767        -1.39565
LJ          0.338223        0.657167         1.18434
LJ          -1.70119         2.24416         1.15508
LJ           1.22562         -1.2666         1.92618
LJ         -0.698632        -1.05272         2.36573
LJ           1.01607       -0.868816         -1.4392
LJ           1.83669        -2.19675        -2.04825
LJ           0.34697         1.98107        0.940809
LJ           2.30544         1.35723          1.2165
LJ          -1.73847       -0.404628        0.943454
LJ           2.21964       -0.556481        -1.17947
LJ          -2.00414         1.62691        -1.52943
LJ           1.27459         1.20946       -0.533501
LJ          -2.01432         1.32278       -0.558547
LJ          0.938526        -2.20581         1.99978
LJ         -0.057191        -1.84287        0.648614
LJ          -1.22292         0.66316       -0.588826
LJ          0.151462         1.42843         1.79804
LJ         -0.412815         1.76249       0.0350635
LJ          -1.98096        0.468737        0.571567
LJ           1.46755        0.539972        -2.10638
LJ           2.35988        -1.89425         1.81325
LJ           0.47375        0.635302         2.25163
LJ           2.19522        -1.29869        -2.21583
LJ           2.14482        0.895544        -1.43082
LJ         -0.363821       -0.328238        -1.32918
LJ          0.544691        0.584485        -0.55667
LJ           1.58154       -0.479836        0.753776
LJ          0.757507         1.73996        -2.23115
LJ          -2.22584        0.290175       -0.732555
LJ           1.93792         1.90743       -0.819007
LJ          0.918043        0.943583        0.446276
LJ          0.617412       -0.535711        -2.28549
LJ           2.12881         1.45536        0.196413
LJ          -1.72858        -1.15747        -1.45064
LJ           1.93733        -1.45455        0.866295
LJ          -1.96776        -2.30461       -0.431919
LJ          0.158458        -1.28957        -1.83162
LJ         -0.611512       -0.905904        0.676904
LJ          0.548252        -0.11659        0.336312
LJ          -1.04278        0.710941        0.440846
LJ          0.646094       -0.841968         1.00026
LJ          0.111072       -0.232451         1.58994
LJ         -0.546056          1.3895         1.05437
LJ        -0.0958448        0.848044        0.186671
LJ          -1.66527        0.499912         2.02506
LJ           1.59503       -0.514308        -2.19255
LJ        -0.0921674        -2.29038       -0.620591
LJ          -1.23983       -0.328871        -1.88083
LJ          -1.13604         1.21289        -2.25812
LJ         -0.153659         1.46692        -1.97694
LJ          -1.21257        -1.25879         1.40785
LJ          -2.34921         1.15834         2.29759
LJ         -0.798747        -2.21701         1.18194
