108
#Comment!
LJ          0.620571       -0.079293        0.414511
LJ           1.21904       -0.501654         1.09359
LJ          -2.08633        0.164675        0.597297
LJ          -2.06872        -2.34338       -0.650012
LJ          -1.64525         0.59019       -0.411802
LJ            2.2489        -2.30761        -2.35929
LJ           2.20911          1.9905        0.466009
LJ         -0.107048        0.730765        -0.92562
LJ          0.499603         2.36343        -1.00537
LJ         -0.426247         1.18614         2.32926
LJ           1.81103         2.23717        -1.04808
LJ          -1.35121         1.79351        -2.14701
LJ          -1.16948        -1.59031        -1.02836
LJ          -1.76553        -1.62593         1.15704
LJ          -2.00418         1.00435         -1.1872
LJ          -1.92662        0.681273         1.40723
LJ          0.600081       -0.686423         2.03854
LJ           1.96396        0.227083         1.45091
LJ            1.7564       -0.691612       -0.181407
LJ           2.04697        -1.38686        -1.81044
LJ          -2.09474        -1.29672       -0.756151
LJ           1.12537        -2.18072        0.847779
LJ          -1.59171        -2.21249         2.01767
LJ           1.10539         1.39361       -0.856719
LJ           2.37817        0.293487        -2.33723
LJ          -1.29085       -0.239165          2.3629
LJ         -0.971827         1.38637         1.53937
LJ           1.36059        -1.58178         2.26063
LJ         -0.912759         1.30801        -0.30387
LJ           1.63515        0.178494       -0.665876
LJ          -2.08374       -0.429761         1.69385
LJ          -1.83645        -1.82618        0.157734
LJ         -0.194001       -0.771973     -0.00546715
LJ           1.71384       -0.615337         2.03307
LJ        -0.0030308         1.22655         0.17815
LJ           1.24676       -0.726251        -1.78459
LJ          0.148444        -2.17064         1.36594
LJ          0.728143        -1.32038       -0.996718
LJ          -1.91404        -2.05507        -1.60582
LJ           1.89591         -1.8629       -0.029111
LJ         -0.664963        -2.32876       -0.612284
LJ         -0.636522         1.76243        0.742742
LJ          0.201427         1.59505         1.23276
LJ        -0.0418699        0.721865         1.61347
LJ          -1.34298        0.788414        -2.35729
LJ         -0.222175        0.213953      -0.0286623
LJ           1.03924         2.15527        -1.78949
LJ          0.300794         1.31163        -1.65753
LJ           2.16123         1.43144       -0.510899
LJ          -1.56313         0.21641        -1.45757
LJ          0.231503       -0.502709         -1.6748
LJ            1.2624         1.60511          1.1529
LJ        -0.0623574         1.66548       -0.686082
LJ          0.821458        0.686786       -0.225402
LJ          -1.96023       -0.322838       -0.258963
LJ          -1.11805      -0.0263716        0.260537
LJ           1.68195        -1.35057       -0.930805
LJ           -2.3556        -1.44845         2.01657
LJ           1.49172         1.04496         2.02132
LJ        -0.0623657       -0.649423         1.23454
LJ          0.958074         2.26705         1.82352
LJ          0.921128         0.15063        -1.34657
LJ          0.983809        0.670847         0.85968
LJ         0.0472918         -1.4601        0.698844
LJ          -1.15549        -1.02935       -0.185483
LJ          0.558914         1.39016          2.1391
LJ           2.17438         1.09521        0.755789
LJ          0.126312        -1.65971        -0.30251
LJ          -2.29603         1.53635        -1.97307
LJ           -1.0487       -0.916255         1.06404
LJ          -0.73395        -1.93914        0.292817
LJ         -0.526156        0.179034        -1.66561
LJ         -0.421158         2.17844         2.02591
LJ          -1.67339         2.04588         1.15861
LJ          0.907318        0.174378           1.689
LJ          0.470176        0.539257         -2.2528
LJ          0.499365        -1.77954        -2.06359
LJ             1.714        0.159946        0.405824
LJ           0.98608        -1.48095       0.0989313
LJ           1.37705         1.38116        0.183669
LJ         -0.985723         1.07929        -1.32572
LJ           1.85577        -1.29513         1.12452
LJ          -0.35624         2.09237        -1.76328
LJ         -0.640722        0.714905        0.801881
LJ          0.757859        -1.42717         1.42167
LJ          -2.07452       -0.922753        0.533578
LJ           1.08958          2.2551       -0.263252
LJ         -0.943597        -1.93291        -1.92527
LJ          -1.32674        -1.23497         1.97828
LJ          -2.27555         1.60875         1.82607
LJ           2.09076       -0.487003        -1.28902
LJ         -0.886637      0.00290863       -0.717954
LJ           1.98128         2.34777         1.36554
LJ         -0.945832       0.0689668         1.50177
LJ          0.214882         2.26378        0.320322
LJ         -0.338885        -1.27853         -2.2936
LJ           1.73888         1.06344        -1.49073
LJ          -1.50681          1.0758        0.393338
LJ          0.546464       -0.348623       -0.544043
LJ          -2.11785       -0.631876        -2.09203
LJ          -1.46053         2.03203        0.123275
LJ         -0.115043         -1.7181        -1.34374
LJ          -1.34057         2.01411        -1.17642
LJ           1.38042        0.164793        -2.15419
LJ         -0.844716        -1.90881         1.40953
LJ           -1.0714       -0.724919        -1.60373
LJ         -0.260309       -0.199371         2.21073
LJ          -0.36403       -0.862179       -0.925426
