108
#Comment!
LJ           2.00002        -1.46285        0.727052
LJ          -1.21012         1.22332         2.10505
LJ         -0.205325        -1.49876       -0.863102
LJ           1.85721        0.272152         1.14425
LJ            1.3385       0.0165041        -1.00406
LJ           1.59988         1.91261        -1.49387
LJ         -0.194136          1.1906       -0.938214
LJ          -1.01393       -0.706586       -0.586875
LJ          -1.07367       -0.516597         1.78173
LJ          0.332391       -0.247011         1.86384
LJ          0.429457        -1.24699        -1.75988
LJ          0.675675        -0.25425        -1.73305
LJ            2.1778       -0.998937           -1.42
LJ          -1.91212         1.40133        0.163773
LJ          -1.95892        -1.67189       -0.662434
LJ          -1.24792         1.64109        0.869552
LJ           1.84018        0.225217        0.149389
LJ         -0.405434         1.28613         1.20642
LJ          -2.35334         2.35541         0.16653
LJ          -1.89607        -2.34134        -2.02454
LJ           2.11572        -1.55074        -2.23338
LJ          -1.75322          1.9415         1.68798
LJ            1.6944       -0.979527       -0.549775
LJ          -1.69679        -0.36236        -1.32124
LJ          -1.37806        0.533033         1.40204
LJ           1.94122         2.14469         2.21772
LJ         -0.819482         -2.2917         1.41313
LJ         -0.197067        -1.59093         1.91664
LJ           -1.3833         2.22106       0.0260783
LJ           1.06118        0.357359         2.36231
LJ         -0.551936        -1.87948        0.527242
LJ          0.774219         1.54393        -1.12193
LJ           1.01278        -1.77936        0.584949
LJ          -1.92842        -1.66021          1.7802
LJ           1.44533       -0.488906         1.74488
LJ          -2.21831       -0.232067       -0.476928
LJ            1.7096         1.95635       -0.449361
LJ           1.25748         2.00247        0.398596
LJ          -1.14206        0.316361        0.361471
LJ         -0.151629         2.25396       -0.788804
LJ           -1.1442         1.73618        -1.35269
LJ           2.13433         1.92998         1.12705
LJ          -1.78926        -1.21171        0.351341
LJ        -0.0224764       -0.641069         1.07984
LJ         -0.451585       -0.348334        0.166775
LJ          0.902605        0.229525         1.17234
LJ          0.378843         1.03712         1.99289
LJ           1.22131         1.45283         2.33431
LJ          0.505732         1.67029        0.934267
LJ         -0.308568        0.262688        0.946335
LJ           1.16018         -1.8575        -2.15224
LJ           2.25781        0.204245        -1.41641
LJ          0.709242       -0.799594        -0.63246
LJ          0.110797        -1.22259         0.21226
LJ         -0.816648         2.05517        -2.19625
LJ           2.11016        0.889539         2.30229
LJ           -1.6967        0.608427       -0.510484
LJ           1.92497      -0.0662072        -2.27629
LJ          -1.14005        -1.79685         2.29792
LJ          -1.78742        0.286961         2.28811
LJ           1.21048         -1.6934         -1.1333
LJ          0.204178        -2.06885         1.14891
LJ           1.39076       -0.907561        -2.03622
LJ          -1.50079       -0.382573        0.865472
LJ         -0.894643       -0.944426        -1.57097
LJ         -0.912566      -0.0172535         -1.9745
LJ          -1.92367         1.40525        -1.96495
LJ         -0.709074        0.991523        -1.84865
LJ         0.0733189         2.13012         1.97839
LJ           1.64864        -1.85732        -0.17675
LJ          0.479008       -0.214808        0.324316
LJ           1.05316          2.2571         1.61797
LJ          0.438068          1.6075       -0.183368
LJ           -2.2666         1.15195         1.40159
LJ          -2.26691       -0.489295         1.53963
LJ          -1.74233        -2.12245        0.885345
LJ           1.80515         1.19887        0.374026
LJ           2.15245        -2.04478        -1.30884
LJ           2.15548         1.10694       -0.804763
LJ         -0.122941       -0.529028        -1.08231
LJ          0.406642        0.333051       -0.773085
LJ          -2.10095        0.514086        0.672608
LJ          0.571678        -2.31961        -1.42327
LJ          -1.03017         1.31263       -0.321087
LJ          -2.05077         1.93673        -0.77595
LJ           0.78262        0.870627        0.427587
LJ            1.4642        0.977063        -1.57239
LJ            1.2754        0.837112       -0.469468
LJ         -0.244823        -1.91551        -1.91775
LJ           1.87604        -1.85595         1.61671
LJ          -1.05935        -1.65863       -0.315084
LJ          0.743691        -1.28216         1.82459
LJ          -1.14153        -1.35024         1.18297
LJ           2.25084       -0.567395        0.592279
LJ           1.23976         1.12088         1.39774
LJ           1.24475       -0.813362        0.715201
LJ          0.288658        0.686713        -1.78778
LJ         -0.214759        0.748113      -0.0370882
LJ         -0.816118        0.313668       -0.898217
LJ         -0.511007        0.409677         1.95699
LJ          -1.76187        -1.37173        -1.71354
LJ         -0.976628        -2.03813        -1.26948
LJ           -1.5132        0.657901        -1.47651
LJ         -0.284828       -0.705664        -2.26728
LJ          0.075517         1.64791        -1.88162
LJ          -1.89991       -0.651087        -2.34574
LJ         -0.489951         1.89997        0.307952
LJ          0.572436        -2.00885       -0.288602
