108
#Comment!
LJ         -0.967471         1.93448        -1.17595
LJ          -1.17814        0.155032         1.28818
LJ         -0.643234        -1.99326       -0.403694
LJ          0.343979       -0.255878         0.63176
LJ         -0.256754         1.44525      -0.0655583
LJ            2.3249       -0.735285        -2.16409
LJ           1.07473         2.04819        -1.44377
LJ        -0.0489527        -2.34299        0.404319
LJ           1.13562         -1.5643        -1.75546
LJ           1.62873        -1.97842       -0.907408
LJ          0.797311         1.55619       0.0679371
LJ         0.0316105        -1.11536      -0.0274033
LJ            1.6372         -1.2945         2.16438
LJ          0.290252        -1.26086        -2.16514
LJ           2.24223        0.909548       -0.685787
LJ          -1.64949      -0.0525091        0.100706
LJ           1.52811        0.149901        -0.94022
LJ          0.209783       -0.476288        -0.84642
LJ          0.900366       -0.414941       -0.127038
LJ          -1.64216        -1.93539       -0.470946
LJ          -1.60018         2.26106        -1.90361
LJ          -2.10642         1.92097        0.777125
LJ          0.822431         2.05182         1.24856
LJ           2.33013        0.509509        -1.56273
LJ           1.73557         1.01881         1.12049
LJ          -1.65498        -1.92355        0.790177
LJ          -2.30606          -2.064         1.96656
LJ           1.29131       -0.466942         -2.3554
LJ         -0.661749       -0.585757        0.766653
LJ          -1.13498         1.99501       0.0552711
LJ          0.853609        0.573634         0.96985
LJ          -2.01506        -1.39371         -1.2242
LJ           1.25616         1.33085         2.29001
LJ           1.69395         1.73356       -0.591421
LJ          0.551647         0.04727          1.9343
LJ         -0.847965        -1.00137       -0.751344
LJ          -1.50483       0.0644245       -0.992085
LJ          -1.42708       -0.622577         -1.6607
LJ           1.70381         1.80133        0.417685
LJ          -2.06162         1.80279       -0.385116
LJ         -0.614255       -0.756522        -2.22943
LJ          -1.67667         1.94605         1.72576
LJ          0.355123        -0.32479        -1.86914
LJ           2.34752         1.87871        -2.32544
LJ          -1.67935       -0.611942         1.92706
LJ          -1.06923        -1.27247        0.211063
LJ           2.03029       -0.747764          1.3737
LJ           1.37211       -0.750598        -1.40756
LJ           1.22814        0.587166        -1.79676
LJ          0.984365         1.00464       -0.832899
LJ           1.14691        -2.20639        0.228761
LJ         -0.100361       -0.738597         1.69196
LJ           2.23546        -2.15665       0.0337651
LJ          0.274456        0.517638       -0.142966
LJ          -2.34414         2.28736        -1.25187
LJ          -1.97994       -0.927298       -0.232939
LJ          0.820189        -1.25369       -0.595525
LJ          -2.33929       0.0584739         2.01027
LJ           2.30249       -0.416743         -1.2265
LJ           1.40527        0.755756       0.0698761
LJ          0.545156        -1.85968         1.85107
LJ           2.18213        0.964837         2.27626
LJ           1.86814        -1.13273       -0.497793
LJ         0.0461438         1.40699        0.877191
LJ           1.41282        -2.35765         2.28168
LJ          0.466221         -1.5992        0.864879
LJ         -0.797306        0.791568       -0.915105
LJ          0.376073         1.85729         2.25526
LJ          -1.67089         1.21073        -2.28674
LJ         -0.836774        0.966315        -1.81312
LJ          -2.29176        0.230004         0.93335
LJ         -0.989467         2.07509         1.07276
LJ          -1.00946         1.04196         1.72101
LJ         -0.620335      -0.0385806        -1.54605
LJ          -1.65975        -1.50676        -2.17712
LJ        -0.0542715         1.48759        -1.05045
LJ           1.46643        0.324397          1.7827
LJ         -0.925605        -1.86915        -1.51848
LJ           2.33754         1.06818        0.320801
LJ         -0.506809        0.302879         2.28456
LJ          0.189081         1.04868        -2.03636
LJ           2.09643       0.0665788       -0.152353
LJ         -0.732427          1.8211         2.29386
LJ           2.36423        -1.27972        0.589204
LJ           1.92159         1.99279         1.46436
LJ          -2.16632         1.12408         1.39235
LJ         -0.469769        -1.92058         2.33283
LJ         -0.535012        -1.65277        0.975758
LJ           0.20275        0.514523        -1.14054
LJ           0.55657          2.2403       -0.669623
LJ          -1.52864        0.963288       -0.161467
LJ          -0.52543      -0.0889036      -0.0888644
LJ          -1.43903        0.283093        -2.33916
LJ           1.02645       -0.932404         1.39856
LJ          -1.02463        -1.25066         1.69732
LJ           1.56128      -0.0447868        0.606792
LJ         -0.165347         2.21732         1.51299
LJ           -1.7514          1.3554        -1.20601
LJ         -0.239301        0.433921        0.996204
LJ        -0.0249635        -1.44852        -1.15686
LJ            2.1002        -1.74235        -1.89565
LJ         -0.944163         0.99956        0.607122
LJ         0.0223681        -2.27595        -1.54031
LJ          -1.62843       -0.756682        0.876069
LJ         0.0136591        0.989293         1.75178
LJ           1.30613        -1.22022        0.385924
LJ           1.77377         -1.8678         1.22541
LJ           1.86724          1.4126        -1.50774
