108
#Comment!
LJ          -2.14175        -0.92912       -0.652173
LJ        -0.0386106          2.2559         0.23289
LJ          -2.37664         0.87722        -2.05768
LJ          -0.88388        -1.10415          1.9513
LJ           1.53591        0.190184        -2.31582
LJ          -2.37754        0.103175         -1.4212
LJ          -1.84522         1.43508        0.589126
LJ         -0.661551       0.0530747         1.05796
LJ           2.08982       -0.675842         1.30721
LJ          0.573831        -2.27353          1.7758
LJ         -0.728473         1.42946        0.563785
LJ          0.733203         1.35841         1.54481
LJ           1.93163         1.73678        0.386586
LJ          0.395054        -1.10801      -0.0421734
LJ        -0.0736709         1.70141         2.10249
LJ           1.60175       -0.107811        0.522125
LJ         -0.986227        -2.35736       -0.361329
LJ           1.59356        -1.07091        -1.17754
LJ          0.504155        0.741869       -0.984655
LJ          -1.46053       -0.448322        -2.04748
LJ          -1.33336       -0.415818      -0.0572599
LJ          -1.49727        0.596765        0.953018
LJ           2.34227        0.593844        0.396574
LJ          0.171184        0.153863         -1.7505
LJ          -1.47418         -1.8339        -2.37685
LJ           1.62012         1.04784       -0.910955
LJ          -1.26635         1.31784         -1.0075
LJ          -1.06622        0.672543      -0.0539673
LJ          -1.91266        -1.94626        -0.91355
LJ           2.18018        -2.05658        -1.64331
LJ            1.0231       -0.852679        0.934897
LJ         -0.465023         0.40314        -1.03008
LJ         0.0752975         1.54827       -0.571567
LJ           2.14079        -1.03337        0.265354
LJ           1.59236         1.11937          2.1319
LJ           1.21145       -0.526104         1.87372
LJ          -2.00776       -0.300653        0.666736
LJ            0.9191         2.27687       -0.252919
LJ          -1.01001         1.54772        -2.20851
LJ          0.150312        -2.25095        -1.65511
LJ        -0.0954874       -0.853498        0.761507
LJ          -0.61714        -1.66876        -1.45584
LJ          -0.66947         -1.3077       0.0535094
LJ           -1.4361        -0.10566         1.68349
LJ          -1.50741         2.37328        0.437658
LJ           2.23694        0.253637         1.67861
LJ          0.493031        0.573657         2.13131
LJ          -1.14511        -1.08616       -0.851404
LJ         0.0294494          0.6053      -0.0978663
LJ          0.386363        -0.20873       -0.845781
LJ         -0.504517       -0.685465        -1.50493
LJ           1.28542         -1.4742          1.6006
LJ          0.167087        0.885275         0.85046
LJ          0.177253        -1.90729       -0.596559
LJ          0.985877         1.33612        -0.18501
LJ         0.0233057        -0.64208        -2.35444
LJ           1.39024       0.0630582         -1.0948
LJ          -1.39626     -0.00656455         -1.0187
LJ          0.900099        -0.46734         -1.9372
LJ          0.523341      -0.0335024        0.564693
LJ           1.70172          1.7943        -1.93885
LJ           1.03703         0.31994       -0.256687
LJ           1.72093        -1.33743         -2.2478
LJ           1.21594        -2.02634        -1.35056
LJ           1.55893          2.1182         1.57886
LJ          -2.07239         1.78506         2.24106
LJ          -1.66304        0.841286         2.00907
LJ         -0.396729        -1.79182        0.921253
LJ         -0.568432        0.977124         1.53354
LJ          -2.21146         2.16022          1.1194
LJ           2.34289         1.18485         1.43903
LJ          -1.78294        -1.24712        -1.59448
LJ           1.41089         -1.6668       -0.396392
LJ          -2.03562        0.772697       -0.623849
LJ            0.3004        -1.33276          1.7377
LJ          0.984082         1.96821        0.700894
LJ          0.459039        -1.20803        -1.20488
LJ           1.72166        -1.95312        0.881571
LJ          -1.40959         1.65983         1.50282
LJ         -0.300401       -0.327077      -0.0615601
LJ         -0.687325           2.068        -1.39892
LJ           2.13016      -0.0834466       -0.347379
LJ           1.17682        0.889694        -1.73134
LJ         -0.522785        -2.15983         2.23887
LJ           1.40663        0.983406        0.642025
LJ          -1.35272        0.640391        -1.84464
LJ         -0.107273         1.96148         1.20612
LJ            1.8933         2.14191       -0.665267
LJ          -1.38923         -2.0474         1.42904
LJ           2.32107        -2.02892         1.98834
LJ           2.34871        -2.03879       0.0174424
LJ           1.20097        0.353025         1.41268
LJ           2.32915       -0.353261        -2.28841
LJ            1.3228        -0.67934       -0.291135
LJ          -1.92035        -0.99962         1.92058
LJ          -2.09445        -1.48115         1.03583
LJ          -1.67251         2.22608        -1.64924
LJ          -1.92115         1.95404       -0.365099
LJ          -1.67057        -1.35429       0.0675437
LJ          -1.05471       -0.914576        0.891255
LJ         -0.226224         1.19335         -1.5391
LJ          0.678504        -1.47747        -2.14848
LJ          0.915626         1.76644        -1.11302
LJ         -0.673469        0.255205         2.28209
LJ          0.823683        -1.77559        0.719458
LJ          -2.34175         1.56819        -1.27368
LJ          0.750043         1.91773        -2.15014
LJ          0.194866       -0.173272          1.4725
