108
#Comment!
LJ           1.17887       -0.942129        -1.58366
LJ          -1.59422         1.04188        -2.22899
LJ         0.0752988       -0.824583         1.70595
LJ          -1.02504       -0.352902         2.03498
LJ           2.24674       -0.041633        0.957947
LJ          0.828028         -1.1249       -0.609371
LJ          -2.32643        -1.95569        0.553932
LJ          -2.37636        -2.19664         2.05266
LJ          0.621682         1.23922         1.98027
LJ           1.80746         2.12593        -1.96355
LJ          -1.03838         1.48463         1.82807
LJ          -2.34202        0.929474       -0.606973
LJ          -2.34347       -0.722083        0.182867
LJ          0.143778         2.21593        0.231821
LJ          -1.70326        -1.44246         2.31193
LJ          0.586057         0.74455       -0.520622
LJ          0.352903        0.131794         2.21716
LJ           2.13088        -0.99319         2.17878
LJ          0.139101        -1.73167         1.11287
LJ        -0.0757585         1.27598       -0.940826
LJ         -0.759644        0.599175        0.869129
LJ           1.86716       -0.914122         1.23276
LJ          -1.19164         1.10039       -0.110858
LJ           1.56952         1.18749       -0.158496
LJ          0.967747        -1.36707         1.48331
LJ          -2.34471         1.03543         1.91898
LJ          -2.19396         -1.1303        -1.30452
LJ           1.57275         1.17945        -2.16387
LJ          -0.44069       -0.255438         1.08042
LJ           1.68298        -1.35554        0.307219
LJ         -0.389939        -1.09091         0.54411
LJ          -1.71226         2.04987        -2.32747
LJ          0.356455        0.560992          1.3509
LJ          -1.69432       -0.227124        -1.67122
LJ          0.927717         1.95011       -0.401755
LJ          0.978232        -2.05275        0.471258
LJ          0.316135       0.0529415        -1.43701
LJ         -0.342656        -1.62693       -0.361534
LJ          0.294428       -0.277263       -0.430061
LJ          0.298323       -0.861017        -2.04824
LJ          -1.36631        -2.22999          1.5643
LJ           1.79416        -0.95578       -0.672975
LJ           1.06155         1.63737        -1.47282
LJ           1.33062        0.566631         1.58873
LJ           1.11254       -0.488759         1.97406
LJ           1.51555         1.64427         0.95095
LJ         -0.337334         2.29061         1.68397
LJ         -0.629354       -0.244624        -1.82854
LJ          0.109349         -2.3718       -0.964426
LJ         -0.673832        -2.22045        0.737745
LJ           1.22419        0.595502        0.615386
LJ         -0.645381       -0.589752       -0.249427
LJ         -0.925637        -2.09388        -2.31429
LJ          -2.21681         1.65661         0.19945
LJ          -1.97136        -1.45263         1.37151
LJ          0.605008         -1.0894        0.467921
LJ          -1.54658        -1.14358       -0.466188
LJ           1.19406       -0.326266       0.0248868
LJ           1.64988        -2.05791         1.23794
LJ         -0.695151         1.94617       -0.456121
LJ          0.975049       -0.306787        0.985073
LJ           1.15889       -0.162843        -1.01045
LJ          -2.05265        -2.21907        -1.57415
LJ          0.519239          1.4141         0.78825
LJ          -1.40107        -1.56292        0.406188
LJ          -2.18143         -1.9953       -0.599459
LJ            -1.151        -1.97216        -0.94009
LJ          -1.73803        0.266008        0.321624
LJ         -0.420801        0.371918       -0.808787
LJ            1.3839        -1.90912        -0.52082
LJ          -1.47561         1.65545        0.823931
LJ           1.24565        0.168241        -1.91788
LJ          0.311752        0.266854        0.427801
LJ           2.11128        0.014395         1.88543
LJ         -0.471397        0.685872         2.03721
LJ         -0.493973         1.56189         0.96489
LJ          0.396331         0.97462        -1.83121
LJ           1.43453         1.91614         1.91561
LJ           1.79141         2.21434        0.113039
LJ          -1.17315         -1.0935        -1.57548
LJ          -1.90083       -0.604787         1.72659
LJ          -1.36172       -0.607709        0.863204
LJ          -1.62296        0.386843         1.45348
LJ           2.06119        0.412318       0.0920718
LJ          -0.58988        -1.16824        -2.37754
LJ             -0.86        -1.34941         1.38054
LJ          -1.22449         1.85488        -1.48204
LJ          0.589109         2.20543         1.54235
LJ          -1.46562         2.28487         0.10321
LJ         -0.184027        -1.78306        -1.77782
LJ           1.89842         1.89553       -0.887777
LJ          0.883063        -1.86049        -1.37012
LJ           2.14693      -0.0522072        -1.05709
LJ          -1.52445       0.0497934       -0.722747
LJ           -1.4638        0.954907        -1.10843
LJ           -2.2672        0.912083        0.931953
LJ          -2.25517         1.50627        -1.64755
LJ         -0.576905         1.03535        -1.71581
LJ        -0.0460127       -0.986812        -1.08052
LJ           2.28116        0.517321        -1.94614
LJ           1.81945        -1.72443        -1.47854
LJ             -1.88         1.82815       -0.732998
LJ           1.54642        0.733388        -1.04665
LJ          0.644542        -2.36325        -2.19987
LJ         -0.238789         1.93691        -2.13251
LJ         -0.234591         1.19532       0.0602404
LJ          -2.33353         2.00361          1.1145
LJ           1.41987        -1.83873         2.25965
