108
#Comment!
LJ          -1.27099         1.30462           1.728
LJ           1.82293        0.932352       -0.790927
LJ          0.414024       -0.208139          2.0436
LJ          -2.36758        0.193267         2.12594
LJ          0.915823         0.89708         1.15666
LJ          -0.54963         -2.3642       -0.701435
LJ         -0.207754        -2.30365          1.9195
LJ           1.65233        0.887525        0.489745
LJ           1.79686        -1.90347         1.31082
LJ          0.703823         2.18123       -0.328708
LJ          -1.26608         2.29631         1.81694
LJ         -0.371184         1.51488         2.30266
LJ          0.591072        -1.93277        -2.10534
LJ          -1.42374        0.459596        -2.37365
LJ         -0.459702       -0.560561         1.46781
LJ          -2.37094         2.10458         1.84194
LJ        -0.0531239        0.721636       -0.967598
LJ         -0.953442       0.0218454        0.780349
LJ          -2.11151       -0.296096        -1.73199
LJ          -2.18823         1.16923         2.18122
LJ         -0.743785         1.14525        0.875597
LJ           1.00879         2.18966        -1.28019
LJ            2.2472         2.04067        0.842751
LJ           1.65444       -0.170448         -2.0499
LJ          -1.02388       -0.672454       -0.388345
LJ           1.67506         1.76196       0.0514423
LJ         -0.867444        -2.07999        0.914911
LJ           0.82433        -1.01887        0.211856
LJ           -1.5164        -2.32818       -0.237384
LJ          -0.76209        -1.37031         2.03066
LJ          -1.13949       -0.956093        0.853035
LJ           1.48422        -0.14729         1.74026
LJ          -2.04726        0.868015        0.995627
LJ           2.02644         2.05078       -0.903444
LJ           2.31134       -0.792023         1.85305
LJ          -2.10706        -2.33629        -1.98206
LJ          0.146909        -2.29987        0.766681
LJ         -0.416115         0.65184        -1.92625
LJ         -0.692281         0.44742         1.72665
LJ          0.225409        0.717635         1.96003
LJ           1.32019      -0.0439079        0.667757
LJ          0.383915        -1.82843        -1.05497
LJ          -1.42566          1.6611        -2.11162
LJ          0.883966        0.779049       -0.587173
LJ           1.19961          0.2733        -1.28301
LJ           1.71342        -1.89858         -1.5102
LJ            1.3852        -1.84929       -0.570483
LJ          0.134099        -1.73405      -0.0591262
LJ             1.599         1.42284        -1.76702
LJ            2.2527      -0.0635343         1.06418
LJ          -2.02756       -0.784175       -0.842149
LJ           1.46579         1.59544         1.81331
LJ         -0.594622        0.321834      -0.0814308
LJ         0.0751394         1.51267         1.28379
LJ        -0.0357494       -0.829191       -0.558243
LJ         -0.800127        -1.57974      0.00924457
LJ           -2.1391        -1.25884        -1.71888
LJ          -2.12297        -1.69278         2.06682
LJ         -0.500628         2.02551        0.176367
LJ           1.62866       -0.981543        0.787639
LJ          -1.91068       -0.296081        0.118965
LJ          -1.34877        -1.58807        -0.99252
LJ           1.26865        -1.15411         1.76982
LJ          -1.90523        -1.98511         1.10581
LJ          0.240458         -1.1875         2.01001
LJ         -0.267645        -2.34729        -1.64557
LJ          -1.37896       -0.671486          2.2819
LJ          0.408096      -0.0677774      0.00676968
LJ          -1.44301         1.85142        0.759507
LJ          -2.20944         1.25046       0.0697065
LJ           2.35769        0.724051        -1.58804
LJ          0.603422         1.88327         2.31276
LJ         -0.959643         1.30416       -0.399709
LJ          -1.80772        -1.38995       0.0317385
LJ           1.73504        -1.25479        -2.21276
LJ           1.56238        -2.25115         2.27088
LJ         -0.600228       -0.303382        -1.23827
LJ          0.541561         1.09299        -1.82035
LJ         -0.455799       -0.292072        -2.22754
LJ         -0.152038         -1.0917        -1.65889
LJ          0.818168        -2.36255         1.55046
LJ          -2.27232        -1.86494       -0.791858
LJ          -1.31591        -1.74176        -1.90923
LJ          -2.02783        0.413993       -0.705268
LJ           1.83422        0.768035          1.4973
LJ          0.861275       -0.585156       -0.885087
LJ          0.335865      -0.0711581        -1.63025
LJ         -0.752256           1.419        -1.38858
LJ          0.856068         1.81613        0.703897
LJ          -1.45123        0.659491        0.283322
LJ         -0.340258       -0.666828        0.329687
LJ           0.88678       -0.978247         -1.8263
LJ        -0.0709486        0.416242        0.955155
LJ           1.98385        0.203147      -0.0337852
LJ         -0.123313         -1.3879         1.08523
LJ          -2.14122       -0.972745         0.91575
LJ           1.01862        -1.93624        0.532417
LJ           2.03045        -1.81442        0.360721
LJ          0.467484       -0.443763        0.974311
LJ           -1.6347        0.132672         1.51396
LJ         0.0750613         1.19804        0.156931
LJ          -1.25515        0.503298        -1.34855
LJ          -1.49637         2.22981        -1.25824
LJ           1.18716        0.797414         2.26428
LJ           1.80803       -0.926933        -1.22951
LJ          0.155628         1.71984         -0.9365
LJ           1.90202       -0.867734       -0.111939
LJ          -1.94987         1.39953        -0.97444
