108
#Comment!
LJ           1.61765       -0.392721       0.0297422
LJ         -0.941405         1.99948       -0.549914
LJ         -0.814028         2.05726          -1.786
LJ          0.867974        -1.59261         2.23365
LJ           1.86868       -0.131743        -2.07181
LJ          -2.09485        0.292298        -1.39144
LJ          -2.13199        -2.34704         1.86244
LJ          -1.60869        0.753767        0.585767
LJ           1.52741       -0.839531         2.06619
LJ          0.962637        -2.28386        -1.80621
LJ          -1.04462         1.03123       -0.262563
LJ          0.188935         0.94979        0.621344
LJ           1.87205        0.945262        0.323795
LJ          0.521978         -1.8412        0.153628
LJ            -1.024         1.13222         1.44724
LJ           1.81862       -0.864541        0.977406
LJ          -1.67102         1.92002        0.261924
LJ           0.86574        0.171799       -0.944904
LJ        0.00555658        0.742372       -0.344083
LJ         -0.976417        -1.05402       -0.459028
LJ         -0.806198       -0.583618        -1.56728
LJ          -1.96003         1.53643         1.29322
LJ           1.89422          1.6783         1.72908
LJ          0.277899        0.618566         1.51957
LJ          -1.50803        -1.26702        -2.26832
LJ          0.981193         1.24174       -0.978935
LJ          -2.06322      -0.0167587       -0.307728
LJ          -1.00268       0.0409748       -0.809479
LJ           1.32811        -1.63807        0.706078
LJ            -1.862        -2.24544        -1.83829
LJ          0.813227       -0.896397        0.273889
LJ        -0.0382492       -0.216584       -0.865505
LJ           1.06417         2.05171       -0.475469
LJ          -2.26739        -1.02414       -0.231843
LJ          -2.25546         1.67791        -2.20851
LJ           1.20522         0.61057        -1.73863
LJ           2.08702        0.104904        0.874827
LJ         0.0361156          1.6884       -0.658445
LJ         -0.839162        0.369436        -1.74946
LJ         -0.825232        -1.95579        -2.36323
LJ          0.143737       -0.108212        0.804588
LJ          -1.16148        -1.82214        -1.16442
LJ         -0.438469        -2.03542       0.0451304
LJ           2.31246       -0.273822         1.81414
LJ         -0.629322       -0.143017        0.127352
LJ           2.16006        0.780148         2.30733
LJ           1.28768         1.03303         1.22269
LJ          -2.20358        -1.76932        -1.09955
LJ         -0.802326        0.238994         1.01881
LJ           0.17504       -0.944897        -1.48975
LJ         -0.375458        -0.90761        -2.37388
LJ          0.283968       -0.402855         1.82224
LJ           -0.4716        0.162009         2.11009
LJ          -1.98795          2.0439       -0.884369
LJ           1.87379         1.45743       -0.536133
LJ         -0.433483        -2.15968         1.30782
LJ        -0.0259642        0.852605        -1.31613
LJ          -1.67936       -0.128487        -2.36958
LJ           1.27584        0.205944         1.85473
LJ           0.84208       -0.742429       -0.676208
LJ           1.56395         1.69626        -1.79235
LJ          0.637984       0.0321751      0.00755543
LJ           1.73547       -0.563307       -0.966094
LJ           1.44475        -1.58738       -0.531194
LJ           1.31502         1.82263        0.495978
LJ           1.93309        -2.18557        -2.18817
LJ            -2.035        0.564819         1.51745
LJ          0.904528         1.81275         1.88378
LJ          -1.42977        0.964104         2.35965
LJ          -1.10522        -1.45208          1.5816
LJ          0.999548        0.974056    -0.000671773
LJ           2.18044        -1.16854        -2.03254
LJ          0.623518        -1.82136        -1.03367
LJ          -1.91336        -0.80146        -1.38274
LJ          0.649435        -1.25169          1.3453
LJ           2.16908         2.18073        0.897776
LJ         -0.326169        -2.18344        -1.12496
LJ          -2.18128        -1.45173        0.687864
LJ          -1.21585         2.04049         1.84785
LJ        -0.0346229        -1.24901       -0.504438
LJ          -1.25012         1.11589        -1.28134
LJ            1.8749         0.42754       -0.720495
LJ          0.547595        0.994923         -2.3661
LJ          0.102292         2.30558         2.06849
LJ            0.2927         1.87958        0.277273
LJ         -0.471235         1.11564        -2.37971
LJ          -0.11692         1.47375         1.46758
LJ          -2.36329         1.24414        -1.34726
LJ          -1.48705       -0.374213         1.45086
LJ          -2.16341        -1.25356         1.74209
LJ          -1.12878         -1.4561        0.517742
LJ           1.08471        -0.19398        0.939333
LJ          0.937874       -0.523787        -1.94325
LJ          0.150958       0.0213308        -1.89873
LJ            1.6478          -1.948         1.61917
LJ          -1.95658       -0.489281        0.552001
LJ          -2.05748        0.935406       -0.360465
LJ          -1.60866        -2.15485         1.06515
LJ          -1.60464        -1.96871        -0.26506
LJ         -0.108551        -1.17706        0.454935
LJ         -0.655122         1.63436        0.503157
LJ           1.34906        -1.39503        -1.57137
LJ           1.74542        -2.37699        -1.11142
LJ         0.0578868        -1.78989        -1.97487
LJ          0.602828        -2.29624         1.09927
LJ           1.98085        -2.32445       -0.115579
LJ          0.406453          1.6952        -1.63378
LJ         -0.590923        -0.73361         1.20224
