108
#Comment!
LJ         -0.558247         1.62604       -0.172355
LJ         -0.161299        -0.47043        0.757662
LJ         -0.635066         1.63921        0.962471
LJ          0.479143         1.69785       -0.954891
LJ           1.68849         -1.2722        0.252517
LJ          -1.61987        -2.06183        -1.04158
LJ           1.90107        -2.02234         1.24889
LJ           1.13098        0.274529       -0.929312
LJ           0.72595        0.457214        0.226566
LJ         -0.101212        0.770486       -0.268234
LJ           2.07476        0.822628        -1.46548
LJ            1.9116        0.502227       -0.319078
LJ         -0.848964        -1.69884        -1.76378
LJ          -1.70578       -0.363796        0.979221
LJ          -1.77856        -1.35841         -1.9482
LJ          -1.07859       -0.218659        -2.37229
LJ          0.575254         1.41385       0.0984106
LJ          -2.13647        0.368994         1.79809
LJ         -0.928646         1.30692        -1.93395
LJ             1.245        -1.50324         1.96248
LJ           1.87433        -2.07503        -1.66474
LJ         -0.646938        -1.21184         2.01635
LJ          0.107845         -1.3532        -2.02618
LJ           0.63449       -0.516333        -1.40449
LJ         -0.227598         1.00167          1.6071
LJ         -0.927902        0.429493        -1.62992
LJ           1.06522         2.33581        0.162491
LJ        -0.0719571       -0.409799        -2.31385
LJ          -1.49991        0.654783         1.06294
LJ          -1.95662        0.430039        0.195037
LJ          0.936316        -1.65324        0.788407
LJ           1.07571         1.07266        0.957911
LJ           2.28315         1.81924        -1.34902
LJ          -1.21491        -1.09686       -0.722597
LJ          -1.16561        0.916758        0.176414
LJ           2.22253        -1.73413         2.09107
LJ           1.38891        0.173637         1.45996
LJ          0.172959        -2.32181       -0.403738
LJ          0.879549         1.40906           1.934
LJ          -1.89009        0.350348        -2.02404
LJ         -0.694305        -1.99531       -0.147682
LJ       0.000901019         1.60985         -1.9409
LJ           1.86424        0.775146         2.35964
LJ           1.35373         1.26134       -0.795305
LJ          -1.96364        -2.30787        -2.10127
LJ          0.199937        -1.68673         1.82517
LJ          -2.24163       -0.110155       -0.770811
LJ            1.7534         1.53135         1.44788
LJ          0.200168        0.374052        -1.28546
LJ          -1.16506        0.745029         2.03279
LJ          -1.08755         1.84334         1.81231
LJ          0.857689       -0.572803        0.439114
LJ         -0.598534       -0.666897        -1.43232
LJ          0.193058         2.19476        0.649865
LJ          0.664782        -1.46687       -0.141697
LJ         -0.102768         -1.5637        0.667997
LJ           2.03998       -0.110228         -1.5936
LJ          0.403869       -0.290672        -0.39671
LJ          -1.42084        0.444171       -0.729832
LJ           -2.2534         -1.0174        -1.13282
LJ            1.0503        -1.59149        -1.71661
LJ           -1.6131       -0.393348        -1.50438
LJ           1.11841        -2.30999       -0.960229
LJ          -1.95065         1.53306        0.863966
LJ         -0.360417        -2.27957        -2.32553
LJ          -2.14658         1.13496       -0.521208
LJ          -1.41495        -1.85266          1.8539
LJ          0.638321       -0.889554         1.38181
LJ           2.13348        0.744417         1.02646
LJ         -0.445208         1.31542        -1.07636
LJ           1.96335       -0.101154        0.607548
LJ         -0.145956        0.591872         0.74541
LJ           2.22816        -2.25738        0.317054
LJ           1.95179        -1.11038        -1.92949
LJ           1.26153         1.41653        -1.76978
LJ           1.63371       -0.800195         1.43609
LJ         -0.612262        -2.10693         1.44183
LJ          0.117355         1.96662          1.8125
LJ         -0.368031         -0.9359       -0.120098
LJ           2.00272         1.37865        0.271371
LJ             2.162        -1.85675       -0.726535
LJ           -2.0078         1.26294         2.22288
LJ          -1.54187         1.82305      -0.0537408
LJ         -0.152649        0.579496        -2.23749
LJ          -1.46792         1.68111        -1.01446
LJ          0.977416         2.31219         1.39855
LJ          -1.02744       -0.172228        0.209019
LJ        -0.0702037        -1.34609       -0.980309
LJ           1.40119        -1.16887       -0.875989
LJ          0.298068        -2.23669        -1.56575
LJ         -0.652703         2.29056        -1.10341
LJ          0.895359        0.570128         -2.2413
LJ           1.53205       -0.384291       -0.289207
LJ           -2.3036        -1.24628        0.908412
LJ          -1.76437       -0.769822       0.0202812
LJ          -2.16553         2.11768         1.59743
LJ         -0.537002     -0.00713196        -0.67003
LJ           -1.6033        -2.08953        0.894727
LJ         -0.656718        0.144849          1.4396
LJ           1.96726         1.91618        -2.34661
LJ           2.15513       -0.394211         2.18483
LJ           1.96171         2.01615       -0.466451
LJ           1.04744       -0.645679        -2.31836
LJ          0.295373        0.136529         1.69555
LJ          -1.63736       -0.891788         1.88987
LJ          0.907548         2.36509        -2.37747
LJ         -0.956475        -1.07465         1.06255
LJ          -1.71278        -1.76455       -0.103469
