108
#Comment!
LJ           1.47746         0.38922       -0.202992
LJ           1.14402       -0.383764         2.29396
LJ           -0.9614        -2.23408        -1.41015
LJ          0.891092         -1.7337        -1.28668
LJ           2.04393       -0.581646       -0.576939
LJ          -1.51614        0.774237         -1.2447
LJ          -1.22904        0.100262        0.236682
LJ          -1.85144       -0.920671       -0.159736
LJ           1.23337        -1.32617       0.0806963
LJ          -1.00086        -1.27133       -0.701033
LJ          0.630663         1.91626       0.0239592
LJ         -0.309332        -1.53919        0.660851
LJ           2.12832         1.98921         1.09729
LJ          -0.91258       -0.240162       -0.669595
LJ         -0.735404         1.04372       0.0906452
LJ           1.19599       -0.714181        0.906125
LJ           1.81326         1.02641         1.34357
LJ           2.21548       -0.258906        -1.64578
LJ          0.439625         1.02554        -0.32363
LJ           -1.8585           -1.88       -0.997893
LJ          -1.44983        0.162037        -2.27446
LJ           2.29728        -1.19889        -1.50688
LJ          -1.28306        0.195211         1.46468
LJ           1.25496        0.237781         -1.4045
LJ          -2.01896       -0.881115        -2.33052
LJ          -1.47489         2.11225        0.718645
LJ           1.57714        -1.61708        0.997815
LJ          0.369484         1.78463        -1.15396
LJ          -2.26885         2.22673       -0.307637
LJ           2.30974         1.54901         2.28074
LJ            0.6633        -1.91343        0.895799
LJ         -0.647006        0.379257        -1.73669
LJ           2.23297        -2.22147         1.97437
LJ           1.05686       -0.538988        -0.53052
LJ          -1.46556         1.19598        -2.25219
LJ         -0.218438        0.541318         1.06459
LJ          -1.55058       -0.842738        0.767143
LJ           1.23706         1.12424       -0.933784
LJ           1.92593        -2.13101        -1.49381
LJ          -1.07161        -1.88909         1.30699
LJ          -2.15117       -0.340731         1.40768
LJ          0.533698        -1.22651        -2.13266
LJ          -1.34621         2.16037       -0.486934
LJ           1.40522       -0.741347        -1.42604
LJ          0.641408         1.07136         1.27735
LJ           1.18234         1.57395         1.94684
LJ           1.26356         0.28646         1.53357
LJ           1.88467       0.0324817        0.667211
LJ          0.280513       -0.289987        -1.84946
LJ          0.291047        -2.11606       -0.598129
LJ        0.00528365       -0.720279          -0.746
LJ          0.424673       -0.194535          1.3983
LJ         -0.484063       -0.413191        0.944781
LJ          -1.68794         1.84391        -1.34523
LJ           2.33998        0.734772       -0.781579
LJ          -1.15821        -1.76347        0.152421
LJ         -0.453248        -1.25691        -2.24442
LJ           1.84039       -0.858119         1.61908
LJ           2.13757       0.0382067         2.21063
LJ          0.398709         0.14621       -0.866803
LJ           2.33019        0.784055        -1.82357
LJ          0.265265       -0.861013        0.227702
LJ           2.23176       -0.879304        0.600597
LJ           1.22307         2.12168       -0.755718
LJ           1.19113           1.934         0.98079
LJ           2.09279         1.68462        -1.21902
LJ         -0.451436         2.24839        0.532144
LJ          0.922032         -2.1856         1.88735
LJ          -1.07572         1.22806         1.05941
LJ          -1.11422        -2.11443         2.31401
LJ           2.12631         1.25117       0.0498868
LJ           1.54303        -1.41594        -2.23729
LJ         -0.543386         1.61144        -1.82964
LJ         -0.651647        -0.58931        -1.57442
LJ         0.0080777        -1.11668         1.52975
LJ           1.45301        0.767218        -2.32053
LJ          0.340513        0.868408        -1.62029
LJ          0.971943        -1.22345         1.70725
LJ          -1.28363       -0.788423         1.76895
LJ           1.08222         1.10919        0.417208
LJ         -0.548074        0.795795         2.08613
LJ          -2.03429        0.778611         1.78023
LJ          0.488038         0.42145         2.21644
LJ         -0.706553          1.8049         1.89675
LJ         -0.389312         1.80005       -0.465156
LJ           0.21991         1.57722         2.28983
LJ         0.0497198         1.36689        0.608918
LJ         -0.439586       -0.232545         1.91096
LJ           1.68736        -2.28168        0.299226
LJ          -1.79649         1.77947         1.63446
LJ         -0.171788        0.209342      -0.0238341
LJ          -2.21596        -1.95228        0.654896
LJ         -0.229039        -1.58539        -1.32423
LJ         -0.103633        -2.07498          1.8945
LJ          0.221696         2.01081         1.26131
LJ          0.776114        0.121789        0.552053
LJ          -1.99541        0.914285        0.744209
LJ         -0.598066        0.965042       -0.920754
LJ          -2.20108        0.125442      -0.0279419
LJ          -0.72517       -0.844162        0.133597
LJ          -1.66735         1.27101       -0.103594
LJ          -1.32738        -1.33166        -1.65266
LJ           2.03835        -1.57965       -0.542185
LJ          -2.02304        -1.99104        -1.96258
LJ          0.245624        -2.30285        -1.97345
LJ          -2.08077        -1.41599         1.49463
LJ           1.21841         1.74634        -1.80987
LJ          -1.70307       -0.371649        -1.25859
