108
#Comment!
LJ          0.436263        -1.33038         1.80308
LJ         -0.167085          2.1795        -0.17787
LJ           1.21959        -2.05711          1.6914
LJ          0.343981        0.317714        -1.57787
LJ          -0.85226       -0.610414        0.783603
LJ           1.88016         1.99229         1.97714
LJ         -0.434503        -1.32783         1.32681
LJ          -1.93752         1.91792         -1.4477
LJ          -1.31289        0.744715       -0.409543
LJ          -1.00019        -1.62651        0.030258
LJ           2.13546        0.284501         0.71561
LJ           1.48972       -0.358259        0.272963
LJ         -0.763208        -2.06645          1.9435
LJ         -0.548858        0.628146         1.07834
LJ          -1.27695         1.33215        0.556169
LJ          -1.02697         2.24731        -1.93059
LJ           0.65361         1.86882        0.249622
LJ           2.36354         1.31313        -2.06694
LJ           2.05812       0.0473143        -1.85239
LJ           1.02584        -2.11322        0.686682
LJ           1.72033        -1.07518         2.07227
LJ          -1.75959         1.02478         1.68379
LJ          -1.41086        -1.50416        -2.34082
LJ          0.762262         1.29648        -1.51816
LJ          0.671357        -1.92763        -0.39138
LJ        -0.0569337         1.79817        -1.11998
LJ           1.52063        0.653802        -1.24252
LJ           1.98695        -2.05242        -2.14219
LJ           1.21252        -0.14978       -0.639296
LJ           1.90067       -0.985197       -0.746917
LJ           2.01933        -2.03856        0.937018
LJ          0.653012         1.53851         2.07294
LJ         -0.383075        0.724581       -0.786541
LJ          0.943511        -1.14955        0.173862
LJ         -0.897693         1.70258          1.3885
LJ          -0.66472       -0.938146          2.2271
LJ          -0.20286       -0.465377        -1.16197
LJ          -1.99221         2.37336        0.387285
LJ           1.86623          1.1639          1.4336
LJ           1.18881       -0.646326        -1.71103
LJ           2.08968        -1.30963          0.2573
LJ          0.193235       -0.711492        0.860711
LJ            1.0616        0.720798         1.71393
LJ        -0.0504871         -2.3235         1.12846
LJ          -1.85955        -1.71265       -0.409418
LJ         -0.964692       -0.577885       -0.308671
LJ          -0.64541        -1.45323        -1.66239
LJ         -0.888141         2.32897        0.646694
LJ          -1.05548       0.0357234        -1.03019
LJ            1.1109       -0.290362         2.15518
LJ         -0.112305         1.11824        0.334959
LJ          -1.74758        -1.18916        0.688091
LJ          0.330216        -1.99704        -1.44173
LJ          -0.37962      -0.0738806        -2.18719
LJ          -2.17475       0.0675292        -0.82152
LJ           1.70628         1.63098        -1.27405
LJ          -1.08634         1.49078        -1.06302
LJ           1.27885      -0.0546526          1.2227
LJ          -1.38843        0.371187        0.531979
LJ          -1.42393       -0.838406         1.60175
LJ         -0.465698         0.21095       0.0562429
LJ            2.2319         1.57594        0.435586
LJ          -2.00016        -1.79251        -1.59537
LJ           1.50291         1.35967       -0.339163
LJ          -1.91552        0.894323        -1.30884
LJ          0.198332        0.641033         2.23655
LJ          -2.03139       -0.457142       0.0916104
LJ           1.12699        -1.14138         1.13108
LJ             2.118       -0.675302         1.14139
LJ         -0.410376        -1.37355       -0.681522
LJ          -1.91758         2.09397         2.21614
LJ          0.589529         0.19812       0.0934225
LJ          0.832403         1.92323       -0.731577
LJ          -1.25427         1.21371        -2.02777
LJ           1.94141        0.176823         1.93298
LJ          -1.96329       0.0702688         1.40572
LJ          0.682268        0.828288       -0.648877
LJ          -1.13837        -2.06972       -0.988065
LJ           2.22596        -0.98169        -1.68818
LJ          -1.48641        -1.99515         1.22794
LJ            1.1124         2.15982         -1.9253
LJ         -0.769018        0.865281         2.02825
LJ         -0.106864        -1.62313        0.453344
LJ          -2.19313         1.94991         1.31951
LJ          -1.26159         2.03256       -0.232854
LJ         -0.319303         1.77118         2.37296
LJ          -1.50036        0.187057          2.2639
LJ            0.6597        -1.01415        -0.93809
LJ           1.10822        -1.68081        -2.01702
LJ          0.364832        -2.19624          2.1995
LJ           1.07658         1.68354         1.13165
LJ          -2.31727         1.79917       -0.556584
LJ            -1.757       -0.900894       -0.960874
LJ          0.286772        -0.88352        -1.95363
LJ           1.27507        0.820633        0.458302
LJ           0.14642       -0.681137       -0.131507
LJ          0.104003         1.47436         1.25069
LJ         -0.308762         1.05172        -1.71853
LJ          -2.16746       -0.663656          2.2291
LJ          0.238449       -0.205464         1.72247
LJ          -1.33398       -0.561924        -1.86082
LJ           2.30872        0.748339       -0.201091
LJ          0.434883        0.594593          1.0069
LJ         -0.801143       -0.110314         1.69446
LJ          -2.24799        -1.56524          1.7681
LJ           1.42785         1.10386        -2.25186
LJ           1.76905        -2.23033      -0.0538057
LJ           1.47013        -2.12913        -1.08303
