108
#Comment!
LJ          -2.10645         1.51042         2.17118
LJ          -1.08455         1.57925         1.95895
LJ           2.07099       -0.217724          1.3929
LJ           1.88555       -0.234452        0.352915
LJ          -2.28898        -1.85398       -0.387794
LJ          0.641471         2.32278        0.177821
LJ           1.83292         0.16494        -1.89506
LJ           -1.2444        -2.17093         1.55476
LJ         -0.955146         1.49349        0.980693
LJ           1.97588        -2.03573        -1.22849
LJ          0.645647         1.62968         2.14072
LJ         -0.932944        -2.14741        -2.14319
LJ           1.93695        0.602924        0.836045
LJ          -1.67147          1.1869       -0.787178
LJ          -2.16802          1.6394       -0.171922
LJ         0.0383843       -0.262252        0.905362
LJ            1.6627         2.28073       -0.221026
LJ          -1.57226         2.21312        0.395111
LJ          -2.37972       -0.456608         2.31961
LJ           2.31441         1.23605        -1.73559
LJ          0.425176        -1.52721       -0.322888
LJ         -0.469551        0.621075        -1.98062
LJ          -2.37725        -2.12884         1.95693
LJ           1.15092        0.736958        -1.01878
LJ          -1.80367        -1.57774        0.874232
LJ          -2.04359        0.547841        0.180829
LJ           1.80917         1.59199        0.546166
LJ         -0.934299       -0.579508        0.987848
LJ           1.93138         -1.5532        -2.11731
LJ           1.06697         1.47604       -0.235397
LJ          -1.06247         1.39604      -0.0388509
LJ           0.74109          1.4195        0.731147
LJ         -0.659937         0.77152         1.66429
LJ           1.38275        -2.07504        0.907069
LJ           1.00833       -0.084328         1.11876
LJ          -0.56837        -1.29002         1.56331
LJ          0.589195         2.35808         1.41012
LJ          0.675719        -0.55425       -0.747892
LJ           2.02876         -1.2459        0.615027
LJ          0.366811       -0.796288         1.64688
LJ           1.16488       -0.934595        -2.16352
LJ           1.03353         -2.0396       -0.963926
LJ          -1.41878         1.21119        -1.91339
LJ           -0.7343         1.17315        -1.16525
LJ          0.954294      -0.0958289        -1.55127
LJ          -1.30943        0.292001        -1.55417
LJ           1.50496        -1.08678       -0.983532
LJ           1.58475       -0.171171       -0.721603
LJ         -0.259157         1.53717         -2.2132
LJ          0.465978        0.933059        -1.95861
LJ          -2.01399         2.01351         1.27003
LJ          0.307387         0.36488         1.67942
LJ          -1.38818        0.287298         2.22138
LJ         -0.333609        -1.26008        -2.06368
LJ          -1.32832         -1.5138       -0.140769
LJ           1.86153         1.54298       -0.843568
LJ           1.75692         2.00119        -2.24052
LJ          0.501021        -1.60577        0.765308
LJ           1.09542      -0.0291267         2.14967
LJ         -0.648873       -0.368698         2.00464
LJ           1.31984        -2.00153         2.02301
LJ         -0.774469        0.406839       -0.500329
LJ           2.25691        0.581382        -1.00868
LJ           1.41517         -1.5355      -0.0595957
LJ           2.10695        0.750026         1.82339
LJ          -1.43307        -0.78165       -0.997202
LJ           -1.4422       -0.592381        -2.01923
LJ         0.0589815        0.710187        0.612515
LJ          -1.45423         2.18585       -0.821994
LJ          -1.71573        -1.60291        -1.65742
LJ         -0.738008        -2.25594        -0.12596
LJ            1.7777        0.660043       -0.151869
LJ          -1.69874       0.0756708        -0.69197
LJ          0.539131        -1.28049        -1.40314
LJ           1.15325        0.947357         1.55798
LJ          0.378366        -1.70705         2.15554
LJ           1.37479         1.01694        -2.21873
LJ           2.27905       -0.887153       -0.334405
LJ          -2.36111       -0.826846        -1.45779
LJ           1.30095        -1.12893         1.37685
LJ          0.897417       -0.726188        0.371219
LJ       -0.00409623         1.50931         1.37325
LJ          -0.62615       -0.389684        -1.41375
LJ          0.931907        0.354946         0.22281
LJ          0.988219         1.64643        -1.26553
LJ          0.653917        -2.34816        -1.88847
LJ        0.00449169         1.90705       -0.926153
LJ          -1.86041         2.13299         -1.7919
LJ          -0.27692        -1.07084        0.421394
LJ          0.031416      -0.0533702       -0.133824
LJ           2.30827        -1.16953         1.56453
LJ           0.21372         1.00334       -0.482128
LJ         -0.124944         1.62987        0.212557
LJ         -0.507088        -1.09258        -0.60009
LJ         -0.777259        -1.96107        -1.20085
LJ           1.46899         1.83961         1.42731
LJ           2.30006        -2.27944        0.519091
LJ         -0.229386         2.30587        0.872469
LJ         -0.261635         2.32565         1.89619
LJ         -0.971613       -0.501435    -0.000485362
LJ          -1.55687        -1.33311         2.01883
LJ          0.151533       -0.381034        -2.05813
LJ          -1.86074        -0.65501        0.415772
LJ         -0.900965        -1.69709         0.72375
LJ          0.125328        0.276452         -1.1574
LJ          -1.88074        0.724189         1.16665
LJ          -1.67117       -0.352198         1.56657
LJ          -0.97471        0.537547        0.456422
