108
#Comment!
LJ          -1.00713         2.25451         1.49534
LJ            1.5807        0.622509        -1.13631
LJ          0.431926       -0.303799        -2.34686
LJ          -2.22562        0.426559         2.23756
LJ          0.652001        0.298729         1.46858
LJ          -1.26677         -2.3201       -0.571114
LJ       -0.00531281         2.26346         1.69932
LJ           2.16974         1.34812        0.121704
LJ           2.17362        -1.17982         1.87625
LJ          0.199038         1.41596        0.219828
LJ          -1.31528        -2.02631        -1.88428
LJ         -0.610064         1.73966         2.25774
LJ           0.77666        -2.19236          2.1645
LJ          -1.46543        0.599672        -1.21116
LJ          -1.09055        -0.39182          1.1665
LJ          -1.93933        -1.94967         1.71144
LJ          0.577564         1.08249       -0.566376
LJ          -0.87408        0.487542        0.489385
LJ          -2.03907       -0.168109        -1.35437
LJ          -1.53307         1.60704         2.10275
LJ          -1.03781         1.34335         1.16414
LJ          0.606262         1.96045        -1.24846
LJ           1.88934         1.87554          1.1934
LJ           1.49559       -0.135923        -1.93213
LJ         -0.686387       -0.720638       -0.114635
LJ           1.45922         1.53849       -0.557386
LJ         -0.296953        -2.27156        0.756394
LJ         -0.109002        -1.22481        0.615054
LJ           -2.1785        -2.34729      -0.0453767
LJ         -0.484054        -1.66675            2.09
LJ          -1.89519        -1.39737         0.84567
LJ           1.60424       -0.343754          1.6832
LJ          -2.09637          1.1826         1.02252
LJ           1.58596        -2.06416       -0.780048
LJ          -2.18361       -0.208155         1.42106
LJ          -2.34867        -1.84864        -2.12595
LJ          0.628063        -2.37467      -0.0513727
LJ         -0.329996        0.594041        -1.30272
LJ          -0.98051        0.903931        -2.11901
LJ        -0.0259902        0.916943         2.20599
LJ           1.47647       0.0287224         0.63652
LJ          0.581599        -1.83419       -0.934832
LJ          -1.94895         1.94963        -1.74373
LJ           1.51749        0.632277       -0.117553
LJ          0.786244      -0.0433465       -0.612467
LJ           1.39646        -2.25676        -1.85255
LJ           1.39467        -1.09534       -0.376033
LJ         -0.285016        -1.78877       -0.215664
LJ           1.28677         1.29437          -1.781
LJ           1.94902        0.588957         1.36826
LJ          -1.54371        -1.06662       -0.518531
LJ           1.14116         1.66225         1.77433
LJ         -0.242293        0.132011       -0.479897
LJ          0.148853         1.08378          1.1912
LJ          0.224532       -0.871595       -0.563549
LJ         -0.992211        -1.52096          1.2741
LJ          -1.84258        -1.14928        -1.63096
LJ           -1.5671        -1.00681         2.01295
LJ          -1.00504         1.98812        0.220623
LJ           1.86476       -0.925745        0.667908
LJ          -1.63699       -0.535359        0.383712
LJ         -0.584165        -1.49572        -1.12849
LJ           1.30615        -1.42208         1.35818
LJ            2.0287        -1.86103        0.748446
LJ         -0.321759       -0.749243         1.81006
LJ         -0.114287        -2.23547        -1.86444
LJ          -1.48639       -0.083845        -2.25578
LJ          0.759468       -0.516965        0.279336
LJ           -1.7925          2.2196         0.86691
LJ           1.93307         1.81757        -1.35917
LJ           -2.3144         1.01321        -1.68875
LJ          0.537245         1.70734        -2.19391
LJ         -0.586937         1.18131        -0.43978
LJ          -1.10518        -1.46622        0.290536
LJ          -2.36927       -0.500544        -2.20897
LJ           1.74237        -2.15173         1.88488
LJ         -0.988661        -0.58548        -1.14905
LJ          0.751587        0.468139        -1.77825
LJ         -0.507768      0.00522062        -2.21775
LJ          0.149836        -1.18823        -2.05804
LJ             0.848          2.3122        0.963802
LJ           2.36401        -1.36366       -0.149641
LJ         -0.940874        -1.04586        -1.99581
LJ          -2.25676         0.70181       -0.634168
LJ           2.22958         1.71043         2.20729
LJ           1.04372         -0.8421        -1.40656
LJ         0.0747542       -0.297688        -1.40636
LJ         -0.603737         1.55689        -1.38126
LJ           1.16008         1.39154        0.720847
LJ           -1.6163         1.21905        0.108908
LJ         -0.175631       -0.209676        0.599682
LJ           1.27598        -1.27903        -2.33233
LJ         -0.487666        0.301309         1.48243
LJ          -1.97959        0.355087        0.543301
LJ          0.325648          -1.669         1.35163
LJ           2.36093       -0.200549       -0.155046
LJ           1.14855        -1.63857         0.42254
LJ           1.63975         2.24859        0.245821
LJ          0.514043       -0.716608         1.27366
LJ          -1.48117        0.483861         1.58627
LJ          0.591919        0.538347        0.251836
LJ          -1.34024        0.137842       -0.322337
LJ          -2.19061        -2.11461        -1.06302
LJ           1.28483        0.722953         2.15437
LJ           2.00586        -1.31716        -1.30496
LJ         -0.171065         2.06534       -0.623166
LJ           1.78239       -0.362266        -1.00262
LJ           -1.7558         1.58595       -0.876894
