108
#Comment!
LJ           2.15776        0.536509        0.335953
LJ          -1.63354        -1.78454        -1.72911
LJ           -1.6305         1.06364        -1.40652
LJ          -2.26081          1.7916        -1.04786
LJ          -1.43618       -0.181639        -1.91695
LJ          -2.26723        -1.68728         2.18461
LJ         -0.646745         2.24887        -1.36658
LJ         -0.567962         1.69923         2.37689
LJ           1.21833      -0.0060201        -1.00606
LJ          0.991696        0.901294        -1.57183
LJ          0.571641         -1.5373        -1.67351
LJ         0.0675301         1.00119        -2.36048
LJ           2.00162        -1.43886        -1.20059
LJ          -1.92712         1.11039       -0.308551
LJ         -0.985584        0.805889        -2.09748
LJ           -1.6888        0.298592         0.28241
LJ           1.32114       -0.549788        0.685985
LJ          -1.53733        0.543311         1.21902
LJ           2.16096       -0.548609       -0.775176
LJ           1.53145        -1.37216        -2.10896
LJ           1.41571       -0.438281         -1.8937
LJ          -2.13493         1.24619        0.855266
LJ           1.78593         1.95738        0.909827
LJ         -0.266827        -2.16898        -2.12875
LJ           2.02724        -1.02429         1.07819
LJ          -1.01364        -1.96948         1.95843
LJ          0.195686         2.12507       -0.457213
LJ           0.83943         1.79175         1.19359
LJ            -2.315       -0.827335        -1.88572
LJ           0.53652        0.805756         1.33286
LJ          -2.28749       -0.434505        0.191076
LJ        -0.0395166        -1.57283       -0.820602
LJ         -0.776759        -1.56638        0.882102
LJ          -2.26662        -1.66895        0.356485
LJ           1.08102        -2.35279        -1.86788
LJ          0.444177       -0.433998        -1.54237
LJ          -1.10549         1.63289        0.664825
LJ          -0.49202         2.34669        0.198333
LJ           2.19138        -2.26888        -1.70087
LJ          -1.32667         1.82236       -0.622678
LJ          0.807199        -2.04471       -0.898738
LJ         -0.976403         1.03274      -0.0878964
LJ           1.05596         1.81552        0.202781
LJ           1.01849       -0.179005         1.63777
LJ          -1.71915        -1.56598         1.31597
LJ          0.551956        0.444825        0.384864
LJ           2.08305          1.2019         1.72607
LJ          0.279438         1.76209        -1.59166
LJ         -0.397568         1.12465         1.56277
LJ           1.91322       -0.770504         2.04654
LJ         -0.899984        0.326444         -1.2011
LJ            1.9576         1.38332      -0.0872621
LJ           1.22183        0.950347       -0.456087
LJ         -0.515528        0.518396        0.762742
LJ          -2.09288       -0.205239         1.82786
LJ         0.0924871        0.492215        -1.42106
LJ          0.999638        -1.03849       -0.953105
LJ          -1.64535          -1.039       -0.154205
LJ            -2.118        0.860553        -2.30795
LJ           1.98139       0.0100108         1.15912
LJ           1.14068         1.35597         2.27848
LJ          0.117069         1.46562        0.411085
LJ           1.32738        0.924545         0.74966
LJ           1.56562        -2.03409        0.418535
LJ          -1.51811       -0.765354        -1.07409
LJ           1.20832        -1.30626         1.66467
LJ            2.1146        0.813173       -0.945116
LJ          0.322497        -2.07239          0.6728
LJ           1.56403        0.489725         2.05195
LJ          -2.06917        -1.90474       -0.646915
LJ         -0.711637        -1.38661       -0.090138
LJ         -0.320697         2.04911         1.17877
LJ          -1.38477        -2.06964        0.206138
LJ          -1.87974         2.14679          1.1946
LJ          -1.51175       -0.990477          2.2805
LJ        -0.0183227      -0.0132532         1.65997
LJ           1.13724         1.75512        -1.08684
LJ           2.22497        0.139864        -1.73504
LJ           1.83993         1.37804        -1.72464
LJ         -0.412854       -0.240092        -2.04617
LJ          -1.02405        -1.59723        -0.96237
LJ           1.76379        -2.20111       -0.538033
LJ         -0.339109       -0.632867       -0.989637
LJ          -1.34351         1.44901         1.85369
LJ          0.749926        -1.49463       0.0464163
LJ          -2.19445         2.04315        0.224638
LJ         -0.624622         1.30665        -1.32964
LJ         -0.748568        -1.30627        -1.81306
LJ          -1.06069      -0.0491978         1.87977
LJ         -0.613078       -0.589445        0.951647
LJ           1.71076         -1.2452       -0.192331
LJ          -1.86138        0.166598       -0.810173
LJ           2.16534        -1.95143         1.28258
LJ          0.358016       -0.753853         2.25502
LJ            1.3625        -2.35769         1.72097
LJ          0.464684       -0.912249         1.21235
LJ          0.312272         1.97899         2.01367
LJ        -0.0185982         1.06482       -0.539394
LJ          0.789968       -0.378719       -0.172735
LJ         -0.993668       -0.359392       0.0556284
LJ         -0.230469        0.113754        -0.41996
LJ         -0.493666        -1.14282         1.91927
LJ          -1.61413         1.99028        -1.78367
LJ          0.720141        0.271617        -2.31414
LJ          0.337504        -1.78458          1.7471
LJ          -2.23443         2.01093         2.14029
LJ           -1.6343       -0.692763        0.887332
LJ         -0.044227       -0.703509        0.169362
