108
#Comment!
LJ         -0.605492        0.534517      -0.0642204
LJ           -1.2332          1.0972        -2.05633
LJ          -1.78918         1.16091        0.678107
LJ          0.854595        0.456951        -1.85577
LJ          0.110872        0.948878          1.2571
LJ        -0.0497601         2.17098      -0.0343519
LJ           1.39111         1.11408       -0.139836
LJ          0.674553       -0.668747       -0.244273
LJ         -0.219771        -1.27913        0.926747
LJ           1.21749        -1.75738        -2.32742
LJ         -0.226105         1.06303        -1.74654
LJ            1.6663      -0.0672474         0.68283
LJ          -1.24287         2.14873        0.957999
LJ          -2.18212         2.01678         1.10716
LJ           -1.6785         2.24956         1.90214
LJ          -2.16568        -1.60012       -0.353286
LJ          0.148743        0.319497         2.22939
LJ         -0.344575       -0.215995         1.35503
LJ          -1.27498        -1.82193         -1.3157
LJ           1.65432        0.681152        -1.29455
LJ           1.82435      0.00527985       -0.540011
LJ          0.123264       -0.640022        -1.98886
LJ         -0.970448        -1.23294       -0.478385
LJ          0.760423         1.72155       -0.583102
LJ          -2.30589       -0.688883        0.311172
LJ           1.06294        0.543365         1.51449
LJ           -1.5212         1.29801         1.76497
LJ            1.9182         1.87629        0.245585
LJ          -0.67163       -0.694586         2.18074
LJ          -1.88334         2.01378       0.0646965
LJ         -0.499487         -1.5387          -1.976
LJ         -0.729201          1.3789        0.574851
LJ          -0.82519        0.724962        -1.01542
LJ           2.00382        -2.17572        -1.73591
LJ           2.37318         1.44793        -1.99655
LJ          -1.86076        0.980478         -1.2636
LJ           1.80578       -0.993644       -0.431279
LJ          0.989183         -1.4858       -0.772992
LJ          0.971524       -0.301218        -1.07504
LJ         -0.168101       -0.295702        0.239365
LJ          0.518851        0.330243        0.601071
LJ          -0.16122          1.6792       -0.963521
LJ           1.41832        -1.38242        0.458849
LJ          0.694331         1.29726         2.21181
LJ           1.41005         1.99642         -2.2162
LJ            2.1512        -2.28929         2.00447
LJ           2.04698       -0.172731        -1.53585
LJ          0.869248        0.264374       -0.276641
LJ          -1.03171        0.383293        0.824642
LJ          0.693863       -0.679464        0.763795
LJ          -2.05167       -0.610211         2.17466
LJ          -2.11805         0.24344        0.865478
LJ          -0.79864        -1.83906         0.34135
LJ           -1.1502       -0.534179        0.251182
LJ           2.31868        0.872094         1.57291
LJ          -2.00806         2.26446        -0.90935
LJ          -1.74958      -0.0172136        -1.40853
LJ           1.60828        0.819248         2.28364
LJ          -1.57118        -1.60747        -2.33921
LJ         -0.278624        -1.00825        -1.13089
LJ          -1.96621       -0.588804       -0.646066
LJ          -1.14068         1.69372        -1.28352
LJ          0.479446       -0.738091         1.68766
LJ          -2.35423         1.04105       -0.162461
LJ           1.96385       0.0240575           1.776
LJ         -0.214891         2.31322        0.921269
LJ          -1.91826        0.372136        -2.28514
LJ          0.638985        -1.80819         0.97011
LJ          -1.19179         1.39038       -0.309857
LJ           1.92156         0.93165        0.713119
LJ          -1.59718        0.445519       -0.480726
LJ            1.3986       -0.952681         1.39759
LJ          -2.20368        -1.26859        -1.38232
LJ          0.299551        -1.54778       0.0528011
LJ          0.222232         -1.8174           2.034
LJ          -1.18047       -0.770421          1.1816
LJ         -0.719507         2.19118        -2.17929
LJ         -0.841275        0.172996        -1.98426
LJ          0.265925         2.13034        -2.12928
LJ          -1.67192        -1.38395        0.578236
LJ        -0.0685926        0.019258        -1.29483
LJ          -1.78724         2.24977        -1.86538
LJ           1.60464         1.85586         1.34924
LJ           1.33827        -1.08344          -1.609
LJ           2.26525        -2.01043        0.547234
LJ           1.94577         1.68173         -1.0576
LJ           2.12849        -1.40275         2.29568
LJ          0.810443          2.2438         1.68739
LJ          -0.99799         2.28919       -0.498806
LJ           1.85809        -2.17487       -0.419862
LJ           -1.1452       -0.868294        -1.62483
LJ          0.746513         1.39444        -1.55055
LJ          -2.36862        -0.92133         1.21965
LJ           1.51311        -1.92516         1.31377
LJ           1.02645        -2.33701        -1.29004
LJ           1.43531        -0.56915         2.33639
LJ          0.272039         1.14962       0.0533725
LJ          0.289349          0.8507       -0.913481
LJ          0.913697         1.37024        0.868595
LJ         -0.321486         1.79756         1.75005
LJ         -0.748406        -1.70983         1.77749
LJ        -0.0236327        -2.12454       -0.916181
LJ          -1.57811       0.0215009         1.60763
LJ         -0.732599        0.644792         1.82657
LJ            1.0202        -2.34995       0.0889248
LJ         -0.851754       -0.273843       -0.801526
LJ          -1.79425        -1.63853         1.47944
LJ          0.466329        -1.52353        -1.68775
