108
#Comment!
LJ           1.75697        -1.23642         -1.2489
LJ          -2.21883        0.691829        -2.29505
LJ         -0.358585        0.272906       -0.706716
LJ          0.587465         -2.1694       0.0165359
LJ           2.12221       -0.473645        -2.00526
LJ           1.09767       -0.573153         2.26403
LJ          0.272375          1.4393         1.54364
LJ         0.0605042         1.66737        -2.24782
LJ        -0.0111933        -1.91099       -0.758529
LJ          0.242733       -0.636933         1.25123
LJ             1.376         2.10691        -1.28226
LJ          -2.01524         2.17432        0.900516
LJ            1.1342          1.8045       0.0368988
LJ           -2.1696       -0.379151       -0.694969
LJ           1.12142         2.09752        -2.26136
LJ           -1.8747        -1.00561         2.20947
LJ         -0.294916        0.607009        0.388468
LJ          0.454975         1.88783       -0.648059
LJ          0.643677        0.983273        -0.30526
LJ          -1.32084        0.660141        -1.19272
LJ          -1.32444         1.17047         -2.3161
LJ          -1.58567        -1.82894       -0.098466
LJ          -0.37218        0.635865          1.5378
LJ         -0.878404        -1.13361        -1.92111
LJ          -1.72524         2.20702         2.12943
LJ            1.3113        -1.29937        0.126889
LJ           1.05801         1.98757         1.15287
LJ         -0.704157        -1.22886       -0.310775
LJ           1.27393         1.32315         1.84972
LJ           1.25428        -1.88023          1.4968
LJ           2.34134         -1.1726        -0.14623
LJ          0.332554        -2.35324         1.83847
LJ         -0.717987         1.55513         1.71532
LJ          -1.22343        -1.74049         2.03829
LJ         -0.330595       -0.410983       0.0794031
LJ         -0.409827        0.778006         -2.1842
LJ           2.00733        -1.43576        -2.25652
LJ          -1.90012       -0.462771        0.340602
LJ           1.96427         1.41108       -0.456463
LJ            0.2139        -1.34721        -1.57899
LJ          0.518866      -0.0767698        -0.26572
LJ         -0.508599         1.30577        -1.31402
LJ          -2.14933        0.314676        0.875012
LJ         -0.896493         -1.8747        -1.21938
LJ           2.20249        -1.12324         0.83792
LJ         -0.283774         1.43808       -0.152046
LJ           2.03389         2.05183         1.63271
LJ           2.05523         2.25075        -2.07491
LJ           2.20563         1.01332         1.61911
LJ            2.2999        0.450468       -0.254162
LJ           1.41941       -0.321092        -0.67596
LJ          0.601864        0.801917        -2.33062
LJ          0.372289        -1.01985       -0.626516
LJ           1.33229         0.15759         -1.7572
LJ           2.35876         1.31265        -1.57463
LJ          0.411552        -1.76497        0.918121
LJ           1.83941        -2.27046        0.679015
LJ         -0.659663         -1.1547        0.704982
LJ           1.87281       -0.403689        0.231488
LJ          -1.03289         2.23921       -0.499014
LJ           1.19195       -0.576899        0.884366
LJ          0.194244        0.149815        -1.50895
LJ          0.951276       -0.656063        -1.52504
LJ          0.780991        0.212625         1.65518
LJ           1.41277        0.460486       0.0285448
LJ          -1.32474        0.363313        0.464508
LJ          -1.68663       -0.695115         1.26289
LJ          -1.32116          0.3983         1.50587
LJ          -1.22805         1.07297       -0.275763
LJ         -0.864171         2.08237        -1.96306
LJ          -2.31644         -1.8446         1.78016
LJ          -2.05457      -0.0713747         1.91031
LJ          0.609338        0.232361        0.667043
LJ          -1.54438         1.69584        -1.24863
LJ         -0.733388       -0.233243         1.02285
LJ           1.71076        -2.29698       -0.370756
LJ          0.182982         1.96682        0.687125
LJ           0.76159         1.14093        0.650396
LJ           1.97813       -0.719169         1.75467
LJ          -1.79732        -1.65684        -1.82568
LJ          0.502732        -1.32634         2.14553
LJ           1.54369        0.388811         1.03035
LJ          -1.22237       -0.109834       -0.422839
LJ           1.71105        0.320317         2.06685
LJ         0.0834007       -0.211595         2.29225
LJ          -2.13918          2.0884       -0.185011
LJ          -1.61859          -1.623        0.898124
LJ          -1.60003        -1.19727        -1.00467
LJ         -0.392608        -2.09203        0.130179
LJ           0.48139         1.27312        -1.42643
LJ           1.10789        -1.72057        -1.93081
LJ           2.36889        0.266579         -1.3811
LJ          0.922229        -1.69585       -0.984313
LJ            -1.633         1.32243         1.39388
LJ         -0.811711        -2.26823         1.26049
LJ          0.395034         2.35022         -1.5465
LJ           1.36099        0.778646       -0.996873
LJ         -0.910211         1.33674        0.701887
LJ          -0.75333       -0.437287        -1.27308
LJ         -0.327389        -1.50062         1.64168
LJ          -2.20923        -2.23192        -1.09991
LJ           1.87566         1.50123        0.628049
LJ          -1.06766        0.148024        -2.05989
LJ           1.42043         1.18378        -1.92724
LJ         -0.278833         -1.8972        -2.23196
LJ          -1.70628       -0.422458        -1.65314
LJ          -1.97324         1.27331        0.329969
LJ         -0.946326       -0.657844         1.86851
