108
#Comment!
LJ          0.226359        0.808814         1.09649
LJ          -1.20662         0.91977        -2.13142
LJ         -0.667604         1.31047         1.53956
LJ        -0.0409821       -0.941727         2.13801
LJ           1.38482        0.888258        0.585955
LJ            1.0436         1.82195       0.0141382
LJ           1.30921        0.885201         1.58395
LJ           1.00062       -0.278079        0.267033
LJ         -0.415724        -1.58405         1.45181
LJ           1.21656         2.25122         1.97101
LJ         -0.388703         1.87887         2.36245
LJ           2.09794        0.141193        0.310831
LJ        -0.0420204         2.18127         1.48204
LJ           2.35307         1.25115         1.84411
LJ          -1.70107        -2.04703        -2.25875
LJ          -1.53505         1.95398       -0.338336
LJ          0.731872       -0.185558         1.96353
LJ          -0.30097        -1.08276        0.667957
LJ          -1.51262         -1.1855       -0.713432
LJ           2.00931        0.218115         2.12937
LJ           2.22116        0.289638       -0.724424
LJ          0.184645        0.104126         -1.8888
LJ          -1.02921       -0.720865       0.0788723
LJ            1.1437         1.83629         -0.9832
LJ            2.3724       -0.713538       -0.762618
LJ            1.4152     -0.00680715         1.06418
LJ           -1.4379         1.73574         2.02009
LJ           1.98339         2.16468      -0.0712551
LJ          -1.10195       -0.811665        -1.84474
LJ          -1.85003         2.15866         0.56406
LJ         -0.069802       -0.840919        -1.65691
LJ         0.0714646         1.52925        0.398983
LJ          -1.41861         1.17022        0.548349
LJ           1.53253        -2.23488        -1.60459
LJ          -2.27334         1.01123        -1.93876
LJ         -0.870055         1.45382       -0.892655
LJ           1.46944       -0.374622       -0.803624
LJ           1.86998        -1.10145        -1.48954
LJ          0.509458         -0.3479       -0.763885
LJ         0.0148548      0.00593017       0.0535218
LJ          0.155397        -0.26763         1.15825
LJ          0.274678         1.38041       -0.791416
LJ           1.61037        -1.08255        0.144034
LJ         -0.283746         1.01902        -1.90447
LJ          0.515255         1.61911         -1.7766
LJ           1.99623         -1.8284         2.33726
LJ           1.06096       -0.555973        -1.75742
LJ           1.62574          1.0062       -0.428351
LJ         -0.190414         0.50205         1.87141
LJ           2.07925       -0.761364        0.984807
LJ           -2.0295         -1.1134        -2.04738
LJ          -1.33185        0.410467       -0.271696
LJ          -0.87481         1.97866        0.814806
LJ          -1.20904        -1.01144          1.9395
LJ          -1.68375       0.0823434        0.688428
LJ          -2.12337        -1.94577       -0.305134
LJ          -1.71021       0.0903544        -1.92448
LJ           1.01138        0.617305        -2.11727
LJ          -1.39147        -1.98858          1.5683
LJ          0.211223        -1.07081         -0.1882
LJ         -0.751357        0.503603        0.864547
LJ           -1.3372         1.87486         -1.7104
LJ         -0.821828       -0.424617         1.20138
LJ           -2.2111         1.23664       -0.134504
LJ           1.87853       -0.769038          2.2854
LJ           0.13139        -2.25539        0.426555
LJ          -1.69246        0.623692         1.62959
LJ          0.757838        -1.20297         0.64264
LJ         -0.634633         1.07366       -0.056673
LJ          -2.32479        0.891653        0.878945
LJ          -1.75049        0.775219         -1.0788
LJ           1.69479        -1.79489         1.40433
LJ           2.22593         1.82766        -1.03211
LJ          -1.15001        -1.72819       0.0426153
LJ          0.562956         -1.7313         1.68662
LJ          -1.88456       -0.402777         1.47936
LJ         -0.327761         2.18871        -1.46387
LJ            -1.521       -0.232977        -1.01278
LJ          0.411997        -2.17557        -2.06461
LJ          -1.31146        -1.21388        0.979376
LJ         -0.177822        0.488162       -0.764401
LJ          -2.23137        -1.93908        -1.35952
LJ           2.35896         1.97336        -2.00904
LJ           1.94173       -0.112448        -1.61706
LJ          -2.33253         2.25973         1.56481
LJ           1.67861         1.01454         -1.3882
LJ           1.05496        -1.43378        -2.29619
LJ          0.867038         2.02252         1.05632
LJ         -0.586564         2.21848       -0.258633
LJ           2.34038        -1.80446        0.600981
LJ          -1.18681        -1.97425        -1.39108
LJ           1.57333          1.4457        -2.26068
LJ           -2.0136       -0.957324        0.236293
LJ           1.33933        -2.09483        0.512486
LJ          0.381985         2.36899       -0.647651
LJ           1.22588         -0.9357         1.49576
LJ          0.684542        0.717012      -0.0682536
LJ           0.73064         0.56518        -1.13464
LJ           1.84529         1.76343        0.888589
LJ          0.503897         1.32865         2.02851
LJ         -0.569422        -1.95201        -2.29701
LJ         -0.446264        -1.54428       -0.790037
LJ          -1.01578       0.0105836         2.14687
LJ         -0.775299        0.162047        -1.65286
LJ           1.13844        -1.88181       -0.394846
LJ         -0.534721       -0.358536       -0.735403
LJ          -2.17065        -1.32481         1.66997
LJ          0.599414        -1.50081        -1.40274
