108
#Comment!
LJ        -0.0611524        0.988226        0.502037
LJ          -1.99383         1.20672        -2.24897
LJ          -2.26648         1.29612        0.424199
LJ          0.167014        0.542755        -1.66372
LJ          0.174452         1.48186         1.46503
LJ         -0.198153         2.20002         0.55184
LJ           1.17961        0.543295       -0.540487
LJ          0.217912      -0.0469497       -0.792891
LJ         -0.120165        -1.21366        0.784993
LJ           1.28459        -1.28912         2.14745
LJ         -0.759641         1.22332        -1.65484
LJ           1.31444       -0.483791        0.784327
LJ           -1.4874         1.94624         1.63563
LJ           2.29527         1.89188         1.44412
LJ          -1.33785         1.98876         -2.1326
LJ           2.01942        -1.63835        0.498316
LJ          -0.13875        0.141119         2.23129
LJ         -0.251124        0.427589         1.29559
LJ          -1.66334        -2.00425       -0.761903
LJ           1.22109        0.816715        -1.45974
LJ           2.21577        0.419544       -0.114488
LJ            0.9129       -0.235429         2.31035
LJ          -1.48961       -0.844838       -0.769587
LJ          0.548188         1.80591      -0.0491827
LJ            2.1434       -0.542988        0.152193
LJ          0.733998        0.441207         1.28858
LJ          -1.90219         1.04685         1.29123
LJ           1.70786         2.03922        0.639868
LJ         -0.628842       -0.716813         2.21055
LJ          -1.57286          2.0595        0.244203
LJ         -0.674124        -1.68901        -2.22101
LJ         -0.828177         1.49575          1.0623
LJ           -1.6868        0.862929        -1.33899
LJ           2.02497        -2.03424        -1.21683
LJ           2.28234         2.10641        -2.28845
LJ           2.15753          1.0661       -0.899181
LJ          -2.32982        -1.28757       -0.464904
LJ          0.761003        -1.21426       -0.803239
LJ          0.930789       -0.204941        -1.46568
LJ         -0.339273      -0.0280783        0.412993
LJ          0.648901        0.272969        0.265667
LJ         -0.419063          1.7238       -0.818654
LJ           1.16539        -1.24484         0.12314
LJ        -0.0967814         1.18812        -2.36994
LJ            1.1593         1.62869        -1.99219
LJ           1.42291        -2.14266        -2.02854
LJ           1.83404       0.0372484        -1.23572
LJ           1.22271       -0.445868       -0.472743
LJ          -1.11025        0.652962        0.730038
LJ          0.282656       -0.753652      -0.0376707
LJ          -1.62886       -0.919913         2.21123
LJ          -2.18712        0.160668        0.766989
LJ         -0.984372        -2.04057        0.787738
LJ          -1.43081       -0.525722        0.309871
LJ           1.77184         0.95773          1.6909
LJ           2.36301         2.06251        -0.34087
LJ          -1.83269       0.0209508        -1.90397
LJ          0.831756        0.763983         2.34242
LJ          -1.75912        -1.87927        -1.80884
LJ         0.0490659       -0.698091        -1.54446
LJ           -2.0461      -0.0227786       -0.908055
LJ          -1.54199         1.61131       -0.625929
LJ          0.270556       -0.459568         1.16344
LJ           1.57801         1.32473      -0.0511679
LJ           1.66094       -0.048936         1.65863
LJ        0.00687122        -2.00583         1.38302
LJ            1.9848        0.662943        -2.08276
LJ          0.855807        -1.27938         1.09204
LJ         -0.800583         1.48423       0.0620055
LJ           1.60515        0.530899        0.680253
LJ          -1.56287         0.77864       -0.137539
LJ           2.05248         -1.0402         1.34182
LJ          -2.30681        -1.00511        -1.38616
LJ         -0.650081       -0.889616       -0.366271
LJ          0.268629        -1.26343         2.08367
LJ         -0.802395       -0.548558          1.2002
LJ         -0.938995         2.31323        -1.29703
LJ          -1.20272        0.175851         2.11152
LJ         -0.148539         2.09083        -1.81266
LJ          -1.59213        -1.58889        0.145954
LJ         -0.865738      -0.0618366        -1.69663
LJ          -2.13064          1.7886        -1.42098
LJ           1.35622         1.95659         1.74178
LJ            1.5052        -1.16486         -1.4636
LJ           -2.0152        -2.12142         0.98429
LJ           1.43857         1.76704       -0.994854
LJ           2.19483        -1.50899        -2.22369
LJ          0.538612        -2.26739         2.15824
LJ          -0.82035        -2.22238       -0.254394
LJ           1.48458        -2.07414       -0.311944
LJ          -1.04875        -1.06411        -1.59072
LJ          0.425775         1.41657        -1.27807
LJ          -1.74135        -1.04238         1.18386
LJ           1.86336        -1.96462          1.6042
LJ          0.513916         2.36364       -0.944293
LJ           1.97521        -0.42003        -2.12219
LJ          0.924879         1.33226        0.840209
LJ          0.156243        0.932946       -0.452662
LJ          0.819151        -2.22492        0.663257
LJ          -0.52781         2.05177         2.00594
LJ         -0.994775         -1.5091         1.63818
LJ         -0.126154        -1.59683        -1.09996
LJ          -2.13774       -0.155401         1.78524
LJ          -1.03447         1.20249         2.10036
LJ          0.194434        -1.82793      -0.0889817
LJ         -0.901293        0.208706       -0.668835
LJ          -1.89128         -1.9364         1.97292
LJ          0.596301        -1.64928        -1.75894
