108
#Comment!
LJ          0.686856         1.17979        0.547481
LJ          -1.92264        0.757359        -1.65486
LJ           1.62962         1.39715         1.04342
LJ          0.227717        0.816603        -1.17649
LJ         -0.244728         1.39482        0.919687
LJ        -0.0536891         1.88632       0.0801908
LJ           1.17642         1.25551        -1.36671
LJ           1.11273        0.137664        -1.21362
LJ         -0.758123       -0.449097        0.929487
LJ           1.47688        -1.60078        -2.24016
LJ          -0.73869        0.434275        -1.29216
LJ           1.39969        -1.09475         1.47123
LJ          -2.02172         1.66836          2.2044
LJ          -2.34246         1.95175         1.32273
LJ          -1.70865          2.2685        -1.83222
LJ           2.25714        -1.36494        0.455303
LJ          0.710611       -0.306538         1.46208
LJ         -0.485918        0.525045         1.61728
LJ           -1.6151        -1.44854       -0.126811
LJ           2.05998          1.2773        -1.96809
LJ           2.01037        0.766393       -0.703662
LJ          0.628112      -0.0219287         2.36882
LJ         -0.917703        -1.22388       -0.817959
LJ          0.892178         2.12853        0.306738
LJ          -2.20497       -0.578276       -0.128434
LJ          0.573827       -0.466569       0.0464802
LJ           2.32106        0.650387         1.29641
LJ           1.76339        -2.13602        0.769908
LJ         -0.337532       -0.907958        -2.14659
LJ          -1.36296         1.27846         1.34656
LJ         -0.752266        -2.27963        -2.14314
LJ          -1.07395         1.76557        0.548042
LJ          -1.79453         1.44436       -0.284506
LJ           2.21079        -1.54512        -1.55426
LJ           1.89194        -2.37661         2.05344
LJ          -2.17217         1.63165        -1.18127
LJ           2.17961        -1.47778       -0.462179
LJ            1.0229        -1.23589       -0.466175
LJ            1.5199       -0.376128       -0.242396
LJ         0.0665648        0.370739        0.689667
LJ          0.744829        0.532508       -0.241986
LJ         -0.695564        -2.24967        -1.14588
LJ           1.27999        -1.18894        0.531899
LJ        -0.0723546        0.691311        -2.25617
LJ          0.113781          1.7835        -1.35054
LJ           1.08041        -1.68806        -1.35004
LJ           2.08546       0.0845469         -1.5308
LJ           1.89857       -0.314123        0.859881
LJ          -1.00857         0.62607        0.633793
LJ         -0.161913     -0.00728736       -0.527971
LJ          -1.28069       -0.821841         1.99033
LJ          -1.89573      -0.0536007        0.727846
LJ         -0.920355          2.2526         1.46198
LJ          -1.17956       -0.406057       -0.108361
LJ           1.32447         1.50202         2.06754
LJ          -2.29276        -2.34294      -0.0138567
LJ          -2.32177        0.578852         2.22846
LJ          0.530144        0.813584         1.49268
LJ          -1.79543       -0.159632        -2.16121
LJ          0.672027       -0.806364         -1.7719
LJ          -1.73014       0.0556845       -0.773928
LJ          -1.25094         2.28432       -0.243716
LJ         0.0756029       -0.979657        0.937331
LJ            1.5625         1.47497       -0.124361
LJ           1.40246        0.460456         1.73262
LJ         -0.214379         -2.1866        0.790183
LJ           1.40105        0.508159        -2.08975
LJ          0.608304        -1.84654           1.178
LJ         -0.691968         1.32997       -0.928596
LJ           1.95439        0.522883        0.301052
LJ          -2.10081         1.24525        0.654373
LJ          -2.35515       -0.561281         1.68852
LJ          -1.88841       -0.845895        -1.20601
LJ         -0.325627       -0.840108      0.00188061
LJ          0.462494        -1.11763         1.96228
LJ         -0.243295       -0.456779         1.75258
LJ          -1.18765        -1.42181        -1.81424
LJ         -0.818776      -0.0487376         -2.2829
LJ          -1.13228         1.40755        -1.94048
LJ         -0.941218        -1.50221        0.761501
LJ         0.0333082       -0.126071        -1.57741
LJ          -1.85122        -2.09673       -0.922888
LJ          0.609232         1.37016        -2.10539
LJ           1.69339        -0.73914        -1.07383
LJ          -1.71046        -2.26626        0.834441
LJ           1.78088         2.33053        -1.39413
LJ          -2.09339        -1.21819         -2.2996
LJ          0.875803         2.26634        -2.21874
LJ         -0.427342        -1.88211       -0.196853
LJ           1.57813        -2.29768       -0.426024
LJ         -0.861528       -0.494924        -1.43231
LJ          0.666476         1.67522       -0.587102
LJ          -1.76331        -1.11425         1.08399
LJ           2.22808        -1.56717         1.58424
LJ           0.31492        -2.16486       -0.850747
LJ           1.72963       -0.363161        -2.30058
LJ           1.07134        0.232607        0.739867
LJ         -0.167044        0.922194       -0.177266
LJ          0.738959         1.88893         1.26711
LJ         0.0368568        -2.32668         1.85565
LJ          -0.68348         -1.6155         1.87998
LJ          0.141883       -0.996406       -0.898478
LJ          -1.55373        0.199349         1.68835
LJ         -0.534454         1.58477         2.02418
LJ          0.407209        -1.61933        0.228311
LJ          -1.13203        0.703283       -0.357246
LJ          -1.67047        -1.96255         1.88567
LJ          0.167847         -1.8726        -2.01114
