108
#Comment!
LJ         -0.615105        0.166524       -0.144438
LJ          -1.27315         1.16471        -2.06898
LJ          -2.16186         1.30248        0.742529
LJ           0.55243        0.612268        -1.86605
LJ          0.348863          1.2149         1.17686
LJ         -0.151383         1.99403        0.154922
LJ           1.13797        0.661986       -0.543526
LJ          0.322071       -0.575008       -0.489115
LJ         -0.389274        -1.24864         1.02666
LJ           0.98436         -1.5266         2.24475
LJ         -0.292107         1.11564        -2.07646
LJ           1.45836        -0.26282        0.764711
LJ          -1.38753         2.15717          1.2646
LJ           2.37031         1.85125         1.57881
LJ          -1.06557          2.0917         2.30451
LJ          -2.04405        -1.34204       -0.311383
LJ         0.0734671        0.133577         2.17594
LJ         -0.430735       0.0885571        0.979234
LJ          -1.58881        -1.86184        -1.13944
LJ           1.60709        0.629824        -1.44048
LJ           2.01869        0.244841       -0.505198
LJ          0.499997        -0.68067        -1.96456
LJ          -1.02707        -1.37186       -0.374639
LJ          0.727711         2.29659       -0.495441
LJ           2.32556       -0.643649        0.335374
LJ          0.813074        0.387163         1.60043
LJ          -1.66183         1.27107           1.577
LJ           1.85583         2.07489        0.213111
LJ         -0.598538       -0.836678         2.17619
LJ           -1.6223         2.05581         0.24528
LJ         -0.708126        -1.72558        -2.12935
LJ         -0.494574         1.10793        0.519456
LJ         -0.931959        0.603574        -1.18099
LJ           2.14226        -2.31668        -1.40226
LJ           -2.3045         1.15319        -2.30854
LJ          -2.33271         1.08285        -1.15912
LJ           1.86178       -0.987974       -0.697962
LJ          0.925964        -1.36329       -0.706085
LJ           1.00845       -0.255592        -1.18671
LJ         -0.352792       -0.645562        0.247818
LJ          0.656197        0.363791         0.43883
LJ          -0.29151         1.58338        -0.82736
LJ           1.46825        -1.12594        0.300803
LJ          0.553953           1.306         2.12422
LJ            1.5091         1.81427         -1.9527
LJ           1.97558        -2.01824        -2.29682
LJ           2.06693       -0.265825           -1.36
LJ           1.16955       -0.221186       -0.213516
LJ          -1.46999        0.289092        0.641161
LJ          0.597613       -0.644967        0.599729
LJ          -1.67538       -0.478193         2.31256
LJ            2.3179        0.284846        0.457651
LJ         -0.807621         -1.9877        0.473445
LJ          -1.36042       -0.561271        0.163171
LJ           2.12853        0.873032         1.50236
LJ          -2.00864         2.09781       -0.710408
LJ          -1.76539        0.216302        -1.49857
LJ           1.50049        0.744305         2.34815
LJ          -1.73364        -1.73393         -2.3543
LJ         -0.356013        -1.11556         -1.4253
LJ          -1.83319       -0.523408        -0.79669
LJ          -1.44248         1.44975        -1.07883
LJ          0.382293       -0.704203         1.71661
LJ           2.13574         1.20443       -0.152275
LJ           1.72608      0.00993009         1.69788
LJ         0.0194606        -2.24329        0.992966
LJ           2.35506        0.225854        -2.29182
LJ          0.686661        -1.51967         1.20888
LJ          -1.13818         1.13353       -0.172515
LJ           1.37938         1.05485        0.784592
LJ          -1.70797        0.333588       -0.380103
LJ           1.61187        -1.28873         1.27757
LJ          -2.32088         -1.1733        -1.59498
LJ        -0.0845703        -1.53459      -0.0971939
LJ        -0.0063265        -1.63434         1.87407
LJ          -1.22109       -0.612761         1.30617
LJ         -0.922214         2.23333        -1.48186
LJ         -0.957957        0.214758        -2.25749
LJ         -0.102528         2.18946        -2.30578
LJ          -1.73083        -1.48094        0.891747
LJ         -0.198161      -0.0139974        -1.53068
LJ          -2.05683         2.08392        -2.27898
LJ           1.36879         1.44708         1.66197
LJ           1.44443        -1.30417         -1.6487
LJ           2.12215        -1.77047        0.518938
LJ           1.58416         1.63304       -0.866335
LJ           1.95313        -0.99569         2.23933
LJ          0.789093        -2.37911         1.81921
LJ         -0.976427        -2.36906       -0.468463
LJ           1.87111        -1.99343        -0.51674
LJ          -1.32424        -1.07338        -1.69349
LJ          0.562823         1.60372        -1.41553
LJ          -2.25395       -0.597937         1.36253
LJ           1.62858        -2.24719         1.24635
LJ           1.12174        -2.27165        -1.35319
LJ           1.44915       -0.253575        -2.11887
LJ          0.276994         1.12111       -0.068585
LJ          0.203419        0.758659       -0.935745
LJ          0.832336         1.98531        0.703924
LJ         -0.400863         1.81153         1.53622
LJ          -1.00902        -1.68805         1.69282
LJ        -0.0779908        -2.05367       -0.948159
LJ          -1.53651         0.23401         1.63133
LJ         -0.516407        0.815911         1.68273
LJ          0.819551        -1.84698        0.222321
LJ         -0.898454       -0.543175       -0.877221
LJ           -2.2354        -1.94844         1.57299
LJ          0.403011        -1.65705        -1.70825
