108
#Comment!
LJ          0.725542        -1.64651         1.51349
LJ           1.91506        0.298673         2.20936
LJ           1.34147        0.159108         1.41302
LJ          0.915476        0.783674       -0.374958
LJ           -2.0436       -0.463561         1.98452
LJ          -1.07172        -1.72924       0.0471613
LJ          0.406092        -1.91233        -2.25767
LJ          -1.56658         1.64906        -1.39027
LJ          -1.45414        -2.04867        0.903279
LJ         -0.720539        -0.21474        -1.23863
LJ         -0.549552        -1.73985         2.26963
LJ          -1.63357         2.32902        -2.24889
LJ          0.204797       -0.911482       -0.884624
LJ           1.84042        0.390507       -0.468638
LJ         -0.547311         -0.7326        0.800257
LJ         -0.904629         2.07157         1.65452
LJ          -1.15869         1.41937        -2.30246
LJ           2.01641       -0.574656       -0.196271
LJ           1.68084        -1.53097       -0.794391
LJ         -0.677114        0.373635         2.03716
LJ          -1.54514        0.216995        0.967745
LJ         -0.482312        -1.74748       -0.733425
LJ           1.62208         1.25171          1.9832
LJ          0.936303          1.2396         1.23223
LJ          0.524609        -1.94651        -1.30726
LJ         -0.948564         1.93642        0.576991
LJ          -1.90383         2.15954        0.115542
LJ            1.1903       -0.376903        0.570787
LJ          -2.15223         -1.6241        0.207652
LJ              1.05       -0.223366       -0.495436
LJ          -1.84781       -0.956532         1.04805
LJ         -0.495596        0.206196         0.94375
LJ          0.485017        0.480299        0.718875
LJ         -0.428479        -1.19179        -1.60729
LJ           1.49669         0.54079        0.475659
LJ           1.67005        -2.14915       0.0880496
LJ         -0.113604        -2.36152       0.0047164
LJ         0.0717942         1.00782         1.68653
LJ        -0.0221546       -0.374592        -2.22297
LJ          0.719966         1.52999        -2.30974
LJ          0.874265       -0.406522         -1.7139
LJ         -0.713172        -2.27491        -1.66585
LJ            2.1112         2.19882         2.02602
LJ          0.496101         1.60433      -0.0197888
LJ         -0.729747          1.0852        -1.43755
LJ          0.876841       -0.762333          2.1189
LJ          0.239914       0.0538898        -1.11613
LJ           -2.2949      -0.0827669        -1.82371
LJ          -1.86274         1.58069         1.62417
LJ          0.267609       -0.304834        0.114037
LJ           1.91664         1.42863       -0.684787
LJ          -2.20858        0.888386        -1.08101
LJ           1.75331       -0.461689        -1.20573
LJ         -0.234587         1.77973        -2.16447
LJ           2.32449        -2.37871       -0.711073
LJ          -1.15936       -0.911488       -0.650552
LJ          -1.09243        0.815605        0.293115
LJ          -1.07464       -0.327731        -2.15165
LJ           -1.6617         1.31874       -0.383623
LJ           2.20621       -0.253013        0.938632
LJ          -1.06969       -0.448514         1.60928
LJ          -1.67913       -0.786978        -1.48986
LJ          0.968591        0.443762        -2.26496
LJ           1.48284         1.52664        0.391948
LJ           0.24384      0.00682963         1.65447
LJ           1.10241         2.26727       -0.753729
LJ         -0.157288       -0.960064         1.79773
LJ          0.680848        -1.60291       -0.333936
LJ         -0.174362        -1.86043        0.858285
LJ           2.24798         2.32596        -1.72745
LJ          -2.27562         1.25063        -2.03345
LJ           1.67193       -0.992274         1.39435
LJ          -1.19225         2.31099       -0.562098
LJ          -2.12539         -1.1674        -0.73789
LJ          -1.70878        0.485609         1.92594
LJ           1.58132        -1.74976         2.14953
LJ          -1.52438        0.484679        -1.67539
LJ          -1.20264        0.468679       -0.666472
LJ          -2.15075        0.300338        0.199533
LJ          -1.02458        -1.39125         1.40967
LJ           1.22981         2.35337        -1.98638
LJ          0.788064         2.34662        0.568979
LJ         0.0273118        0.704605        -1.87608
LJ         -0.623743         1.39717       -0.376708
LJ           1.80457        -2.22658         1.07447
LJ           1.47368        0.427975        -1.40307
LJ          0.527125         1.30214        -1.25205
LJ         -0.941564         1.13842          1.2895
LJ           2.29617        0.639293         1.29151
LJ         -0.183864        -1.18391       0.0285924
LJ          0.590107        -1.12986        0.669827
LJ          -2.25209        -1.67789         1.68662
LJ          -2.00635       -0.182744        -0.76111
LJ           1.63025         1.47038        -1.70466
LJ           0.18645         1.86615         1.29517
LJ            -1.359        -1.29902        -2.27119
LJ           1.15894         2.13836         1.78632
LJ         -0.173617         2.05997        -0.96999
LJ           1.83697       -0.695173         2.34145
LJ         -0.838573       -0.177584        0.039991
LJ          -0.25701        0.508471       -0.322781
LJ          -1.81651       -0.702965        0.137789
LJ           1.61697        -1.24428        0.410577
LJ          -2.06044         1.25861        0.539136
LJ           1.38951        -1.31653        -1.72824
LJ         -0.214038         1.17992        0.614927
LJ           2.35723        -1.43471        -1.92147
LJ          -1.63288        -1.83745        -1.40657
