108
#Comment!
LJ           0.96385         2.24914       -0.262731
LJ          0.509189         2.30933         1.41691
LJ            1.4566       -0.946626        -1.03811
LJ           1.26618         -1.6998         1.72187
LJ           1.11088        -1.06663        0.931705
LJ          -0.33529        0.531964         2.27376
LJ         -0.916356        -2.18435        -2.00452
LJ           2.22628         2.28699      -0.0814214
LJ          -0.66996       -0.411946         1.53829
LJ         -0.721858         1.29803         1.04984
LJ          0.590204         -1.8366        -2.35599
LJ          0.997862        0.818766        0.864265
LJ         -0.366355       -0.230719         -0.6674
LJ           1.98511        -2.07698       -0.960733
LJ           2.13424         -1.2386       -0.299169
LJ           2.37389         1.32712        0.108452
LJ         -0.844553       -0.152933        0.403275
LJ          -1.83958       0.0525653        -2.10895
LJ         -0.678831        -1.16094        0.921429
LJ          0.386047       -0.878573       -0.732204
LJ         0.0390708         1.04146       -0.948768
LJ           1.68911        -2.33992        -2.16681
LJ           1.37986        -1.42221        -1.96167
LJ          -2.34127         1.34783        -1.32905
LJ           2.03087       -0.685058        -2.14072
LJ          -0.91494       -0.259882        -2.13577
LJ         0.0851085         2.16808         -1.7455
LJ           1.51502         2.04439            1.62
LJ         -0.214658        -2.15518         2.00867
LJ         -0.782377        -1.23365        -1.83074
LJ          0.413957        0.882087        -1.91028
LJ          -1.73025       -0.614366        -0.24257
LJ          -1.18338         1.83118          1.8058
LJ          0.899732        -1.83709         -1.0059
LJ           1.49155         1.57903        0.329103
LJ          0.853151        0.999022       -0.320056
LJ            1.0974        -1.47354      -0.0881342
LJ         0.0236079         2.00766       -0.437018
LJ         -0.802377        -1.76736       0.0645842
LJ          -1.42826         2.27264         0.52109
LJ          0.747946         1.76381        -1.13826
LJ           1.72811         1.71212       -0.807952
LJ           -1.7466        -1.48316         0.18127
LJ           1.68417        0.549596       0.0117968
LJ           1.08188       -0.161283        -1.71831
LJ          -1.74323         1.45648         1.07651
LJ         -0.422615         2.08526        0.505673
LJ         -0.433042        0.372363        -1.48184
LJ          0.117945        -1.41881         1.42385
LJ          -1.62096       -0.449286         1.79358
LJ          -1.22714        0.818679         1.85978
LJ           1.28883       -0.505292        0.148869
LJ          0.285655        -1.88691        0.585498
LJ           0.84987       0.0212928       -0.715064
LJ           -2.0335        -0.66369        -1.25886
LJ            1.1253         1.12995         1.81735
LJ          0.191759         1.33625         1.60357
LJ           2.17377         2.09401        0.876975
LJ          0.236877       -0.518673        -1.64335
LJ          0.542033        0.341768         1.79987
LJ          -1.66972        -1.95723         2.13827
LJ         -0.248798        0.402539         1.10862
LJ         -0.983291         1.76405       -0.319802
LJ             2.293       -0.291067        0.506102
LJ          -1.18297       -0.243249        -1.16458
LJ           2.22882        -2.03335         1.65687
LJ          -1.82147        0.506007        -1.21749
LJ          -1.88944         1.85923       -0.594912
LJ           1.70565         1.19728        -2.03251
LJ          0.244163       -0.916972        0.246611
LJ         -0.184702        0.847601        0.006698
LJ         -0.332084         1.51949        -2.36544
LJ         -0.907275         1.75303        -1.44324
LJ          -1.92679        0.388572      -0.0755746
LJ           1.21917       -0.575665         1.92489
LJ          -1.72838       -0.949952        -2.15515
LJ          0.314803       -0.410119         1.20268
LJ           2.14487         -0.2482       -0.451293
LJ          -1.76499         2.31414        -1.60185
LJ         -0.709481        -1.16312        -0.75386
LJ            1.3734      -0.0557639         1.07815
LJ           1.20612        -2.32196        0.744083
LJ           1.95952         1.00662         1.21432
LJ           -1.2212        0.922211        -1.90609
LJ          -1.75102        -1.61156          1.2543
LJ         -0.995964        0.807939       -0.721906
LJ          0.110833         -1.5905         -1.5265
LJ           1.16951        0.864516        -1.26597
LJ           2.36766        -1.67308        -1.87272
LJ           2.07128        -1.61729        0.646159
LJ          0.455706         1.66735        0.612939
LJ         -0.888547        -2.16657       -0.819702
LJ          -1.61685       -0.722032        0.824196
LJ           2.30945      0.00435329         1.41426
LJ          -1.62378        0.399886        0.968437
LJ          0.497097       0.0506435        0.284375
LJ          0.783488         1.78864        -2.30496
LJ          -1.25432        0.984899        0.303598
LJ          0.247353       -0.790791          2.1212
LJ           1.98661       -0.928313         1.45634
LJ          -2.31205        0.779254         2.25448
LJ         0.0975518        -1.69698       -0.355168
LJ          -1.89747        -1.65023       -0.956346
LJ           2.33863         1.78089         2.14975
LJ           1.98014        0.226466        -1.35557
LJ           1.57098        0.336088          2.1865
LJ         -0.832266        -2.07017         1.23369
LJ         -0.842205        -1.25925         1.90059
