108
#Comment!
LJ          -2.37281        -1.23083       -0.759132
LJ         -0.337316         2.26663        0.321985
LJ           2.08108         1.13889        -2.18457
LJ          -1.25222       -0.826962        -2.29359
LJ           1.24814        0.418082        -1.90528
LJ          -2.30424        0.760453        -1.33806
LJ          -2.11981         1.61805        0.828738
LJ         -0.522239        0.399985        0.566144
LJ           2.25472       -0.569305         1.37591
LJ          0.323318        -2.02076         1.51345
LJ          -1.24195         1.37636        0.335986
LJ         -0.404831         1.74691         1.58459
LJ           1.73643         1.74684        0.117734
LJ        -0.0314824       -0.924402       -0.319436
LJ         -0.463309         1.34485         -2.2606
LJ            1.4913       -0.131189        0.645771
LJ          -1.27509         2.24692       -0.500217
LJ           1.45216       -0.814081       -0.752678
LJ          0.663836        0.891427        -1.17007
LJ          -1.88817        0.131101        -2.00761
LJ          -1.27989       -0.410767        0.619484
LJ          -2.07809        0.207254         0.82035
LJ            1.8396        0.979751        0.782727
LJ          0.256768        0.339576        -1.95477
LJ          -2.15456        -0.76624         2.30578
LJ           1.72794         1.30266       -0.881407
LJ          -1.49615         1.07081       -0.789443
LJ          -1.42892        0.392385       -0.110658
LJ          -1.41165        -1.50698       -0.650845
LJ          -2.01273        -2.18546        -1.07583
LJ           1.32941        -1.03694         1.09765
LJ         -0.301092        0.669903        -1.03485
LJ          -0.29533         1.47779       -0.394312
LJ           1.74975        -1.01813         0.21784
LJ           1.41222         1.65848         2.01644
LJ           1.95811       0.0984871         2.14396
LJ           2.32662       -0.171805       -0.220171
LJ          0.462516        -2.18825       -0.214013
LJ          -1.06472         2.15132         2.34564
LJ          0.044727        -1.80706        -1.82414
LJ         -0.257786       -0.734955        0.596917
LJ         -0.851303        -1.30582        -1.52138
LJ         -0.838849        -1.49559        0.179642
LJ         -0.640429       -0.663604         1.62786
LJ           -1.6166        -1.97936        0.665846
LJ           2.09183       -0.262031        -1.52418
LJ          0.480914         1.17873         2.24967
LJ          -1.18105       -0.549571       -0.399204
LJ           0.23736        0.677035      -0.0491275
LJ          0.724716       -0.205547       -0.471961
LJ         0.0383665        -0.25611        -1.19033
LJ           1.62526       -0.942156         2.21687
LJ         -0.239246        0.738846         1.48439
LJ         -0.315712        -1.89157       -0.790289
LJ          0.651394         1.56167       -0.280425
LJ           0.15836       -0.084718         1.84486
LJ           1.69855        0.291622       -0.832805
LJ         -0.849228       -0.236449        -1.59198
LJ           1.17729       -0.662546        -1.75282
LJ          0.487023       -0.156705        0.876275
LJ            2.1575         2.30983        -1.86698
LJ           1.21398        0.626658      -0.0412606
LJ          0.754104        -1.45245         2.31838
LJ           1.18404        -1.87847          -1.673
LJ           1.33767        -2.06533         1.77338
LJ          -2.34633         1.86669         1.82905
LJ          -1.51794         1.28569         2.25567
LJ          -0.64237        -1.84996         1.08746
LJ          -1.28268        0.830456         1.25114
LJ           1.75651         2.03158         1.06902
LJ          -2.17898        0.735462         1.68251
LJ          -1.78368       -0.904075        -1.48343
LJ           1.31653        -1.74118       -0.451003
LJ           2.31046        0.829652       -0.146539
LJ          0.345051        -1.00673         1.46348
LJ          0.575174         2.02178        0.804396
LJ          0.565532         -1.1991        -1.17016
LJ           1.32558        -1.97925        0.595203
LJ          -1.40436         1.76966         1.47076
LJ         -0.442046       0.0181114       -0.348209
LJ          -1.04134        -2.33739        -1.39632
LJ          -1.82427      -0.0493217       -0.980434
LJ           1.27744         1.77829        -1.78822
LJ         -0.447076        -1.58429         2.14104
LJ          0.831969         1.06374        0.759812
LJ          -1.03678        0.804575        -1.74236
LJ         -0.169895         1.33512        0.648625
LJ           1.70865          2.2351       -0.915968
LJ          -1.51989        -2.03976         1.65477
LJ           2.26799        -1.81578         2.05545
LJ            2.2476         -2.1106       -0.109306
LJ           1.19568        0.739854         1.66883
LJ           2.05595        -1.30439         -1.7202
LJ          0.744413       -0.859214        0.289236
LJ          -1.68572       -0.180566         1.63114
LJ           2.28349        -1.60808         1.09758
LJ          -1.65458        -1.90445        -2.00449
LJ          -2.19864         1.80037        -0.49281
LJ          -1.99599        -1.04625        0.321964
LJ          -1.53444        -1.08678         1.41832
LJ         -0.313932         1.71748        -1.39263
LJ        -0.0679532       -0.717262        -2.03202
LJ          0.588441         2.12179        -1.14319
LJ         -0.794065        0.147162         2.18143
LJ          0.192272         -1.7023        0.581071
LJ          -1.62635         1.76446        -1.62129
LJ          0.523218         2.20362         -2.2981
LJ           1.11294        -0.27268         1.82199
