108
#Comment!
LJ          -1.20963         1.11128       -0.374343
LJ          -0.76408          -1.664        -1.87663
LJ          0.100095        -2.03387         1.15565
LJ           1.91132         1.78124       0.0691017
LJ          -2.03114         1.52166         1.09207
LJ           1.04828         1.85964         -1.7502
LJ         0.0660761         1.52195        -1.00254
LJ           1.11571       -0.985317        -1.82865
LJ          -0.70047       -0.529528         2.07267
LJ           1.33805        -1.80544         1.54154
LJ         -0.635826        -1.59831       -0.784574
LJ           1.97052        -2.04937        -2.13742
LJ          -0.46236         1.35424         1.95082
LJ          -1.79062       -0.869388         1.57576
LJ           -2.0441        -1.32581        -2.21959
LJ          -1.00932        -1.88395        0.115001
LJ          0.911924        0.826296        -1.21566
LJ          0.375807       -0.193681         1.24088
LJ         -0.718071         -1.0108        0.191342
LJ         -0.706978         2.12093        -2.13368
LJ           1.66222        0.810868         -1.9216
LJ           1.75785        -1.10593         2.11581
LJ           1.19575        0.525386         1.44774
LJ           2.05707         1.70396        -2.02955
LJ          -1.77835        0.343089       -0.766202
LJ          0.152913         2.37114        -1.65456
LJ          -1.72971         1.03983        -1.43309
LJ          -1.42323        -2.01856         2.22616
LJ          0.311543        -1.38711        -1.28658
LJ          0.238128         2.19817         2.12161
LJ          -1.12042         -2.3504        -1.17874
LJ         -0.864664           1.409         -1.3856
LJ          -1.82683         1.78822       -0.805938
LJ           2.07977       -0.648302        -1.77371
LJ           1.39047         2.02352         2.09842
LJ          0.964206         1.43931        0.516143
LJ         -0.966572       -0.215317        0.937402
LJ          -1.92253        -1.55803       -0.382266
LJ         -0.145876     5.41238e-06        0.288419
LJ         -0.390569        0.455903         1.41517
LJ          0.467276        0.135745       -0.397968
LJ           1.16529        0.827866       -0.225256
LJ           1.11128        -2.16991        0.505292
LJ          -1.14387        0.861572        -2.21468
LJ          0.300403        -2.18506       -0.709376
LJ          0.207847         2.16104        0.311588
LJ          -2.34321         2.13097           1.874
LJ          -1.29559        0.878393         1.42728
LJ           1.59018        -1.09195       -0.953211
LJ         -0.818151        0.183034        -0.60851
LJ          -1.75867         -1.2102        0.583597
LJ          -2.00655        0.870718        0.166543
LJ         -0.192402         1.02879       -0.170841
LJ         -0.942317        0.126772         -1.5924
LJ           2.26136        -1.64177         1.44724
LJ        -0.0116884        -1.64814        0.168001
LJ          0.918606         1.76505       -0.416899
LJ           1.38551       -0.236438       -0.254826
LJ          0.403469       -0.364646         2.23453
LJ           -1.6434        -1.49469        -1.37552
LJ           1.95065        -1.12004        0.114233
LJ          -1.58521       -0.313886       0.0873778
LJ           1.95507         1.18806         1.70781
LJ           1.83687         1.75466        -1.08016
LJ           1.70822        0.207409         -1.1489
LJ          0.699457        0.816472        -2.19906
LJ        -0.0914725        0.583986        -1.27998
LJ          0.723252       -0.750638        0.392078
LJ         -0.216583       -0.577472        -1.82469
LJ           2.23733      -0.0862082        0.137245
LJ           2.17247        -2.06535        0.379688
LJ          -1.46105       0.0623511         1.99766
LJ         -0.604928         2.06122       -0.353737
LJ         -0.902421         0.74797        0.510307
LJ          0.677369        -1.72446        -2.35511
LJ          -2.06916         1.01264         2.34458
LJ          -2.27305        0.293114         -1.7214
LJ          -0.27914        -1.61989         1.98131
LJ         -0.177795         0.40017        -2.36275
LJ           1.10225        -1.88917        -1.43289
LJ          0.884188        -1.50917       -0.271698
LJ          -1.79776        -2.21751         1.07112
LJ           1.01001        0.199786        0.560793
LJ           2.17539         0.95291       -0.650393
LJ         -0.740118        -1.29973         1.17187
LJ           1.67757         2.00713         1.10082
LJ           2.31538       -0.299145         2.03564
LJ          -2.05243         2.33813        -1.57613
LJ         -0.470873         1.76211        0.962829
LJ         0.0641919       -0.834452       -0.422862
LJ          0.810722       -0.134401        -1.28111
LJ          -2.31404       -0.563846       -0.797759
LJ         0.0242706         1.45265        -2.00077
LJ           2.22034       -0.670691        0.948216
LJ           1.83863        0.915306        0.743475
LJ            1.7416        -2.13865       -0.529117
LJ           1.30722       0.0262025         2.33353
LJ          0.202324        0.772801        0.732758
LJ          -1.06406        -0.70925       -0.910239
LJ          0.549407        -1.17001          1.5033
LJ          -1.45361         1.73328         2.03895
LJ          0.731516         2.00494         1.31043
LJ            -1.796         2.16009        0.123307
LJ           0.40893         1.06893         1.68049
LJ           1.38336       -0.451528         1.30063
LJ          -1.53731       -0.576766        -1.88152
LJ         -0.908774        -2.22315         1.41363
LJ          -2.11179        0.257568         1.12102
