108
#Comment!
LJ           2.35587         2.22617        -1.68839
LJ          -1.74185       -0.627018        -1.71854
LJ          0.398223        0.177732       -0.982763
LJ           1.36282           2.109        -0.42983
LJ           1.83737        -1.51432        -2.12187
LJ           1.27268       -0.731758      -0.0463554
LJ         -0.264035        0.167161        0.442097
LJ           1.65334         1.46714        -1.75137
LJ         0.0302873         1.87572        -2.13125
LJ          0.578153       -0.625734          1.0543
LJ           1.25616        -1.66896       -0.436524
LJ           2.22026         1.98554          1.4441
LJ          0.709507          1.7886        0.271727
LJ           2.26508        -0.46815        -0.31512
LJ             1.115         1.45139         1.21107
LJ           -1.0066        -1.36511        -1.65083
LJ         -0.683159         1.38284         1.56746
LJ         -0.451731        -2.30546        -0.18872
LJ          0.455675         1.03597       -0.521476
LJ         -0.600988       -0.512487        -1.08934
LJ         -0.942977         1.36052        -2.21852
LJ          -1.52432       -0.949526       -0.536219
LJ          0.227649          1.8916         1.15421
LJ          0.914382         2.11755        -1.58164
LJ         -0.858871        -1.94581         1.21521
LJ           1.95169       0.0342096        0.472636
LJ           1.14243        -2.32576         1.12125
LJ         -0.287665        -0.19404         1.56691
LJ          -2.34488         1.14524        0.870831
LJ          -1.92933         1.56946         -2.3795
LJ           1.23082        0.378643        -1.64629
LJ          0.683836        0.422985         1.14894
LJ          0.354564        -2.07314         1.92537
LJ           1.21046        -1.36423         1.77963
LJ           1.59799       -0.580616         1.17178
LJ          0.122536        0.227262        -1.93777
LJ          -2.07039        -1.56366        -1.58578
LJ         -0.968422        0.456763         2.11258
LJ           1.85791         2.21871        0.528584
LJ           1.91952       -0.267654        -1.37612
LJ           1.43805        0.038592       -0.590069
LJ          -1.35082         2.10827       -0.223097
LJ           -1.1163        0.161498         1.14035
LJ          -1.44973        -2.04189        -1.02258
LJ          -1.72161       -0.316463         2.02863
LJ         -0.362619         1.13829        -1.43613
LJ          -2.28316        0.658032         2.24577
LJ          -1.48458        -2.30408        -1.99129
LJ          -2.23487       0.0714327         1.27061
LJ          -1.81598         0.53186        0.276019
LJ           1.99587         1.45848       -0.050405
LJ           2.28145        0.605871       -0.547458
LJ          0.267086        -1.49524       0.0968676
LJ           2.32198        0.712296        -1.50884
LJ           2.30875         1.54294       -0.959079
LJ          0.708327       -0.878589        -1.00916
LJ          0.845346         1.51256         2.17057
LJ         -0.689185       -0.896513        0.489095
LJ           2.02779        -1.30537        0.242096
LJ          -1.85461        -1.69822         1.08279
LJ          0.153914        -1.83039         1.03084
LJ          0.504258       -0.523117         2.02315
LJ            2.1303        -1.37175       -0.709303
LJ           1.11905        -1.41821        0.669297
LJ           1.23157        0.937054        0.356974
LJ          -1.84199       -0.756477        0.374275
LJ         -0.218427        -1.80784        -2.04147
LJ        -0.0117096        0.668115         1.95934
LJ          -1.92687         2.01559        0.688452
LJ          0.567411         1.20748        -1.50288
LJ          -1.54184        -1.30091         2.27385
LJ          -1.18871       -0.957909         1.33943
LJ          -1.23767         1.24233        0.313203
LJ         -0.436079         2.09019        -1.17105
LJ         -0.876428       -0.555661        -2.25812
LJ         -0.354632         1.54416       -0.255869
LJ           0.39638         2.06882       -0.630722
LJ          -1.44137        0.987143       -0.648954
LJ           2.07193        -0.21408         2.16674
LJ          0.795964        -1.68457        -1.98914
LJ        -0.0784253         1.12968         0.58993
LJ          0.750498       0.0688702        0.242243
LJ          -1.63786       0.0260289       -0.942172
LJ           1.68833        0.638558         1.33074
LJ           1.64432        -1.99342        -1.31002
LJ          -2.28519        -2.09134      -0.0855141
LJ          -1.18765        -1.70523        0.146191
LJ           1.16184       -0.625368        -1.89641
LJ          0.318617        -1.79735        -1.05228
LJ         -0.543444        0.548941       -0.606693
LJ           1.68762         2.24055         2.32285
LJ          -1.54629        0.481903        -1.86711
LJ           1.92674        -1.72898         1.21409
LJ          -1.49875          2.1118         1.64859
LJ         -0.579544          2.2938         1.97505
LJ          0.932077        0.360642         2.18802
LJ           1.38489        0.974626       -0.809925
LJ         -0.696645         2.00408         0.69167
LJ         0.0232705       -0.803479        -1.87483
LJ          0.127451       -0.508911       -0.275875
LJ          -1.29794         1.63188        -1.36479
LJ          -2.28665       -0.890329         1.55338
LJ          -1.64273         1.02117         1.56177
LJ          -2.17425        -2.06747         2.14112
LJ         -0.347789        -1.11095         1.92313
LJ          -1.11231      -0.0777899      -0.0610892
LJ           1.78906         1.35426         1.95117
LJ         -0.604113        -1.42342       -0.750284
