108
#Comment!
LJ          -1.71099         1.36143         2.26426
LJ           2.04817      0.00155218        -2.34074
LJ        -0.0536042       -0.626501         1.09486
LJ           1.21509        -0.61741       -0.378289
LJ           2.22686         -1.8412         1.22373
LJ           1.09335         2.01388        0.745336
LJ          -2.22801         1.03789       -0.957336
LJ          -1.07248        -2.38048         2.30232
LJ        -0.0687358           2.372         2.24159
LJ           1.57794        -1.98844        0.390279
LJ         0.0939612       -0.313628        -1.78356
LJ           -1.0266         1.79748        -1.43055
LJ           -2.3244        0.104421       -0.237356
LJ           -1.1757        0.282029       -0.461848
LJ           -2.1365        0.226272        0.785151
LJ          0.606802         0.30508         1.83188
LJ          0.759594         1.18691        0.017503
LJ         -0.473489         1.65333        0.222369
LJ            -2.373        0.886395        -1.98726
LJ           0.82154         1.35015       -0.962201
LJ          0.546181        0.141566       -0.187043
LJ         -0.354422         1.42453        -2.19888
LJ          -1.42623        -1.53754         1.64946
LJ        -0.0857928        0.942451        -1.22123
LJ         -0.421298        -2.11784        -1.62302
LJ           2.29754         2.01959        0.370375
LJ          -1.82632         2.33574         1.63074
LJ           2.21397        0.792729         1.73306
LJ          -2.08629       -0.793583       -0.986831
LJ           -2.1211         2.00878        -1.59614
LJ            1.3285         2.34686       -0.693748
LJ           1.75959          2.1457         1.47313
LJ          0.506251        0.733421        -1.96125
LJ           1.07828        -1.66254         1.42528
LJ           1.29195       -0.899301         0.69312
LJ         -0.823219         -2.1546        0.201986
LJ          0.749927        0.302586        -1.11969
LJ         -0.269351      -0.0647629       -0.758867
LJ           1.98483        -1.23901      -0.0751781
LJ             1.107       -0.199629        -1.94805
LJ          -1.83103       -0.548452        -2.11249
LJ          0.427303          2.3521      -0.0835153
LJ           1.51999     0.000879843         1.43197
LJ          0.304295        -1.92033        -0.98417
LJ           1.55708        0.699011        -1.54212
LJ           2.06769        -1.01226        -1.85056
LJ           1.87801       -0.144316         -1.2047
LJ           2.25796       -0.657904        0.896337
LJ          0.232601         1.36037         1.74869
LJ         -0.323165      0.00131376         0.34839
LJ          -1.92786         1.23707         1.15992
LJ          -1.04656         1.19825       -0.587412
LJ         -0.341916         0.35512        -2.37936
LJ         -0.942691       -0.188429         -1.5186
LJ          -1.49978        -1.63156        0.715482
LJ           1.81136         1.46603       -0.308621
LJ           1.64752         -2.0127         2.23523
LJ         -0.737135        -2.10525          1.1391
LJ           1.37308        0.833337         2.30487
LJ         -0.616415        -1.15114        0.420289
LJ          0.922649         2.05653         2.05583
LJ          -1.06797        0.475954        0.773919
LJ          -1.83204        0.122871        -1.18758
LJ           0.31891        -1.61168        0.818039
LJ           1.65909       0.0516796        0.428269
LJ          -1.67035        -1.69939       -0.286137
LJ          -0.21982         0.34807         1.25971
LJ           2.00437         1.03856        0.632129
LJ           1.80544        -2.13167        -1.51623
LJ           1.96317         1.78739         2.37005
LJ         -0.769543       -0.362132         1.78631
LJ          -1.87563        -0.75438      -0.0306391
LJ          -1.32191       -0.639068        0.864457
LJ          0.349385       -0.784207        -0.93122
LJ          0.159798          1.8843         -1.5013
LJ           0.31941       -0.876256        0.123926
LJ         -0.447768         2.22746       -0.688274
LJ           2.33151        -2.25164       -0.488371
LJ          -2.11394        -1.99709         -2.3176
LJ          0.456755       -0.669649         1.96752
LJ           1.47574        0.530739       -0.490263
LJ          0.229181         1.25341        0.770148
LJ         -0.767769        -1.21712        -1.37035
LJ           1.11967         1.10916         1.37119
LJ           1.37646        -1.27754          -1.213
LJ          0.882447        -1.53644       -0.320702
LJ          -1.63194        -1.89829        -1.44907
LJ           1.84317         1.69815        -1.29411
LJ          -2.06562       -0.159316         1.70714
LJ          0.802287        0.380565         0.79496
LJ          -2.31379        -1.13515         1.86167
LJ         -0.209591        0.839378       -0.228158
LJ           1.05602          1.5834        -1.87336
LJ         -0.726754         1.76497         1.58252
LJ         -0.434594        -1.48333       -0.461732
LJ          0.747133        -2.08484        -1.93997
LJ          -1.56094         2.07828       -0.697341
LJ          0.165494         2.24004         1.28713
LJ         -0.214052         -1.4454         1.71958
LJ         -0.947809       -0.665812       -0.361964
LJ           0.15245        -1.32132        -1.75305
LJ           1.46022       -0.899463            2.05
LJ          -1.40046         1.83833        0.551375
LJ          -0.84648        -1.47519        -2.29814
LJ          -1.01647        0.797692        -1.48833
LJ           -1.1015        0.831962          1.6613
LJ          -1.47496        0.344159        -2.26026
LJ          -1.79252        0.987432       0.0672148
