108
#Comment!
LJ          0.687012       -0.730575       -0.726973
LJ            1.9215       -0.930027        -2.02396
LJ          -1.78646        -1.01697       -0.168725
LJ         0.0695299        0.148172       -0.554207
LJ          -1.74438       -0.114622        0.360668
LJ          -1.08609        0.322892         1.61925
LJ          0.662057         2.16176       -0.559087
LJ          -2.34899         1.50212         2.26672
LJ          0.466667        -1.35772        0.164353
LJ          -2.12467       -0.182204       -0.910574
LJ           2.21408       0.0335682        -1.83538
LJ          0.894689       -0.295153         1.46412
LJ         -0.846806         1.65286        -1.32227
LJ         -0.518087       -0.346192        -1.27043
LJ           -1.3727        -2.36783         2.05823
LJ           1.38952         1.71868         -1.1363
LJ            2.3009       -0.853647        0.529062
LJ           1.00777        0.056301       -0.173755
LJ           2.33512         1.58181        -1.43064
LJ           -2.0495       -0.656795         2.36225
LJ          -1.60211         2.32907        -1.45578
LJ         0.0457348        -2.20192        0.265521
LJ         -0.323238         1.70241        0.786419
LJ            1.5003        -1.84193        -2.33683
LJ          -2.02426       -0.304979         1.30425
LJ           2.10497        -1.54973      -0.0981753
LJ          -1.77343        -2.00905       -0.407915
LJ           1.88276       -0.643147         1.77777
LJ         -0.202251       0.0956173         2.06903
LJ           2.32903         -1.2801        -1.14352
LJ           1.57408        0.764507        0.263599
LJ          0.357155        0.617701        0.552578
LJ           1.66783       -0.725642         -0.6205
LJ          0.654325        -1.36098         1.12483
LJ           1.94908        0.759779       -0.910806
LJ           1.71015      -0.0938213        0.881479
LJ           0.15453       -0.440588        0.371774
LJ           1.09702         1.18784         2.05065
LJ         -0.349417        0.709291         -1.2885
LJ         -0.348818          2.1039       -0.578671
LJ           1.68814        0.884396         -1.8396
LJ          -1.09279       -0.782934        0.589457
LJ          0.485654         1.98758         2.15116
LJ        -0.0640395        -1.75887       -0.733843
LJ          -1.51888       -0.703699        -1.56763
LJ          -0.58599         2.01143        -2.17849
LJ          -1.50722        -1.53693        -2.14711
LJ           -1.7833         1.75955       -0.656016
LJ           1.40126        -1.55667        -1.39917
LJ          -1.61951        0.758365        -1.33541
LJ          -1.95088        0.745909       -0.291743
LJ          -2.22077         2.23179         1.34638
LJ         -0.639483        -1.98964        -1.58673
LJ         -0.761056          1.3397         1.72349
LJ          -2.20043        0.596899        0.861502
LJ         -0.135446         1.25227       -0.166348
LJ          0.233974       -0.258394        -1.90715
LJ        -0.0142992        -1.05969          1.8513
LJ           -1.7093         1.20709         1.57882
LJ            1.5384         1.90783        -2.10569
LJ          -1.03478         2.36733         1.01686
LJ          -1.08688        0.206732        -2.01611
LJ          0.118921         1.68665        -1.44906
LJ           1.97286         2.30871        0.418295
LJ          -1.11689        0.992817        0.894084
LJ          0.171677         1.03046         1.57704
LJ          -2.03432        0.572966         2.26473
LJ           2.01171         -2.3639        -0.74181
LJ          -1.03188         1.67207       0.0491459
LJ          0.339498        -1.44733        -1.80486
LJ          -1.18614       -0.160381       -0.501443
LJ          0.776168        0.980178        -0.62586
LJ          0.676485        0.851044        -1.63943
LJ           1.17499      -0.0173828        -1.30217
LJ           2.38061        -2.32374        -2.09711
LJ          -1.15604       -0.610623         1.88606
LJ          -1.87257         1.78288        0.577113
LJ           1.18773        -1.58629       -0.431461
LJ           1.34759       -0.956032        0.293041
LJ            1.7726         1.45825        0.934044
LJ         -0.288651        -1.32825        0.815483
LJ          -1.18561        -1.48999         1.40499
LJ          -1.42537         1.28696        -2.15491
LJ           1.69006         2.17625         1.69587
LJ           2.03968       0.0305897      -0.0562221
LJ         0.0831891        -2.32239         1.32781
LJ           1.02804        -2.12254        0.485761
LJ          -0.61997         0.32187        0.342528
LJ           1.13123        0.668523         1.14065
LJ           1.76365        -1.61326         1.10586
LJ          0.787526         1.74376         1.19389
LJ        -0.0799986         1.11012        -2.23037
LJ         -0.990301        0.821804       -0.522023
LJ         -0.436739       -0.935132       -0.237015
LJ           1.94809        0.702792         1.65225
LJ           2.10738         1.44163       -0.210388
LJ           0.57397        -1.77827         2.08082
LJ         -0.457379         -1.8765         2.02409
LJ          -1.16676        -1.39377       -0.824999
LJ           1.39793         0.16314          2.3764
LJ          -2.12992        -1.53819         1.89136
LJ          -0.69916       -0.996585         -2.0822
LJ          0.878901        -0.87368         2.25566
LJ          -1.01513        -1.84976        0.176117
LJ          -1.98208        -1.76246        0.814356
LJ          0.763361        -2.36791         -1.6147
LJ         -0.442924       -0.369386         1.19461
LJ          0.920291         1.50663        0.227166
