108
#Comment!
LJ           1.69646       -0.346711       0.0955521
LJ          -1.23875         1.97784       -0.562715
LJ          -1.07477         1.96089        -1.59479
LJ          0.825051        -1.76217         2.07943
LJ           2.24141       0.0412863        -1.77287
LJ          -1.75923         0.52221        -1.37485
LJ          -2.17054        -2.33114         1.72981
LJ          -1.74937        0.412617        0.607513
LJ           1.32631         -0.8303         2.12448
LJ          0.843627         2.18277        -2.07103
LJ          -1.01739        0.611282      -0.0272541
LJ          0.426171        0.748459        0.563159
LJ           2.16451          1.2359        0.390357
LJ          0.514089        -2.00494      -0.0683426
LJ         -0.997939        0.986564         1.53633
LJ           1.81639        -1.03043        0.797162
LJ          -1.83158         1.86093        0.168325
LJ          0.997206        0.427407        -0.93269
LJ        -0.0379368        0.864993       -0.400272
LJ           -1.2308        -1.05395       -0.502212
LJ         -0.914308       -0.739142        -1.42463
LJ           -1.8017          1.4357         1.09681
LJ           1.95451          1.5626         1.55217
LJ          0.064466        0.916747         1.48596
LJ          -1.64102        -1.09852        -2.03794
LJ          0.981668         1.31329        -1.36767
LJ          -1.94276       -0.137199         -0.1668
LJ          -1.05185      -0.0749408       -0.728741
LJ           1.41458        -2.05391         0.36703
LJ          -2.01255        -1.99571        -2.00867
LJ           1.08461        -1.17225        0.164932
LJ        -0.0220044       -0.167668       -0.772613
LJ          0.763774         1.64679         -0.4708
LJ           2.24601        -1.21305       -0.165805
LJ          -2.18188         1.69572        -2.28036
LJ           1.28815        0.406013        -1.96079
LJ           2.08101         0.26883        0.781671
LJ         -0.123569         1.95268        -0.66168
LJ         -0.760938        0.290367         -1.5595
LJ          -1.09238        -2.05254         -2.2692
LJ          0.256117       -0.318646        0.832301
LJ          -1.38645         -1.6351        -1.29805
LJ         -0.499327        -2.29254        0.481799
LJ           2.18342       -0.383401         1.58152
LJ         -0.840404       -0.448175        0.147797
LJ           1.79519        0.414938         1.97978
LJ             1.085        0.885782         1.30701
LJ           2.37537        -1.67992        -1.12594
LJ         -0.490791        0.464272        0.730375
LJ         0.0431216       -0.945929        -1.42833
LJ         -0.807737       -0.794732         2.25851
LJ          0.314137       -0.854623         1.99532
LJ         -0.645552         0.17259         1.91786
LJ          -2.00361         2.12177        -1.13788
LJ           1.83579         1.56752       -0.504395
LJ         -0.566945         -2.0103         1.48254
LJ          0.108921        0.790129        -1.44273
LJ          -1.71281       0.0682415        -2.27656
LJ          0.827684       0.0452338         1.96408
LJ           0.80395       -0.753028       -0.702077
LJ           1.43394         1.34891        -2.27812
LJ           0.66548     -0.00324442      -0.0618714
LJ           1.66802       -0.601843        -1.06385
LJ           1.37196        -1.65124       -0.679205
LJ           1.26656         1.63848        0.639368
LJ           1.82289         -2.2838         2.35887
LJ          -2.07177        0.740897         1.74463
LJ          0.667545         1.73238         1.66705
LJ             -1.52         1.09929        -2.19639
LJ          -1.35891        -1.38722         1.65131
LJ            1.2766        0.825214       0.0973596
LJ           2.09014       -0.990204        -1.88779
LJ          0.581017        -1.97429        -1.05808
LJ          -2.02868       -0.695215        -1.08718
LJ          0.849956       -0.966209         1.23361
LJ           2.20138         2.16462        0.836735
LJ         -0.397689        -1.90652        -1.30292
LJ          -2.23133         -1.5933         1.01612
LJ          -1.34795          1.8242         1.90479
LJ         -0.346445        -1.22294       -0.209375
LJ         -0.774397         1.20215        -1.07708
LJ           1.99725        0.298102       -0.844512
LJ          0.537162        0.906216        -2.30215
LJ         -0.176026         2.20827         2.22202
LJ          0.241871         1.69824        0.328575
LJ         -0.554838         1.03815        -2.36485
LJ         -0.400786         1.79301         1.20349
LJ           2.23528         1.20992        -1.53486
LJ          -1.17793       -0.260358         1.14452
LJ          -2.34277        -1.34517         2.00799
LJ          -1.15337        -1.33984        0.507679
LJ           1.20355      -0.0271601         1.06787
LJ          0.802256        -0.38263        -1.70172
LJ        -0.0640567       -0.198851        -2.07139
LJ            1.6995        -1.99571          1.4485
LJ          -1.96186        -0.78183        0.572312
LJ          -1.97531         0.84259       -0.347951
LJ          -1.57512        -2.32786        0.919685
LJ          -1.76008        -1.83904       -0.153995
LJ         0.0981977        -1.45575        0.713198
LJ         -0.807921         1.55882        0.275214
LJ           1.19711        -1.55452        -1.76395
LJ           1.48439         2.19863        -1.19934
LJ        -0.0997092        -1.63707        -2.15061
LJ           0.54375        -2.26991        0.992005
LJ           2.20787         -2.3231        -0.25972
LJ         -0.025004         1.84675        -1.59097
LJ         -0.424455       -0.848489         1.35813
