108
#Comment!
LJ           1.11782        -2.25642        -1.08375
LJ          0.893089       -0.666865         2.01881
LJ          -1.55479        -2.02387        -0.13817
LJ          0.518247         2.28295       0.0907291
LJ          -1.68562        0.109845       -0.805149
LJ           1.30827        0.777605        -0.99686
LJ           1.90962        0.837624        0.116379
LJ         -0.976385       -0.163789        0.035194
LJ           1.41119       -0.893513        0.850881
LJ           1.90982       -0.980947       -0.141969
LJ          0.216248         1.59285        0.804875
LJ         -0.881111        -1.36287        0.166364
LJ           2.32966        -1.46074        -1.86152
LJ          -1.17623        0.405418        0.847761
LJ         -0.766983         1.40364        0.915704
LJ          0.902296      -0.0130729        0.911036
LJ           1.75488           1.738        -1.13749
LJ         -0.669184        -1.16079       -0.797184
LJ         0.0749316       -0.372374       0.0537027
LJ          -2.01428         2.02504        -1.13571
LJ          -1.71187        -2.04959        -2.26541
LJ          -1.84159        -1.18213         1.75444
LJ         -0.245993       -0.674147        -1.79679
LJ           0.71014        -0.15594        -1.89544
LJ          -1.00344       0.0185758        -1.70585
LJ          -1.22521       -0.785499         0.97398
LJ           2.28513          1.7001         1.33071
LJ         -0.354329         1.70662        -1.09004
LJ          -2.20036        -1.04225         0.67768
LJ          -1.80015         1.64462         2.37966
LJ           1.21479         1.70373        0.646956
LJ        -0.0803395        0.818256        -1.41734
LJ          -1.66217        -1.56408        -1.06875
LJ           1.18803      -0.0456828        -0.06114
LJ           2.29541        0.925226        -0.80936
LJ         -0.163906        0.672564         2.37435
LJ          -1.36692        0.878282         1.73785
LJ           1.54234        -1.35195       -0.982242
LJ          0.976901        -1.60438         1.78932
LJ          -1.08807          1.6072       -0.391517
LJ          -2.29212       -0.501726        -2.21497
LJ         -0.688556        -1.62302        -1.90783
LJ           2.25297        -2.00024       -0.616118
LJ            -2.134       -0.608016        -1.25494
LJ          -1.53239         2.04701         1.46405
LJ           1.49962         0.93243         1.21067
LJ           2.24071        -2.11893         1.75017
LJ           1.26724       -0.209436        -1.14343
LJ          0.492964       -0.752225       -0.932696
LJ           1.52595        -2.21727       0.0351326
LJ          0.951875        -1.19298      -0.0710443
LJ         -0.425838        -0.19319        0.881218
LJ           -0.6541          2.2499         0.29142
LJ           -1.9722       -0.206168        0.281447
LJ           2.27754         1.16718        -1.83372
LJ           1.85044        -1.03036         1.76626
LJ           -0.9502        0.122433         2.10344
LJ           1.51243       -0.680571        -1.98032
LJ           1.87173       0.0754034          1.8359
LJ          0.487451        0.487894        -0.43418
LJ           1.74982        0.315755        -1.97692
LJ         -0.918692       -0.878632         2.04125
LJ           1.60933        -1.89709         1.01763
LJ          0.611622         1.58206        -1.19651
LJ           1.16488         1.45473         -0.3097
LJ           2.34637         1.81321       -0.229833
LJ          0.326753        -2.33824         2.20468
LJ          -1.10697          -1.797         1.81482
LJ          -2.13275        0.826053        0.970226
LJ         -0.844197         2.04937        -1.92906
LJ          -2.37786        -2.29338        0.558841
LJ           0.62056        -1.17221        -1.93956
LJ          -1.58602         1.22728          -1.182
LJ         -0.344401       -0.175539       -0.951986
LJ         0.0149666       -0.356558         1.71078
LJ           1.36106        -1.76774        -2.01688
LJ          0.814788        0.362074         1.84996
LJ          0.148684        -1.32438         1.39579
LJ          -1.55383         1.90255        0.462777
LJ         -0.195092         1.47886       -0.113146
LJ          -1.94293        0.348038        -1.86311
LJ           1.34215           2.195          1.7134
LJ           1.61427          1.2832         2.15182
LJ         0.0955046         1.57234        -2.07529
LJ         -0.669539        0.725975       -0.676805
LJ          0.759749         1.40788         1.71377
LJ          -0.41642        -2.24903         1.22023
LJ          0.794371        0.848553        -1.83421
LJ          0.874549        0.773489        0.360732
LJ          -1.41871        -1.83352         0.90089
LJ         -0.249706        0.543317        0.237142
LJ          -1.83662      -0.0890126         1.66312
LJ          0.193494        -1.62939        -0.53042
LJ          -1.42783       -0.910455        -1.87162
LJ          0.648426        -2.28239         1.04433
LJ         -0.159842        0.564054         1.44992
LJ         -0.506632         1.76783         1.87007
LJ          -1.63766        0.759596       -0.172475
LJ          -2.28189        0.825226          2.0115
LJ          0.109043        -1.47158        0.401514
LJ           2.12707     -0.00836635       -0.373158
LJ          -1.03016        0.958028        -2.00229
LJ           0.19819        -1.98304        -1.54101
LJ           2.18091         2.23212        -1.91538
LJ         -0.901257          -2.169         -0.8913
LJ           1.97454     -0.00819943        0.770901
LJ           1.03793          2.0524        -1.95497
LJ          -1.54626       -0.844119       -0.388762
