108
#Comment!
LJ          -2.28457        0.278006        -1.21274
LJ           2.33894       -0.377939       -0.282124
LJ           2.30092        0.505313         1.63134
LJ           1.96665         1.86228         0.38432
LJ          -1.82247         1.17519        -1.30085
LJ           1.45647          2.2767         1.14079
LJ          0.457178        -1.91463        0.770782
LJ          0.857134        -1.54472        -0.19935
LJ          0.319233        -1.90255        -1.06047
LJ          0.475244        -1.20194        -1.88587
LJ           2.06052      -0.0596153        0.722758
LJ          -1.28696        -2.32708         1.76614
LJ           1.77799         1.07913        -1.77232
LJ          -2.06465        -1.62549         2.29381
LJ         -0.674527         1.38602        -0.32797
LJ          -1.97715        -1.52434       -0.660258
LJ          -1.09919        -1.39904         2.07932
LJ           1.16673         1.77137          2.1167
LJ           1.82369        -1.64371       -0.567986
LJ          -1.54367         -1.6552        -1.55732
LJ            -1.735       -0.713445         -1.7486
LJ           0.64715         1.60414        0.794813
LJ          -2.22391        -1.96615        0.199805
LJ           2.18605        -1.83335        -1.64336
LJ           1.92227        -1.39737         1.55936
LJ           -1.9272         -1.4398         1.34068
LJ          0.272893         1.04827       -0.156341
LJ           1.08836        -0.98342         1.11036
LJ          -1.13112         2.18081        0.818227
LJ          0.544389         1.99351         -1.5693
LJ          -1.81817       -0.156188         1.14725
LJ         -0.153003        -1.83516         2.03628
LJ          -1.50589         1.40007         1.88749
LJ          0.319525       -0.846542        0.347954
LJ          0.660359       0.0216786       -0.416927
LJ           0.61948       -0.717655         2.04646
LJ          -0.51176        -1.53423        -1.83638
LJ           1.02799         1.32311       -0.845659
LJ           2.17586         1.48486         2.17947
LJ            1.6601        -1.50389        0.487731
LJ           -1.1242        -2.26463       -0.218032
LJ            1.6591         1.13651         1.11091
LJ           1.37223        -2.27313        -1.93421
LJ           2.13571         1.96036        -1.48465
LJ          -2.07281       -0.420568         2.05313
LJ           1.40264       -0.525365        0.122491
LJ           0.87361        -1.82207         1.99407
LJ           1.48236        -1.19092        -2.18176
LJ           1.99282         1.35001        -0.54659
LJ           2.07782     7.24436e-06        -2.10418
LJ          0.483198         0.22072         2.37186
LJ           1.33577         1.02741          0.1789
LJ         -0.110074         1.30825         -1.1178
LJ           1.13289        -1.59825        -1.33274
LJ          -1.78903        0.600124        -2.16422
LJ         -0.461438      -0.0255284       -0.695845
LJ           1.31567         2.29794       -0.916816
LJ           1.11693       -0.317879        -1.78982
LJ          0.508293        0.394139        0.575845
LJ         0.0655646        -1.10514          1.3086
LJ        -0.0620736         1.61428        -2.26303
LJ          0.856413        0.459986        -1.28081
LJ          0.275272         2.18949         1.49357
LJ        -0.0863662       -0.067786         1.54952
LJ         -0.992213        -0.69146         1.40998
LJ         -0.361638        0.233699        -1.86346
LJ           2.31727         0.72683        0.153813
LJ         0.0265532        -1.01989       -0.602476
LJ          -1.86722         2.16606        -2.11759
LJ          -1.24102         0.64949         1.28902
LJ          -2.23963        -1.01704        0.522485
LJ         -0.943546         1.27349        -1.73384
LJ          0.419804         2.18515       -0.439346
LJ         -0.818458         2.26136        -2.01791
LJ            0.5595        0.959367         1.62863
LJ           1.01806       0.0184286         1.32747
LJ         -0.273566       -0.655015        -2.27558
LJ          -1.66996        0.708961       -0.467038
LJ         -0.887584       -0.940594      0.00295527
LJ         -0.220749         1.95322        0.403541
LJ          -2.06442         2.12525         1.23743
LJ          -1.57177       -0.129501        0.180904
LJ          -1.45596         2.16068        -1.25188
LJ           1.61916        0.387763        -0.46561
LJ          -0.62199          1.6758         1.60026
LJ           2.00321        -0.95449         -1.2261
LJ           1.25347         2.36644       0.0607101
LJ           -1.5643       -0.606043       -0.705358
LJ           -1.1395      -0.0318341         2.10834
LJ           1.36959        0.586434         2.14858
LJ          0.742667         1.12411        -2.00529
LJ          -1.24498         0.38222        -1.32992
LJ          -2.24693         2.24666       -0.616559
LJ          -1.13928        0.848129        0.379997
LJ         -0.129973        -1.79001       0.0104523
LJ         -0.537474        0.824628         2.10478
LJ         -0.439189         2.30022        -1.03065
LJ          -1.96672         1.19372        0.833792
LJ          0.220063       -0.369811        -1.32149
LJ           1.75311       -0.468429         1.79291
LJ         -0.887568        -1.52287       -0.854153
LJ           1.13501       -0.727052       -0.817078
LJ          -1.65729         1.60422      -0.0189243
LJ           2.03145        -2.31335         1.94616
LJ         -0.878051        -1.55661        0.808736
LJ         -0.789536       -0.628592        -1.37578
LJ         -0.314407        0.922984           1.037
LJ         -0.470331     0.000617907        0.573033
