108
#Comment!
LJ          0.685626        -1.89497        -1.39355
LJ            1.5895       -0.501329         2.00117
LJ         -0.815963        -2.02969       -0.187752
LJ          0.215188        -2.28081       -0.252522
LJ         -0.762273        -0.35584       -0.870746
LJ           1.48049        0.593058        -1.87573
LJ           1.26201         0.36949       -0.727919
LJ         -0.575698      -0.0580138       0.0726333
LJ           1.09091        -1.57925        0.589322
LJ           2.10911        -0.98837        0.198748
LJ          0.422086        -2.29676         1.00845
LJ         -0.995884        -1.36317       -0.985138
LJ           2.24259        -1.19718         2.25417
LJ          -1.10986        0.614262        0.960533
LJ         -0.918488        0.815019       -0.146435
LJ            0.0656        0.186903        0.778803
LJ           1.54375         1.59405        -1.50007
LJ         -0.619595       -0.673242        -1.81211
LJ          0.300443       -0.681838        0.270837
LJ          -2.23162         1.74551        -1.04221
LJ          -1.56254        -2.14625        -2.17271
LJ          -2.08974       -0.344709         2.09593
LJ         -0.235966        0.201064         -1.9691
LJ          0.915631      -0.0912847        -2.30152
LJ          -1.98316        0.736187        -2.05738
LJ          -1.38199       -0.461756         1.02712
LJ           2.24474         2.34424         1.28565
LJ         -0.140227        -2.37765        -1.11701
LJ           2.35122       -0.401928         1.08434
LJ           -1.2422         1.73912         2.37081
LJ            1.5268         1.98277        0.652387
LJ          -0.34633         1.29516        -1.78052
LJ          -2.26584        -1.54058        -1.54521
LJ           1.28126        -0.30455      -0.0404901
LJ          -2.05661        0.902613        -0.19057
LJ          0.530414         1.83847        -1.77626
LJ          -1.78793        0.448038         1.59922
LJ           1.86314        -1.21014       -0.824433
LJ           1.27636        -2.09128          1.3758
LJ           -1.3088         1.68299       -0.295013
LJ           1.94259         -0.3062         -1.6447
LJ          -1.55091        -1.06043        -2.06071
LJ           1.73556        -2.11113       -0.033086
LJ          -1.91258       -0.586448        -1.19518
LJ          -1.55178         2.17407         1.51027
LJ           1.15318        0.704259        0.191626
LJ          -1.69994        -1.26551         1.62093
LJ           1.12201       -0.564759        -1.02211
LJ          0.535379       -0.817212        -1.72334
LJ           1.03673         2.19698        -0.67833
LJ          0.948917        -1.45687       -0.534127
LJ         -0.375837       -0.671181         1.03751
LJ         -0.335043          2.0952        0.517212
LJ          -1.73808       -0.882612       -0.269211
LJ          -2.29244         1.69388         -2.0248
LJ           1.96681        -1.42664         1.14168
LJ          -1.04615       -0.460212         1.89912
LJ           1.52598        -1.19124        -1.74629
LJ           1.61806        0.267785         1.22508
LJ          0.587254        0.713757        -1.56797
LJ           2.04408        0.671021         2.03611
LJ         0.0343889       -0.805772         2.15657
LJ          -2.11665        -1.79743        0.408859
LJ          0.727281         1.25372       -0.746249
LJ           0.63853         1.70225        0.238011
LJ           1.75655         1.47693       -0.390932
LJ          0.331794         1.78492         1.81533
LJ         -0.803733        -1.55677         2.19439
LJ          -2.35547        0.604514        0.720594
LJ         -0.462744         2.27882        -2.17271
LJ           -2.3231         1.94785        0.101016
LJ          0.320289        -1.91449         2.08276
LJ          -1.29998         1.39932        -1.49135
LJ          0.220911       -0.125764        -1.08082
LJ          0.403991        -1.22321         1.27324
LJ          0.968853        -1.21177         2.19899
LJ           0.73286      -0.0847467         1.48619
LJ            -0.911        -1.50871         1.14816
LJ          -1.67613         1.34097        0.623083
LJ         -0.168522          1.4291       -0.356888
LJ           2.23478        0.636901        -1.23109
LJ           1.79529         1.27975         1.31784
LJ           1.35098         1.52875         2.25253
LJ           1.18849        -2.24595         2.32883
LJ          -0.63439        0.639346        -1.09487
LJ          0.736605        0.856001         1.17078
LJ         -0.559194         2.31795         1.52689
LJ          0.553295        0.934045         2.23698
LJ         -0.127292         1.14612        0.656167
LJ          -1.28354        -2.31186        0.637142
LJ          0.229248        0.444576       -0.250953
LJ          -1.58526        0.123188         0.25267
LJ        -0.0873164        -1.25297       -0.538456
LJ           -1.3432       0.0572959        -1.73866
LJ        -0.0965135        -1.62564        0.468121
LJ         -0.212008        0.380876         1.71398
LJ         -0.548984         1.32245         1.58606
LJ          -1.61354        0.296983       -0.808209
LJ          -2.07142          1.3707         1.78895
LJ          -0.75764       -0.973711        0.158425
LJ           2.19036        0.101459       -0.312379
LJ          -1.04189        0.731329         2.33538
LJ         -0.123519        -1.53408        -1.84344
LJ           2.13397        -2.22858         2.27694
LJ          -1.27712         2.37637        -1.13147
LJ           1.40766       -0.665835        0.906529
LJ           1.66802        -2.19697         -1.3656
LJ           -2.0283        -1.97809       -0.561962
