108
#Comment!
LJ           1.33679        0.788818         1.16166
LJ          -1.13107        0.425817       -0.722116
LJ           2.08123        -1.40773          2.2148
LJ          -2.31397       -0.345127         1.94715
LJ           1.51442       -0.448256        -1.84898
LJ           2.02303        -1.98445       -0.710398
LJ          -1.89586        -1.90779       0.0787832
LJ          -2.10993         1.71717         1.53207
LJ          0.873939        -2.14482        0.882792
LJ         -0.397103         1.64758        -1.58542
LJ          0.246202         1.95916       -0.895999
LJ           2.27639        0.629406         1.47113
LJ           1.73476         -1.6189        0.941845
LJ           0.98817        -1.14421         2.30597
LJ          0.451659        0.928606         1.87749
LJ          0.829853         0.72377        0.208772
LJ         -0.129022        -1.08022        -2.20457
LJ           1.32431         1.43711        -1.56313
LJ         -0.354985          1.3691          2.2254
LJ           1.13733     -0.00180042        -0.50536
LJ          0.262266       -0.683839       -0.551701
LJ           1.44683          1.0496         2.26908
LJ         -0.846885        0.693782        0.247757
LJ         -0.375314         1.20824           1.217
LJ         -0.687377       -0.292509        -2.27989
LJ        -0.0699247        0.260594        0.623837
LJ          -1.83404          1.7155        0.581684
LJ         -0.204421        0.842067        -1.04925
LJ          -2.06914         -1.1881       -0.602209
LJ           1.94151        -1.01023       0.0641371
LJ          0.311639        0.882678        -1.91453
LJ          -2.21515       -0.839204        -1.91493
LJ         -0.618898       -0.299943      -0.0691541
LJ          -1.20498        0.962086         2.03569
LJ          0.969509         1.96583         1.69675
LJ         -0.515912        -2.23458        -2.13488
LJ         -0.135357       -0.726474         1.58286
LJ          -1.43109         1.30688        -1.29731
LJ          -1.13415        -1.29533        0.520288
LJ          -1.56382         0.19322        -2.01424
LJ          0.319124         2.01769        -2.32317
LJ           1.19145        -2.15659      -0.0323184
LJ          -2.24164        0.137424        -1.08603
LJ            1.5635       -0.158532        0.615823
LJ           1.55266        0.482579        -1.27668
LJ         -0.828352          1.6665         0.42838
LJ           2.11847         1.78847       -0.488783
LJ         -0.446983        -1.37707       -0.194975
LJ           2.24655        0.908471        0.558161
LJ          -1.25738       -0.310652        0.877533
LJ           1.72862        0.747517       -0.323967
LJ          0.184287        0.306812       -0.332972
LJ           1.32253         1.57073       0.0856257
LJ           -1.1498         1.95076         1.69416
LJ          0.729457       -0.148106         1.23891
LJ          0.320541        -1.91216        -1.60647
LJ           2.21293      -0.0948739       -0.101068
LJ          0.388098        -1.81891       -0.594449
LJ         -0.234319        0.248465         1.66368
LJ          0.121524       -0.727916        0.646093
LJ          0.299874        -1.86568         2.05747
LJ           1.17822        -1.22919       -0.558921
LJ          -0.67207        -1.13397        -1.19891
LJ           1.82097        -2.26099          1.6729
LJ           1.72125         1.63886         1.00654
LJ          -1.35939      -0.0447127         1.79104
LJ          0.528862       -0.241305         2.18711
LJ          -2.21282      -0.0220608        0.800653
LJ           1.40113        0.128181         1.93222
LJ           2.06434         2.28384        0.428906
LJ         -0.879481        -1.79828         1.67903
LJ           1.16201        -2.15009        -2.19315
LJ           0.69227       -0.994291        -1.51626
LJ         -0.514233       -0.063716        -1.28882
LJ           1.16656        -2.25284        -1.17888
LJ         -0.744998         1.57531       -0.601577
LJ          0.821306         1.08132       -0.740657
LJ          -2.10099         1.13681        -2.04793
LJ          -1.53439        0.660275        0.914621
LJ         -0.190859        -1.70501        0.726228
LJ          -1.68254        -1.08432         1.89972
LJ          -1.46486       -0.507505        -1.27242
LJ           1.53198       -0.768127         1.45767
LJ          -1.77867        -1.70889        -1.37394
LJ          -2.03058        -2.12408         2.29063
LJ           2.32624         2.30684        -1.55382
LJ         -0.557654        -2.20432        -1.07823
LJ           2.08145        0.333088        -2.13565
LJ          0.638747         1.52069        0.771551
LJ          0.688863        -1.27717         1.32877
LJ          -1.53415         2.18612       -0.704407
LJ           1.88996       -0.726015       -0.983764
LJ          0.633641      -0.0174352        -1.44401
LJ          -2.09561        -1.06281        0.791228
LJ         0.0741106         2.19348        0.121329
LJ           2.30848         1.11008        -1.07603
LJ           2.02256         1.76666        -2.32744
LJ         -0.689462        0.740376        -1.90472
LJ          -1.97477        -2.13605         1.17514
LJ          -1.48709         2.16311        -1.79673
LJ        -0.0405406         1.22331      0.00405591
LJ          -1.88558        0.857554       -0.283058
LJ           1.65017        -1.39382        -1.63222
LJ          0.963154        -1.23998        0.392739
LJ          -1.07397        -1.45496        -2.01914
LJ         0.0886722         2.09364         1.38007
LJ          -1.59975       -0.375386       -0.103729
LJ         -0.960068        -2.20905       0.0495383
