108
#Comment!
LJ          -2.32794         1.52312        -1.49779
LJ         -0.557708         1.18929       -0.497299
LJ         -0.213863         2.02634        0.753166
LJ          -1.79546         -1.6073         1.49287
LJ         0.0876029       -0.439186          1.3569
LJ          -1.42139         1.63432        -1.90946
LJ          -2.32701         1.76143        0.441654
LJ          0.592978         0.44356         1.93386
LJ         -0.245845        -1.44668         1.30715
LJ         -0.937738       0.0375243         1.25393
LJ          0.514084       -0.516253         2.35529
LJ          -1.06664       -0.248886         -1.7663
LJ           1.54303        -2.25958       -0.268762
LJ           1.09045       -0.473579        -1.51111
LJ          0.741765         1.20416         1.13752
LJ         -0.608942        -0.59007        0.546311
LJ          -1.21354        -0.82844       -0.221815
LJ          0.686953       -0.361696       -0.414697
LJ         0.0708718       -0.470977        -1.39558
LJ         -0.760227       -0.972464        -1.14541
LJ         -0.154307       -0.829464       -0.289507
LJ           1.89076       0.0217991       -0.216184
LJ          0.672198        -2.32433         0.26052
LJ           -1.6618         1.02864       0.0997966
LJ           -1.5271      -0.0192051         2.06501
LJ          -1.83454        0.410661         1.01493
LJ          -2.31385         1.98487       -0.581584
LJ          -1.92457         0.61252        -1.77346
LJ           2.01608       -0.412915        -1.01564
LJ           2.17321        -1.06738      -0.0271124
LJ         -0.322661          1.8879        -1.95167
LJ          0.689814        0.421971         -1.6663
LJ          0.492524        -1.32335        -1.47158
LJ          -1.37314         1.35951         1.22853
LJ           1.80707        -1.87211         1.78992
LJ         -0.902754         1.06759         2.17124
LJ          -2.32399       -0.322178        -1.99693
LJ          -1.86672         2.15905         1.14568
LJ           -1.6586         1.02599       -0.901241
LJ         -0.807846         2.02193        -0.97039
LJ           1.50698        0.684189         1.55343
LJ         -0.931954        -2.18205         1.12908
LJ          -1.76163        -1.74971       -0.391664
LJ            2.0327       -0.123747         0.76778
LJ           1.34223       -0.657019        0.268293
LJ          -1.01755       -0.943065         1.65832
LJ          0.481043        -1.75543       -0.569797
LJ          -2.33469        -1.43182        -1.80722
LJ           1.44942       0.0198517        -2.29953
LJ           1.44881        -1.47314        -1.63378
LJ          0.152846        0.532426       -0.774623
LJ         -0.161678         2.09326       -0.232556
LJ           0.70022         2.26609         1.43188
LJ            2.2552         1.43292          1.3943
LJ          0.916217        0.563591       -0.074249
LJ         -0.659802        0.928725        -1.60861
LJ          -0.77399        0.101849        -0.70104
LJ         -0.457587       -0.845565        -2.19574
LJ           1.08117         1.26185        -1.86074
LJ           2.06591        0.854701        0.654558
LJ         -0.575135        -2.03457          2.0781
LJ           1.09123           1.103         -0.8657
LJ          0.064974        -2.24962        -1.38797
LJ          0.366837        -1.57052         2.20848
LJ          0.287481         1.45786        -1.33743
LJ          -2.33013        -1.93081        0.548115
LJ          0.270722         1.25486       0.0373039
LJ          -1.72068       -0.598953         1.05476
LJ           2.15028         1.04672       -0.383295
LJ            1.5929         1.99295         0.88003
LJ          0.799648        0.220949        0.861246
LJ           2.33274       0.0245426         1.72637
LJ           1.28332        -1.19363       -0.607915
LJ          0.935721         2.37724         -2.1739
LJ           1.36626        -1.05828         2.22139
LJ           0.11232         1.11105        -2.22863
LJ          -1.23772         2.25699       0.0257523
LJ           1.93142        0.871936        -2.19754
LJ          -1.41348        -1.47268        0.541375
LJ         -0.426649        0.146983         2.14578
LJ           2.11211        -1.10604        0.965786
LJ           -1.9714        0.139126         -0.6046
LJ            1.1792       -0.559239          1.2575
LJ          0.724284        -1.47803         1.21829
LJ           2.31553         1.72295         2.30043
LJ          -1.80106        -2.15652        -2.25051
LJ        -0.0192157        0.201054        0.263557
LJ           1.31639          1.5973       0.0374911
LJ         -0.289535        0.933937         1.37198
LJ          -1.42132        -1.12771        -2.07462
LJ         -0.723396        -1.85129       -0.617503
LJ           2.36809         -1.0984         2.07184
LJ           1.95176        -2.33287        -1.86494
LJ           1.47756        -1.64608        0.494447
LJ          0.397781       -0.864406        0.496383
LJ           1.06567         2.31273        -1.17463
LJ           1.38582         1.78228         1.83679
LJ          -1.89004        0.889829         1.93153
LJ           2.15552        -1.67498       -0.872735
LJ          -1.83934        -2.20799        -1.27836
LJ         -0.712227        0.931009        0.429708
LJ           1.94018        0.587311        -1.24551
LJ         -0.845393        -2.05234        -1.67435
LJ          -1.64292       -0.805792        -1.11766
LJ          -1.20732         2.00546         1.96913
LJ          -0.11857         1.81902         1.84873
LJ          -1.31248        0.109862        0.225971
LJ         -0.452027            -1.7        0.330762
