108
#Comment!
LJ          0.938013         2.09726        -0.12481
LJ         -0.627093        0.832458        -2.23629
LJ         -0.158843        -1.05342        0.201774
LJ          0.300045       0.0557146       0.0382486
LJ          0.890558        0.939659       -0.293864
LJ           1.39807        -1.00906         -2.2846
LJ           1.03552         2.16243        -1.18382
LJ          0.454996        -1.85038       0.0958256
LJ           1.40717       -0.844631        -1.19956
LJ         -0.625788        -0.79979        -1.43798
LJ           1.78296        -2.09571       -0.703108
LJ           1.03473        0.824524        0.776855
LJ           1.89512        0.238955         2.25924
LJ           1.17749      -0.0926436        -1.83558
LJ           1.78272         1.78364        0.424485
LJ         -0.969322         1.36985        0.706356
LJ           2.19305       -0.381744        -1.57489
LJ          0.657434       -0.721564       -0.554684
LJ        -0.0715238         2.07825        0.170633
LJ          0.288573         1.88039        -1.93192
LJ          -1.35191        -1.44189         -2.2763
LJ          -1.23064          1.3255       -0.313245
LJ           1.21597        -2.07855        0.717651
LJ           1.65531         1.54443       -0.584085
LJ        -0.0599613          1.2427         1.07932
LJ         -0.645103        -1.81366         1.79271
LJ           2.37259        -1.36715       -0.872274
LJ           2.34752       -0.420278         1.72199
LJ         -0.196934        0.362916         1.66497
LJ          0.820909        -1.60955       -0.813696
LJ          0.163615        -2.31899         1.24076
LJ           1.67107         -1.2435       -0.150502
LJ           2.18782         1.67581         2.05039
LJ           0.97795        -2.13108        -2.07973
LJ            1.0955        0.410265          1.7536
LJ         -0.445734       -0.402502       -0.460185
LJ          0.484732        -1.17612         -1.7238
LJ          0.114899        -2.17195        -1.21764
LJ           2.33882        -2.23923         -2.3811
LJ          -2.12349         1.36537       -0.751083
LJ         -0.977191         0.07993        -1.10936
LJ         -0.832364         1.95264        -1.73158
LJ           1.48775         1.44461         1.38258
LJ          -1.89862        -1.63439         1.66903
LJ          -1.95131        0.194912        -2.15685
LJ          -1.09248        0.306692         1.26606
LJ          -1.18898       -0.964928         1.53537
LJ           2.25651       -0.238849       0.0677986
LJ           1.88457         2.01147        -1.71499
LJ          0.176403         1.48657       -0.802067
LJ           1.45335        -0.16038        0.600422
LJ          -2.32969        -1.21769        -2.28302
LJ          -2.00908        -2.27983       -0.564916
LJ          0.514168        0.722608        -2.16178
LJ          -1.95282         1.91124        -1.55479
LJ          -1.19017        -1.57436       -0.447494
LJ           1.81762         -1.7269        -1.68772
LJ           -1.8724         1.62168          1.2611
LJ          -1.73327       -0.608257       -0.447223
LJ           1.19393        0.111693       -0.817737
LJ         -0.319832       -0.894452         2.34886
LJ          -1.88338         0.61717         1.71784
LJ           1.99809        0.580022         1.15299
LJ         -0.239328         2.02095         2.01771
LJ           1.99771        -1.24404         1.22936
LJ          0.892389        -1.03978        0.564878
LJ        -0.0992782         1.11284      -0.0113819
LJ          0.714833         1.81538        0.820001
LJ          -1.66853         1.33652         2.30051
LJ          -1.53694         1.01087        -1.40916
LJ          -1.76813        0.740767        0.619168
LJ          -1.23045         2.29701       -0.039521
LJ          -2.06468         1.70544        0.173253
LJ         -0.248345      -0.0191668        -1.95885
LJ          -1.44569        -2.00526        -1.38487
LJ         -0.617255         2.13385       -0.795945
LJ           1.36408         1.21864        -2.31587
LJ          -1.63408        -0.80095        -1.52165
LJ           2.15078        -2.01116         0.26708
LJ           0.59066         1.46441          1.9907
LJ           2.16657        0.978725        -1.75119
LJ           2.12373        0.429642       -0.910764
LJ          0.299137        -1.67989         2.10063
LJ           -2.1242        -1.15467        0.501879
LJ           2.06851        -2.23603         1.36744
LJ         -0.961945         2.20878          1.1894
LJ          -1.41219        -2.37245         2.28893
LJ          0.513358      0.00324917         1.05333
LJ            0.3519        0.424067         -1.1579
LJ         -0.217367        -1.46642       -0.689467
LJ         -0.534245        0.947291        -1.13786
LJ          -1.15656       -0.854954        0.301426
LJ          -1.14432        -0.26419        -2.37988
LJ        -0.0152481        -1.38404         1.18064
LJ         -0.447893       -0.272662        0.882799
LJ           2.08861        0.769645        0.191061
LJ         -0.757224        -1.76049        0.483277
LJ          -1.87771        -0.25364        0.844574
LJ          -0.90582         1.27682         1.68641
LJ         -0.533872        -1.74886        -1.83347
LJ           1.00619         -1.4701          1.4356
LJ          -1.67643        0.432655         -0.4249
LJ           1.05229           2.357         1.71448
LJ         -0.838821        0.426428        0.193824
LJ           1.16597        0.972614        -1.36851
LJ           1.33898       -0.573977         1.50551
LJ          -1.82315        -2.20727        0.717864
LJ          0.519534       -0.298237         2.02664
