108
#Comment!
LJ           1.67864       -0.421118       -0.541353
LJ         -0.530486        -1.14869        -1.51495
LJ         -0.437966        -2.28399        -1.62154
LJ          0.603775        -1.38416         1.87369
LJ           2.13931       -0.603642        -1.51558
LJ          -1.48243        0.911859        -1.40272
LJ          -1.57146       -0.135419        0.701769
LJ         -0.824766        -0.13266        -0.25598
LJ           1.05847          -1.479        -1.24121
LJ          0.353203        -1.80549        -1.89027
LJ           0.80787         2.05429       -0.310539
LJ          0.292577         2.29109         0.48134
LJ           1.82377         1.15343        0.831676
LJ         -0.171771       -0.755172        -0.63974
LJ          -1.22379         1.03647         1.36054
LJ            1.3645       -0.657639         1.51387
LJ          -1.85233         2.00259         1.58463
LJ          -1.98567       -0.102944        -0.94254
LJ          0.675254         1.11323       -0.975418
LJ          -1.75114        -1.01719      -0.0237655
LJ         -0.970694       0.0831971        -1.24191
LJ           1.63078        -1.80709         2.03032
LJ          -2.20367         0.31674        -1.82623
LJ          0.362516       0.0705405         2.15566
LJ           2.34723       -0.911178         2.34788
LJ           2.17382          1.9761       -0.234782
LJ          -1.58903        -1.43167        0.906895
LJ         -0.605155        0.863684       -0.326755
LJ           1.47357        -2.35468        0.314249
LJ           2.19145         2.05604         2.29257
LJ           0.47056        -1.24379        0.636421
LJ         -0.238782         0.76261        -1.32469
LJ           1.58744         2.09376         1.51755
LJ             2.032        -1.37332       -0.290617
LJ           1.83507         1.35852        -1.78896
LJ         -0.295104        0.803022         2.06232
LJ           2.02484        0.122631         0.98744
LJ         -0.187864         1.74251       -0.883385
LJ          -1.38612        -1.31306         2.34926
LJ          -1.01113        -2.01333         1.75833
LJ           2.06892        0.774536      -0.0831631
LJ          -1.50364       -0.529797        -1.82165
LJ          -1.10891        -2.10275       -0.926433
LJ           1.04188       -0.490925        -1.46694
LJ           1.11166       0.0617092        0.441109
LJ          -2.23976        0.801291         1.47484
LJ           1.22684         1.25813       0.0241091
LJ          -2.04334        -1.93577       -0.693421
LJ         -0.869147        0.541707        0.600664
LJ          0.123257        -1.90869       -0.815701
LJ         -0.306233        -1.43319         2.25562
LJ          0.384062       -0.777239        -2.12844
LJ         -0.161433       -0.636692         1.64446
LJ          -2.03836         1.93625        -1.42861
LJ            2.3659         1.02379        -0.99641
LJ         -0.724386       -0.898597        0.786036
LJ          -1.13651       -0.352529         1.51979
LJ          -1.96796      -0.0237579         1.98244
LJ           1.72848      -0.0833808        -2.30832
LJ            1.1397        0.324082       -0.508128
LJ           1.52041          1.6765       -0.868193
LJ          0.766635       -0.626485       -0.366996
LJ          -2.29204       -0.194548       0.0574655
LJ          0.798366        -1.75216       -0.138733
LJ          0.805469         1.56387        0.925607
LJ           2.12144        -1.97628        -1.73724
LJ         -0.319168         2.15616          1.2748
LJ           1.71816         1.20635         1.94173
LJ          -1.97593         1.21343         2.35337
LJ          -1.32058        -2.34775        -2.08005
LJ           1.61441        0.419313        -1.39987
LJ          -2.32921        -0.76013          1.2832
LJ         0.0976529        -0.18577        -1.40216
LJ          -1.23501       -0.855777       -0.908569
LJ         -0.153572        -1.63329          1.2847
LJ           1.16674         1.95494        -2.34099
LJ         0.0922706        0.188655       -0.497714
LJ           1.26877        -1.68709         1.10924
LJ        -0.0583348        0.218193         1.14866
LJ          0.298533        0.930098        0.162084
LJ         -0.885505         1.59251        -1.71744
LJ          -1.90941         1.04069        0.568729
LJ           1.02068        0.665449        -2.21592
LJ         -0.894694         1.68061         2.00819
LJ         -0.642009        -1.49757       -0.289697
LJ           1.14549        0.405615          1.4199
LJ         -0.147607         1.22849          1.0493
LJ          -1.19579        0.605773        -2.38069
LJ           2.23309        -1.76127        0.781753
LJ          -2.12676        -1.71357         1.81123
LJ         0.0156574       -0.431474        0.300116
LJ           2.25861         2.02579        0.752285
LJ            0.2685         1.64745        -1.91626
LJ         -0.513678       -0.217982        -2.22413
LJ          0.519497         1.41143         1.85962
LJ            1.4679        -1.01568         0.42062
LJ          -1.68293        0.627208       -0.318379
LJ         -0.544633         1.78941        0.157053
LJ          -1.48627         1.71339       -0.623371
LJ         -0.692159        -1.99587        0.629004
LJ          -1.31186         1.82511        0.811957
LJ          -1.88647        -1.44477        -1.57317
LJ           1.62454        -2.15031       -0.763056
LJ        -0.0887631         2.35073         2.19767
LJ          0.625373        -2.30326         1.51506
LJ          -1.77038        -2.28029        0.186233
LJ          0.852564         2.21493        -1.35395
LJ           1.34272       -0.987292        -2.27923
