108
#Comment!
LJ          0.282491        -1.01379        -1.84491
LJ          0.885393        0.177625         1.51397
LJ           1.16612       -0.363283        0.527847
LJ          -0.92941        -0.63666       -0.685662
LJ         -0.637792       -0.376612         -1.8418
LJ           0.50932         2.04538       -0.518095
LJ           1.76139          1.6929        -1.06177
LJ         -0.793424        -2.36173        -1.88824
LJ           1.12727          2.2689         0.31048
LJ         -0.479395        -1.48439        0.982274
LJ           2.01864        -1.18118       -0.756172
LJ           2.29664        -1.18268        -1.83931
LJ          0.541347      -0.0202793        -1.64996
LJ          -1.74775        -1.79937        -1.49669
LJ          -1.24559        -2.25392       -0.691283
LJ          -2.21138       -0.561197        0.866598
LJ          -1.69733          0.1347         1.45333
LJ           1.79371         -1.0119         2.13696
LJ           2.28771        0.707851       -0.488142
LJ         -0.225345        -1.54447         2.12051
LJ          -0.78635       -0.246728         1.22316
LJ          0.676339        -1.73507        0.665632
LJ           2.00084       -0.169787        -2.04329
LJ           2.14272        -2.29002        -1.57485
LJ         -0.460983         -1.5031        -1.46529
LJ           1.17833         1.31249       -0.160819
LJ           0.16028       -0.079195        0.905685
LJ          -1.42417        -1.04079         1.26806
LJ          -1.66268         1.38118       -0.563674
LJ           1.98084        -2.03225         2.26234
LJ           2.34806        -1.56837         1.37154
LJ          -1.24611        0.448454        0.615078
LJ         -0.702537         1.83573        0.812204
LJ          0.212917         -2.0497        -1.95487
LJ           2.29757       -0.239545       -0.837121
LJ           2.30819        0.338472        0.576618
LJ         -0.633576        0.755951        -2.14199
LJ           -1.2836         1.41246        -2.28824
LJ          -1.08623        -1.76079        0.222541
LJ          0.606819         1.84071         2.37264
LJ          -1.71169         2.24965        0.401239
LJ          -1.78374          2.3772        -2.26286
LJ           1.27283        0.399277        -2.27754
LJ        0.00465384         1.58798         -1.6038
LJ           1.47478         1.37603        -1.95497
LJ          -0.31948        -1.40897       -0.384979
LJ          -2.11664        -1.48656        0.419387
LJ          0.850359         1.05831        -1.17954
LJ          0.892112       -0.527943         2.17361
LJ         -0.295566        0.425509         1.75546
LJ          0.402741        -1.08257         1.47737
LJ          -2.26115        -2.13565       -0.533592
LJ          -2.24123        0.620512        -2.29405
LJ          -0.76904         1.55359       -0.304451
LJ          -1.76808       -0.206679       -0.105691
LJ         -0.281457        0.889425        0.929296
LJ           1.66307        0.792081         1.66956
LJ          -1.99326        -0.82691         1.97799
LJ          0.150051        0.996395       0.0367655
LJ          -1.77744         1.96145         -1.3569
LJ          -1.24535          -1.486        -2.36129
LJ            2.0961         2.33109         0.77323
LJ           1.35701        -1.57303        -1.60676
LJ           1.60686         1.89877         1.81864
LJ            1.4674        0.350276       -0.109397
LJ           1.70466         1.40944        0.667032
LJ           2.00558       -0.460509       0.0663324
LJ           1.20385        -2.06509         1.42062
LJ          -1.14943         1.08598        -1.37466
LJ           1.22282       -0.696057        -1.37794
LJ           1.74177         0.51825        -1.30523
LJ           1.83511      -0.0995218         1.30786
LJ           1.07123       -0.723971       -0.383335
LJ          0.999208          2.2044        -1.52523
LJ          -0.15479       -0.508351         2.10541
LJ          -1.32085        -2.04702         1.21259
LJ          -0.28618         2.35835        -0.97054
LJ         -0.869074       -0.797242        0.356797
LJ           1.51234        -2.11811       -0.683982
LJ         -0.238165       0.0244484      -0.0660759
LJ         -0.257733         1.51009           2.135
LJ          0.665794        0.181989        -0.64692
LJ         -0.980025        0.584399       -0.545154
LJ           2.07202         1.88217      -0.0690097
LJ            1.3175        -1.10899         1.24067
LJ          -1.91227         1.19563        0.467472
LJ          0.261878       -0.862594        0.294661
LJ          -1.53864        0.194812        -1.30363
LJ           1.61431        -1.31785         0.25677
LJ         -0.779968         2.26468         1.91378
LJ          0.697003         1.24972         1.56119
LJ          -2.18423         1.05422        -1.38291
LJ           2.31456         1.57855         2.37461
LJ         -0.179831        -2.32856        0.172943
LJ           0.36767        0.832817        -2.28693
LJ          0.853196        0.709071        0.628674
LJ         -0.157671        0.535228        -1.18534
LJ          -1.11598         1.24146         1.49377
LJ          0.566793        -1.73762       -0.980799
LJ          -1.48366       -0.824103        -1.65146
LJ           -1.9425          1.9474         1.34629
LJ          -1.32809        0.024188         2.31274
LJ          0.347993          1.7013         0.72707
LJ          -2.10452         1.06302         1.60896
LJ          -1.66299        -1.26624        -0.42281
LJ          0.110345        -2.23434          1.3659
LJ         0.0534987       -0.531278       -0.922682
LJ          0.940659        -1.55786         2.23906
