108
#Comment!
LJ         -0.551177        -1.94687       -0.682396
LJ          -1.31697        0.343553         1.38227
LJ       0.000310299        -1.37929      -0.0053603
LJ          0.520264       -0.372039        0.901448
LJ         -0.408404         1.69731       -0.939184
LJ           2.25797      -0.0995811        -2.06573
LJ          0.843086         1.97248        -1.59868
LJ         -0.414276        -2.30139        0.389076
LJ          0.963608        -1.65179        -1.66137
LJ           1.54615        -2.06061       0.0426325
LJ          0.613036          1.5795       -0.332559
LJ           0.91481        -1.02913        0.211392
LJ           1.54851        -1.35413         2.15096
LJ          0.331855       -0.865954        -2.06513
LJ           2.09509         0.95512       -0.776908
LJ          -1.22939         1.04537        0.680806
LJ          0.875371        0.259433       -0.552712
LJ         0.0273203       -0.191191        -1.14868
LJ           0.23128        0.306887        0.202606
LJ          -1.51582        -1.74986       -0.867546
LJ          -1.10637         2.22825        -1.49573
LJ          -1.62614         2.04194          0.6602
LJ           1.23846         1.79227        0.398799
LJ          -2.09613         1.05086        -1.57491
LJ            1.5987        0.895772         1.01191
LJ          -2.08995        -1.29155        0.202131
LJ           2.32388        -2.05652         1.84484
LJ           1.55288       -0.524641         1.34188
LJ         -0.616734       -0.355562         1.22275
LJ          -1.27042         -1.8365        0.107971
LJ           0.66991         1.18709        0.845584
LJ            2.0537       -0.806389        -1.27638
LJ           1.23711         1.38762         1.85146
LJ           1.77259         1.89765       -0.481645
LJ        -0.0384998     -0.00678453         2.02607
LJ         -0.949946         -1.0472       -0.426907
LJ         -0.924269      -0.0444309       -0.888958
LJ          -1.38878       -0.801365        -1.29795
LJ           2.28023        -2.14402        0.764101
LJ          -1.93562         2.28162       -0.289457
LJ          -1.55381       -0.525435          2.1976
LJ          -1.51645         2.11839          1.7595
LJ           1.24834       -0.337789        -2.29038
LJ           2.22846          1.6723         2.20862
LJ          -2.12606        -1.09445        -2.02825
LJ          -1.41524     -0.00878994        0.398736
LJ           2.09991        -1.24071         1.18319
LJ           0.99201       -0.588013        -1.18598
LJ            1.5492        0.250866        -1.23134
LJ           1.05274         1.11266         -1.1252
LJ          0.676113        -2.15682        0.404055
LJ          -0.64731       -0.893195         2.08857
LJ           2.17716        -1.70545       -0.677918
LJ        -0.0377204        0.734178       -0.740407
LJ           -2.0986         2.14441        -1.36869
LJ          -1.88261       -0.469947       -0.376965
LJ            1.1761        -1.44293       -0.714958
LJ          -2.24584       -0.144484         1.63081
LJ           -2.0975       0.0480285        -1.16337
LJ           1.47227        0.930171      -0.0352516
LJ          0.612608        -1.79064         2.10503
LJ           2.06341        0.682723          1.8943
LJ           1.85972       -0.873137       -0.280499
LJ         -0.124743         1.29306          0.2665
LJ           1.45283        -2.32461        -2.27435
LJ           0.12495        -1.70461         1.01846
LJ          -0.92268        0.836967       -0.321489
LJ          0.523799         2.01485         2.18219
LJ          -1.47798          1.5145        -2.21021
LJ         -0.839385         1.02918        -1.59712
LJ            -2.207          0.6209        0.857444
LJ          -1.04877         -2.0344         1.08225
LJ         -0.634422         1.75036         1.19774
LJ         -0.772527       -0.253114        -1.91727
LJ          -1.78798         -2.0128        -2.14878
LJ           0.10343         1.34993         -1.7283
LJ             1.109          0.2604         1.68117
LJ         -0.993406        -1.58947        -1.79403
LJ           2.34317         1.48373        0.190959
LJ         -0.736644        0.800291         2.22856
LJ           1.33109        0.891944        -2.07601
LJ           1.91454       0.0757464       -0.337802
LJ         -0.519057          1.8333         2.21724
LJ           2.33289       -0.360513        0.499627
LJ           2.20462          1.7057         1.12319
LJ          -1.80624         1.18977         1.53838
LJ         -0.403978        -1.88672         1.83172
LJ         -0.706837        -1.20116        0.822662
LJ          0.563111        0.356367        -1.80197
LJ          0.386163        -2.27393       -0.744657
LJ          -1.95311        0.510537       -0.245889
LJ         -0.499627       -0.428625        0.208929
LJ          -1.78795        0.478974         2.32078
LJ           0.21957       -0.946742         1.64091
LJ          -1.56111        -1.53496          1.7593
LJ           1.33171      0.00661873        0.454241
LJ          0.356795         2.09154         1.18024
LJ          -1.72984         1.40028       -0.720643
LJ          -0.28719        0.783239         1.20109
LJ         0.0153207        -1.20723         -1.0785
LJ           2.03615        -1.86531        -1.61342
LJ           -1.0043         1.83859       -0.113362
LJ        0.00892042        -2.17944        -1.93866
LJ          -1.64646       -0.837533          1.0044
LJ          0.247004         1.05239         2.10999
LJ           1.07796        -1.41989         1.10075
LJ           1.32968         -2.3392         1.41666
LJ           1.77268         1.63078        -1.50768
