108
#Comment!
LJ          -2.12565        -2.35038          2.2759
LJ          -1.59842        -0.11368         -1.9532
LJ        -0.0488645        0.501384       -0.226869
LJ           2.11772       -0.345007        -1.76284
LJ           1.49259         1.93772         1.48622
LJ           1.15411         2.32772       0.0394501
LJ           2.16622         1.85342        -1.72297
LJ         -0.861598          1.5876        -1.68065
LJ          0.125296         1.08683        -2.06292
LJ          0.950003        -1.91194         1.02546
LJ           1.33129       -0.960714        -0.98912
LJ          -1.78223         1.39526         2.33052
LJ           1.47688          1.3657        0.489011
LJ          -2.22002       -0.739838     -0.00942025
LJ           1.70422        0.295267         1.96697
LJ          0.250275         -1.1453         2.17422
LJ           1.17942        0.509722         1.15421
LJ          -0.31917         1.92714      0.00446353
LJ           -1.9311        0.316943       -0.249977
LJ          0.779923        -1.93216       -0.862066
LJ         -0.119013       -0.241677        -1.01448
LJ          0.223851        -1.06357       -0.557028
LJ          -1.52402       -0.660214         1.00226
LJ          0.284578         1.79725       -0.856031
LJ          -1.02477         -2.0079        -2.06428
LJ           2.04846        -2.22478        0.513762
LJ          -1.30647        -2.25861         1.72237
LJ          0.664541         1.25215         1.73483
LJ          -2.12821         1.35159         0.37754
LJ          -1.10828         2.27435        -1.01294
LJ           2.11683         1.99143       -0.268568
LJ          0.420559       -0.154735         2.30726
LJ          0.919168        -1.75809        -1.90605
LJ          0.648296         2.26087         2.08135
LJ            1.0882        -1.42832        0.107851
LJ         -0.806986       -0.959606         -1.0318
LJ           2.15632        -1.52654        -2.14922
LJ         -0.613596         1.15466       -0.750825
LJ           1.81072      -0.0761911        -0.53086
LJ           1.32222       -0.543008        -2.27155
LJ          -1.46958        0.859913        -1.56433
LJ         -0.831377        -1.92084      -0.0141622
LJ          -1.16325        -0.48716         1.92106
LJ          0.254482        -2.03412        0.330778
LJ           1.57586        0.387576        -1.43304
LJ           2.26594        -1.26304        -1.22853
LJ           1.15602         1.01945        -2.07363
LJ          -2.02136         -1.4563        0.665056
LJ          -1.01394        0.531928          2.1989
LJ         -0.961182        0.248611       -0.583265
LJ          -2.16797         1.77895         1.37698
LJ          -1.27895          1.6385       -0.180227
LJ          0.570965       -0.724125        -1.59329
LJ          -2.01334         1.54997       -0.952992
LJ          -1.77983        -2.28506       -0.327798
LJ           1.96422         1.01587       -0.587091
LJ           2.02639        -2.00042         1.48658
LJ         -0.114024         0.62433         1.85324
LJ           1.71369        -1.12585         1.16082
LJ          -1.06937        -1.56464        0.918173
LJ          0.300024       -0.118616        0.722707
LJ           2.19958       -0.613941         2.04411
LJ          -1.85239       -0.520272       -0.990857
LJ        0.00547157        -1.79891         1.23081
LJ           2.02457        0.444252        0.299843
LJ         -0.618654       -0.221398        0.319118
LJ         -0.846939        0.198513            1.19
LJ           1.98687          1.2982         2.18543
LJ          -2.07653        -2.17229        -1.38564
LJ          0.860127        0.980658       -0.835468
LJ         -0.420108       -0.519099        -2.01325
LJ            2.0062       -0.134222         1.16194
LJ          -1.89277        0.223057         1.80496
LJ          -1.56875        -1.51232       -0.988783
LJ          0.563427        0.310003        -1.53517
LJ          0.803106       -0.177694       -0.644643
LJ         -0.165914         2.33907           -1.77
LJ          -1.74255          2.3452        0.680902
LJ            1.5417         2.34563        -2.33469
LJ          0.605783        -1.01351        0.908802
LJ          0.511403         1.34432        0.138894
LJ           2.05665        0.980459         1.19817
LJ         -0.230682        -1.14031        0.385535
LJ            1.3483       -0.352229        0.346345
LJ           1.62311        -2.03342        -1.35821
LJ           1.93249        -1.64379       -0.280648
LJ          -1.26655       -0.967373       -0.121714
LJ           1.33755         1.82748       -0.870909
LJ           1.09703       -0.414889         1.52006
LJ           1.08494        0.547855        0.121497
LJ           -1.9038        -1.36133         1.71271
LJ          -1.84936         0.26942        0.784754
LJ          0.765546         2.00936         -1.7513
LJ         -0.626316         1.76199         1.01773
LJ         -0.208057        -1.98693       -0.786225
LJ         -0.357237        -2.37942         1.99144
LJ          -0.92782        0.911565        0.342072
LJ          0.412521         1.83321        0.911948
LJ         -0.755689        -1.36284           1.877
LJ         -0.243517        -0.59127         1.53636
LJ         -0.205175        -1.42335        -1.71264
LJ           1.22351        -1.42398         2.00883
LJ          -1.47173         1.05835         1.23932
LJ          -1.35461        -1.06341         -1.8863
LJ         -0.574822        0.414537        -1.56004
LJ         -0.720988         1.42368         2.07329
LJ          -2.32948        0.617957        -1.92062
LJ        -0.0595113        0.918766        0.852643
