108
#Comment!
LJ           1.80186       -0.375881       -0.531115
LJ          -1.00739       -0.963344       -0.756214
LJ          -1.10003        -1.70901        -1.48052
LJ          0.677546        -1.38356           1.811
LJ           1.83138       -0.140993        -1.61707
LJ          -1.37739        0.465481         -1.7856
LJ         -0.871971       -0.474676        0.714398
LJ          -1.30922        -0.22412       -0.105265
LJ           1.43414       -0.987626        -1.20902
LJ          0.902685        -1.65904        -1.93264
LJ           0.77374         1.85848       -0.189818
LJ          0.488715        -2.28654        0.514288
LJ            1.6401        0.855844         1.11535
LJ          0.436302       -0.942202        -1.21165
LJ           -1.3438        0.656138         1.99815
LJ           1.28421       -0.691826         1.29465
LJ          -1.64287         1.50669         1.56021
LJ          -1.99206        0.412202       -0.873852
LJ          0.419197        0.993416         -1.0036
LJ          -1.59455        -1.39543       0.0378765
LJ         -0.983539      -0.0155866        -1.04377
LJ           1.73819         -1.8833         1.87069
LJ           2.34968        0.697205         -1.7383
LJ          0.684283       -0.356442         2.02635
LJ           2.30386        -1.12808        -1.81474
LJ           -2.3605         1.41214       -0.176897
LJ          -1.17248        -1.40065         1.22157
LJ         -0.522617        0.908538       -0.650996
LJ           1.58927         2.12666        0.241191
LJ          -2.32815         2.07492         2.17731
LJ          0.526909       -0.988503        0.756181
LJ         -0.542885          0.8222        -1.77907
LJ           2.08833         1.75189         1.26453
LJ           1.99115        -1.51985        -0.35202
LJ           2.03892          1.7189        -1.75355
LJ          0.265379        0.401483        -2.23629
LJ           2.02643       -0.132876        0.932563
LJ        -0.0817799         2.01231       -0.790455
LJ          -1.81076       -0.992538           2.086
LJ          -1.18386         2.28754         2.05901
LJ           2.26476        0.311662      0.00377382
LJ          -1.35536       -0.617631         -1.8805
LJ          -0.75449        -2.04429       -0.299983
LJ          0.821137       -0.212441        -1.75888
LJ           1.02191        0.148757         0.75891
LJ          -2.35445        0.847321         1.79952
LJ           1.36323        0.994276        0.101513
LJ          -1.79088        -2.36498       -0.390629
LJ          -0.58853        0.478572        0.254458
LJ         -0.121371        -1.81476        -1.32281
LJ         -0.916945        -1.32733         2.27552
LJ         0.0860878        -1.04691        -2.14244
LJ         -0.251401       -0.883897         1.64726
LJ          -2.03451         2.28492        -1.39945
LJ          -1.52591         1.29348        -1.18075
LJ         -0.326519        -1.45429        0.597647
LJ          -1.14363       -0.355381         1.87501
LJ           2.10956       -0.605979         1.85489
LJ           1.48316        0.208066         2.24996
LJ           1.06712         0.23118       -0.748125
LJ          0.971839         2.01199        -1.37982
LJ          0.704993       -0.565346       -0.182015
LJ          -2.22802       -0.639164        0.137738
LJ          0.951315        -1.54552       0.0608301
LJ           1.01229           1.657        0.995305
LJ           1.79682        -2.03119        -1.81085
LJ         -0.191371         1.98044         1.23903
LJ            1.4566         1.39451          2.1198
LJ          -1.59328         1.36544        -2.14951
LJ          -1.86984        -1.92092        -2.21907
LJ            1.8755        0.840231       -0.943858
LJ          -2.35086        -1.14091         1.07584
LJ         0.0296688        0.130376        -1.10096
LJ          -1.96014       -0.561146       -0.981324
LJ         -0.361325         -1.8506         1.49817
LJ          0.838412         2.28633         2.33756
LJ         -0.317606       -0.413357      -0.0776113
LJ           1.43791        -1.72761         0.92175
LJ         -0.432554        0.285634          1.7902
LJ          0.286403        0.543379       -0.134968
LJ         -0.797652           1.912        -1.50027
LJ          -1.72988       0.0920963         1.18727
LJ           1.20085         0.85815        -1.74278
LJ         -0.604054         1.54158         2.24286
LJ        -0.0114212        -1.45827        -0.38403
LJ          0.651146        0.598016         1.62403
LJ        -0.0304259        0.926505        0.921859
LJ          -2.06169      -0.0785569        -2.26422
LJ           2.34643        -2.00357        0.604523
LJ          -1.85919        -2.10173         1.41058
LJ         0.0433771       -0.086902        0.891977
LJ          -2.07418         1.06278        0.741319
LJ          0.305629         1.43114        -1.89057
LJ         -0.457285       -0.208965        -1.95361
LJ           0.33911         1.49116         1.88041
LJ           1.55432       -0.802303        0.358437
LJ          -1.50706        0.855496      -0.0844789
LJ         -0.241358         1.73299        0.240581
LJ          -1.04531         1.69575       -0.341919
LJ          -1.02747        -2.32464        0.727318
LJ          -1.02423         1.28647        0.803527
LJ          -1.99005        -1.59526        -1.08286
LJ            1.9195         2.11605       -0.762449
LJ          -0.19491        -2.32891         2.33054
LJ          0.764317        -2.27932         1.43539
LJ          -1.83058         1.96075        0.538499
LJ          0.869929        -1.80534        -0.90056
LJ            1.4038        -0.93266        -2.33038
