108
#Comment!
LJ          0.976816        -2.14438       -0.504406
LJ         0.0757364         2.28113         1.21575
LJ           1.36926       -0.816952        -1.19594
LJ            1.3149        -1.37582         1.82418
LJ           1.04468       -0.840485        0.888498
LJ         -0.319521        0.686132         2.19406
LJ         -0.981867        -2.30971        -1.75033
LJ           2.16051        -2.33269       0.0908049
LJ         -0.776042      -0.0654753         1.68427
LJ          -0.75224          1.3169         1.33098
LJ          0.648407        -1.85592        -2.29582
LJ          0.807572         1.13042        0.904161
LJ         -0.599329        0.324778       -0.307361
LJ            1.9472         2.28029        -1.00719
LJ           2.07116        -1.31407       -0.613889
LJ          -2.05993          1.0226        0.137261
LJ         -0.728101      -0.0749659        0.637518
LJ           -2.1382        0.322283        -1.88827
LJ         -0.679253       -0.959986         1.16977
LJ          0.166967       -0.363654       -0.425745
LJ          0.032158         1.07225       -0.765307
LJ           1.68117         2.30206        -2.01651
LJ           1.70639        -1.10511        -2.04252
LJ           2.17663         1.36431         -1.4521
LJ           1.94704       -0.573399         1.85896
LJ          -1.13768       -0.301887        -2.23466
LJ        0.00285638         2.32513        -1.62211
LJ           1.08471         2.34963         1.75295
LJ         -0.209474        -2.34508         2.18351
LJ         -0.319517         -1.1762        -1.73415
LJ          0.539094        0.758501         -1.5258
LJ          -1.71268        -1.06553       -0.649689
LJ          -1.68839         2.09152         1.78918
LJ           1.16587        -1.82171        -1.43258
LJ           1.63941         1.97508        0.944815
LJ          0.877309         1.34229        -0.10161
LJ           1.67561        -1.47681         0.26879
LJ         0.0743823         2.20184       -0.343257
LJ          -1.14968        -1.90135      -0.0737541
LJ          -1.74497          2.3334        0.526609
LJ          0.717941         1.73962          -1.135
LJ           1.86614         1.50414       -0.139643
LJ          -1.97527        -2.08183         -0.6843
LJ           1.78563        0.570003        0.124137
LJ          0.542865       -0.244796        -1.37061
LJ          -1.80964         1.36506         1.17023
LJ         -0.635012         2.00841        0.593009
LJ         -0.660787        0.692341        -1.62297
LJ           0.30546         -1.2522          1.5363
LJ           -1.8855       -0.164069         1.88358
LJ          -1.34327        0.694104         1.97099
LJ           1.32307       -0.340155      -0.0390688
LJ          0.162331        -1.79086        0.239722
LJ          0.835523        0.422633       -0.607321
LJ           2.20138       -0.343498       -0.983624
LJ           1.24394         1.35901         1.84232
LJ          0.198169          1.4652         1.83635
LJ           2.05008        -1.89439         1.11234
LJ          -0.51771       -0.119026        -1.12014
LJ          0.574962        0.351509         2.34917
LJ          -1.67345        -1.86011        -2.33579
LJ         0.0205399        0.618435         1.29724
LJ          -1.07126         1.80638       -0.302768
LJ           -1.6649        -0.62082        0.958352
LJ          -1.54119        -0.19615        -1.27651
LJ           2.07458        -1.80612         2.14672
LJ          -2.03881        0.616974       -0.932168
LJ          -1.77862         1.66644       -0.969181
LJ           1.38428         1.07028        -2.01467
LJ         -0.014826       -0.692847        0.487543
LJ        -0.0829881         1.21291        0.253656
LJ         -0.964452         1.59596         2.36377
LJ         -0.676093         1.61852        -1.23324
LJ          -1.63225        0.144874      -0.0815451
LJ          0.771241       -0.773817        -2.24797
LJ          -2.17718       -0.665231        -2.05723
LJ          0.286908        -0.28749         1.63963
LJ          -2.33931       -0.530414       -0.066379
LJ          -1.92386         2.07971        -1.95181
LJ         -0.557635        -1.14517        -0.68748
LJ           1.27723       0.0171533         1.29758
LJ          0.994038         -1.8227        0.940983
LJ           1.96772         1.06015         1.14113
LJ          -1.55695         1.11815        -1.76108
LJ          -1.99996        -1.31395         1.64764
LJ          -1.12664        0.873827       -0.797499
LJ          0.233191        -1.65951        -1.03999
LJ           1.67362        0.842302       -0.811748
LJ          -2.30035        -1.71436         -1.5974
LJ          -2.09789        -1.49488        0.164193
LJ          0.802662           2.126        0.439376
LJ         -0.609836        -2.11495       -0.858483
LJ          -1.14764       -0.811767       0.0930714
LJ           2.31406       0.0852045        0.869208
LJ          -1.52073        0.464985         1.00854
LJ          0.383229        0.362447        0.366603
LJ          0.753149         1.90909         -2.1271
LJ          -1.00763        0.970031        0.344322
LJ          -0.15357       -0.225255        -2.07175
LJ           2.04882       -0.806035        0.915101
LJ          -2.17562         1.23447         2.13222
LJ           0.86348        -1.13592       -0.393855
LJ          -1.39387        -1.14505        -1.56047
LJ           2.07011         1.98433         1.83541
LJ           1.46072        0.120932        -1.69775
LJ           1.87811        0.396879          2.1361
LJ          -1.02376        -2.03971         1.44891
LJ         -0.834517        -1.17118         2.08571
