108
#Comment!
LJ           1.14522        -2.33084       -0.997232
LJ           1.35834        -1.07976         1.55643
LJ          -1.90024          2.3575        -0.45459
LJ          0.144159         2.31156       -0.678343
LJ          -1.17457      -0.0373276       -0.122558
LJ           1.58856        0.835444        -0.49871
LJ           1.84315         1.63918        0.768476
LJ         -0.986862        -0.93907        0.247393
LJ           1.16897        -1.19434        0.566554
LJ           -2.2967       -0.305464       -0.359371
LJ         -0.037585        0.929098        0.780698
LJ         -0.697811        -1.62937          1.1304
LJ          -2.26127        -1.10769        -1.60146
LJ          -1.16944        0.317157        0.970636
LJ         -0.872529         1.51283        0.474966
LJ           0.88059      -0.0970688        0.770505
LJ           1.91642            1.85        -1.21854
LJ          -0.98728       -0.817701       -0.704273
LJ         0.0536194       -0.789134        -0.22061
LJ          -1.90788         1.70151        -1.21694
LJ          -1.82556        -1.68434        -2.32621
LJ          -1.49452       -0.725976         1.96645
LJ          0.113601       -0.160007        -1.60122
LJ          0.810224       -0.886511        -2.17678
LJ           -1.0359        0.144018        -1.61752
LJ          -1.93568        -1.55205        0.458259
LJ           2.35184         1.88984         1.55743
LJ         -0.470933         1.84238        -1.37728
LJ           1.99335         -1.2683      -0.0536832
LJ          -1.63372         2.04013        -2.17586
LJ          0.685281         1.61694        0.853087
LJ         -0.158422        0.916606        -1.11503
LJ          -1.74575        -2.08269        -1.44024
LJ           1.30131       -0.506842        -0.19284
LJ          -2.22905        0.638659       -0.828869
LJ         -0.252026        0.593173        -2.16324
LJ          -1.25617          1.1151         1.61397
LJ           1.85073        -0.87066       -0.944942
LJ          0.993884        -1.83329          2.0528
LJ         -0.981278          1.8588        -0.47216
LJ          -2.35359       -0.374554        -2.34279
LJ        -0.0854393        -1.14996        -1.91916
LJ           2.07286        -1.92879       -0.932262
LJ           -1.7681       -0.314809        -1.25424
LJ          -1.30198         2.08456         1.33569
LJ             1.671        0.723722         1.13786
LJ           2.12992        -1.97526         1.90821
LJ           1.68054       0.0622748        -1.08288
LJ          0.863644       -0.597742        -1.14658
LJ          0.717183        -2.25494       0.0996187
LJ           1.02408        -1.45564       -0.415099
LJ          0.172345       -0.809617        0.938503
LJ          -1.15106        -2.16744        0.463155
LJ          -1.67546       -0.485179        0.831961
LJ           1.79493        0.968001        -1.51744
LJ           -2.3343       -0.956867         1.56332
LJ          -1.33301        0.242559         2.10222
LJ           1.77621        -1.22748        -2.30242
LJ           1.67672       -0.148128         1.68761
LJ          0.616684         0.30584       -0.644354
LJ           1.48088       -0.222422        -1.97895
LJ         -0.693439       -0.503298         1.33263
LJ            1.5279        -2.00444         1.04157
LJ          0.985819          1.4406        -1.07454
LJ           1.26011         1.69417       -0.177685
LJ           2.32165         1.47804       -0.321898
LJ          0.257698         2.31067         2.14338
LJ         -0.764347         -2.1931         2.10379
LJ          -2.09883         1.08259        0.839542
LJ         -0.761939        -1.90705        -1.69744
LJ           2.01335        -2.33486       0.0912001
LJ           1.14492        -1.58824        -1.56803
LJ          -1.19834        0.954605         -1.0229
LJ         -0.324783      -0.0740575       -0.693076
LJ         -0.443036       -0.322823         2.23743
LJ           1.71874        -2.27071        -1.96913
LJ           0.66965       -0.268468         1.78524
LJ        -0.0333211        -1.46974         1.86377
LJ          -1.93156         1.94879        0.434064
LJ          0.316301         1.44373      -0.0692814
LJ          -2.12472        0.554686         -1.8711
LJ           1.28042         2.01876         1.60329
LJ           1.56951        0.830304         2.14133
LJ          0.176594         1.54636        -1.95668
LJ         -0.415412        0.761906       -0.142759
LJ          0.563733         1.16881         1.74719
LJ         -0.239565         2.26842        0.783407
LJ          0.775075        0.743585        -2.00119
LJ           1.03329        0.836314        0.306677
LJ          -1.66006        -1.72123         1.44326
LJ         -0.248697     -0.00797618        0.533255
LJ          -2.13763        0.117589         1.51387
LJ         -0.024879        -1.50247       -0.983511
LJ          -1.10547       -0.955807        -1.78777
LJ          0.544388        -2.00673         1.16362
LJ          -0.24326         0.54545         1.66559
LJ         -0.349716         1.50684         1.48515
LJ          -1.57684        0.841609       0.0055875
LJ          -2.18692        0.959013         1.92154
LJ         -0.220056        -1.68198        0.189037
LJ           2.26219        0.461856        0.232747
LJ         -0.998042         1.23419        -2.05227
LJ          0.408191        -2.24014        -1.67054
LJ           2.20951         1.67618        -2.18894
LJ          -1.05759        -1.89818       -0.508925
LJ           1.89157       -0.518173        0.707099
LJ           1.17737         1.64905        -2.16497
LJ          -1.92335        -1.16539       -0.671149
