108
#Comment!
LJ         0.0863261         1.37514         1.48247
LJ          -1.05594         1.18114         2.13259
LJ           1.62415        -1.34492        -2.02471
LJ          0.131213        -1.29907        0.957872
LJ         -0.267812        0.838027        0.683568
LJ           0.26446         1.58337        0.471405
LJ          0.578335        0.905481       -0.125672
LJ             -2.13           2.183         1.80231
LJ          0.948793        -0.61725        -1.98218
LJ          -1.82929       -0.977218       -0.727339
LJ            -1.225        -2.19033        0.476084
LJ           1.66853        0.705168         1.62395
LJ           -2.1802       -0.776706         -1.7127
LJ           2.32027         1.23093        -1.59152
LJ            2.2895        -2.10676        0.743194
LJ         -0.389846        0.631133       -0.484695
LJ            0.1682         1.00094        -1.22612
LJ           1.87874         2.34737       -0.229465
LJ        -0.0801885        -2.30797        0.103189
LJ         -0.402723        -1.33277        0.106882
LJ           1.05273        0.561873        -1.46541
LJ         -0.824993        -1.28164       -0.879461
LJ          0.876996         1.03342         2.09583
LJ           1.58285         1.42333        0.125804
LJ          0.737869        0.260454        0.626577
LJ           1.92477       -0.356446        -2.36204
LJ         -0.114416         1.59695       -0.455937
LJ          -1.36763       -0.277575       0.0301928
LJ          -2.22258        -1.59097        -2.28383
LJ          -2.25131        0.917317      -0.0539488
LJ         -0.893307         2.37194         1.42154
LJ         -0.886275         1.65655        0.724631
LJ         -0.933936        -2.22105       -0.566036
LJ          0.865753         2.00721       -0.299214
LJ          0.598728        -0.46312         1.24129
LJ         -0.396577         2.00265         2.20603
LJ           1.70159        0.472857        0.463488
LJ            1.7214       -0.177855        -1.29843
LJ          -1.91997         1.88506        0.373453
LJ         -0.764238       -0.497891         1.65653
LJ           0.15326       -0.792195         2.18045
LJ         -0.859229        -1.33309        0.974822
LJ         -0.574179        -1.69635         2.13738
LJ         -0.105966        0.218863         1.75409
LJ          -1.57868         1.31937         1.36253
LJ        -0.0736385         1.11836        -2.24093
LJ          -1.65662         -1.6181         1.51317
LJ          -1.26471       -0.318897        -1.39542
LJ          -2.07497         1.67666        -0.64415
LJ          0.224785        -1.13294       -0.790502
LJ            1.3503         2.33544        0.756771
LJ           1.44069       -0.953938         1.84528
LJ           -1.5337         1.05068         -1.5619
LJ          -1.94151       -0.637891         1.99087
LJ          -1.15536       -0.886561        -2.22289
LJ           1.04092         1.17425         1.00729
LJ          -1.38344        0.540254       -0.649313
LJ           1.49962       -0.895332        0.279933
LJ         -0.295069       -0.756508        -1.70724
LJ          0.483344       -0.140171         -1.0078
LJ          0.912338         1.97833         1.71211
LJ         -0.606155         1.54559        -1.47753
LJ          0.259479        0.171192        -2.12235
LJ          -2.32297         2.16705        -1.96461
LJ           1.69354        0.785235         -2.1629
LJ          -2.23484        0.324859          1.9503
LJ         -0.458983       -0.386333       -0.400146
LJ         0.0376841        -2.11257        -0.82002
LJ          0.869064         1.44058        -1.78676
LJ            2.0004        -1.40674       -0.345502
LJ           1.54107       -0.275781         1.10828
LJ            2.2741       0.0260351       -0.458377
LJ           -1.2041        0.219003        -2.29924
LJ          0.285901         2.23734        -1.69885
LJ          0.151873        -2.31629         1.07175
LJ           1.83917         1.59545         2.05479
LJ          0.965704       0.0068847         2.02035
LJ            1.0909        -1.87071        -1.18995
LJ          0.423298        -1.76694         2.03147
LJ          0.614313        -1.59599    -0.000517761
LJ          -1.58307        -0.44392         1.07661
LJ          -1.05427        0.383512          1.3564
LJ           1.71582        -2.05606         1.85524
LJ             1.193      -0.0469535       -0.291282
LJ          0.472812       -0.616655       0.0227746
LJ          -1.06247         1.48496       -0.242542
LJ          -1.74758        -1.71179        -1.38648
LJ           1.18025       -0.907156       -0.782251
LJ          -1.95112         -2.0652       -0.174337
LJ         -0.458382        0.263597         -1.3769
LJ           1.41816         2.24943         -2.0708
LJ          -2.11853         0.46217        0.953199
LJ          -2.36273        -0.31801        0.408603
LJ          -1.68677        -1.18406        0.166525
LJ          -1.31397        -2.34268         2.33658
LJ           1.61097        0.752621       -0.620675
LJ           2.06996        -2.02882        -1.12842
LJ           1.33676        -1.50209         1.03045
LJ          -2.20009        0.240431        -1.72305
LJ         -0.650394        -2.15794        -1.67211
LJ          -2.00966         1.24124         2.25355
LJ          -1.45264         2.03353        -1.30487
LJ           1.51199         1.74818        -1.16637
LJ           -2.3539        -1.13006        0.940279
LJ          0.272964        -1.53938        -1.73124
LJ           2.08101         1.68045        0.980906
LJ           -1.1747        0.649497        0.343854
LJ         -0.342384       -0.186071        0.634991
