108
#Comment!
LJ         -0.959562         2.19667        0.618504
LJ           1.64341        0.479943        -1.69603
LJ          0.916401        0.213624        -2.37507
LJ           1.69148        -1.25002         1.87155
LJ           1.43555       -0.109327         1.58702
LJ          -1.50995         2.09343        -1.01352
LJ         -0.381809        -1.95728         1.35758
LJ           1.15579         1.22983        0.197733
LJ          -2.33268        -2.12571         1.89838
LJ         -0.605281         0.55107       0.0780788
LJ         -0.959187        -1.67087         2.35369
LJ          -1.65762        -2.14057        -1.85559
LJ         -0.346292        -1.02044        0.150353
LJ          -2.19904      -0.0840554       -0.218897
LJ          -1.15793        -1.52672        0.720654
LJ          -1.36954         -2.0714         1.56447
LJ          0.602054         1.67642       -0.537087
LJ          -2.15302        0.832587        0.379013
LJ           -1.5085       -0.719762         -0.9569
LJ          -1.28499         1.59615         1.82583
LJ          -1.99269         1.95129         1.12532
LJ            0.5641        -2.16692       -0.950802
LJ           1.91432         1.72726         1.47525
LJ           1.54627         1.56544        -1.89651
LJ         -0.880209        -1.61354        -1.34863
LJ         -0.136369         1.28577        0.508762
LJ         -0.193932          1.5917         1.56687
LJ           1.12914       -0.871765        0.758192
LJ           2.29456        -2.22912       -0.301394
LJ         0.0845265        -1.05192         1.16046
LJ           1.89033        -2.09041         1.05528
LJ           1.11109         1.13526         1.94292
LJ           2.07985         1.90473        0.397857
LJ         -0.544412       -0.691894        -1.38427
LJ          -1.59036       -0.585217         0.56041
LJ           1.13463        -1.41756        -2.11912
LJ         -0.363898        -2.24173       -0.430299
LJ         -0.131917        0.085914        -2.04364
LJ          0.535502         0.94559         1.13482
LJ           1.11948        -2.30348        -1.75136
LJ          0.668148       -0.713149       -0.471325
LJ         -0.460658         2.20885        -1.47483
LJ           2.33983         1.84308        -1.39682
LJ          0.702969        0.423299       -0.437473
LJ         -0.193027       0.0542507        -0.74835
LJ          0.678704       -0.551205        -1.50163
LJ           1.46063       -0.190872       -0.995851
LJ          -1.01333        -0.35871       -0.191105
LJ          -1.90347         1.02934        -1.69076
LJ           2.30902        -1.16572         1.08519
LJ          -1.88349        -1.67598       -0.993071
LJ           1.89362        0.657082         2.11604
LJ          0.139294       -0.100332        0.198168
LJ         -0.585771        0.677448          1.2288
LJ        -0.0574091        -1.33228       -0.824442
LJ         -0.863198        -1.04442         1.56534
LJ           -2.0614        -1.17244        -1.95027
LJ          -2.01193        -1.16467         1.91368
LJ           -1.7171         1.92029      -0.0436271
LJ           1.46731        -1.57232      -0.0761505
LJ          -2.24608         -1.1366       0.0750215
LJ           -1.2123       -0.621217        -2.17754
LJ           0.72056       -0.699933         1.99465
LJ          0.824001         1.91351         1.20631
LJ          0.380077      -0.0402673         1.22533
LJ          0.233244        -2.04642        -1.88395
LJ          -1.49347       -0.307401         1.50537
LJ          0.453993        -1.65587        0.048622
LJ          -2.03495          -1.987         0.54824
LJ           1.32423         1.07414       -0.950767
LJ          -1.06074          1.4892        -1.91771
LJ          0.523112        -1.81164         1.96468
LJ         -0.253314         1.10587        -1.02526
LJ          -1.27198        -1.91049       -0.178647
LJ           -1.9059      -0.0280451        -1.69237
LJ           1.39545        -2.27893         1.91179
LJ         -0.975334        0.284641        -1.42877
LJ          0.382956         1.63029        -1.52731
LJ          -2.16946        0.990204         1.42551
LJ         -0.120638       -0.969551        -2.37375
LJ          0.618787         2.01092         2.28521
LJ           1.09093          2.3286        0.206946
LJ         -0.613653        -0.17578         1.93277
LJ           1.78381        0.589547       -0.131775
LJ          -2.03976         1.75932        -2.35725
LJ          0.591496        0.446035        -1.43398
LJ           0.18799        0.918062         2.26666
LJ         -0.478032         2.18639          2.2804
LJ           1.61797        0.796108         1.09742
LJ          -1.36484        0.677987       -0.548376
LJ         -0.593395       -0.305609        0.930303
LJ           2.37778       -0.134696          1.9555
LJ          -1.26169         0.59163          1.9596
LJ           1.70271       -0.520914       0.0273849
LJ           0.13856         2.29692        0.542836
LJ           2.22205       -0.832793       -0.952169
LJ          0.899504        -1.81281         1.03175
LJ           1.50842         2.09422       -0.895032
LJ           1.84175        -0.49668        -2.03304
LJ          -1.26588         1.26127        0.540743
LJ           1.13751        0.196058        0.478849
LJ           -1.4229        0.340485        0.740934
LJ           1.53496        -1.55121          -1.061
LJ           2.08626       0.0150684        0.770709
LJ           2.07899        -1.97027        -1.73286
LJ         -0.843747         1.67249       -0.430781
LJ           2.34136        0.505028        -1.01876
LJ           2.21831         1.41034       -0.498284
