108
#Comment!
LJ           2.33973        0.703303       -0.749841
LJ          -1.30958       -0.299293        -1.29792
LJ         -0.716799       -0.704983       -0.319244
LJ         -0.116674      -0.0352721       0.0885223
LJ           2.10533        0.669631         1.24592
LJ         -0.531226        -1.76589         2.23413
LJ             2.129         1.78951        0.467126
LJ         -0.655463         0.36168       -0.908325
LJ           1.21912         -1.4892         0.51201
LJ        -0.0380045        -1.55695       -0.042298
LJ          -1.65591        0.513803        -1.78485
LJ         -0.337713         1.00454         -0.0742
LJ         -0.959537        -2.25703        -1.82696
LJ           -1.4285        0.454596         1.35354
LJ          -2.30635        -1.08016        -1.70485
LJ           2.13757          -2.362         2.08951
LJ          0.814715        0.443063        0.104513
LJ          -1.73168         1.45589         1.26805
LJ          -1.55431         1.05115       -0.944789
LJ          0.759208        -2.03703         1.97901
LJ           1.58343         2.31751        -0.52087
LJ          -1.02566       -0.916674        0.577721
LJ         -0.604943       -0.113309        0.978987
LJ       -0.00070311         2.24203        -2.12471
LJ          -1.95023        -0.29438        0.529888
LJ          -1.03031       -0.920351         1.61574
LJ           1.59242        -1.00356        -1.14384
LJ          -2.20725         1.39901         -1.6211
LJ          -1.72121        0.268453       -0.243974
LJ         -0.299271         1.95828        0.232852
LJ           0.92539       -0.501271        0.429174
LJ         -0.157793         1.62146        -0.90141
LJ           2.28262        -1.52847       -0.594398
LJ          -1.67151        -2.02527       -0.871322
LJ          -1.85085         1.87916         2.30344
LJ           1.50866        -2.13905         1.19023
LJ         0.0779132         1.29522         1.97909
LJ           0.70857         1.50584       -0.238201
LJ          -1.09278         2.08172        0.868129
LJ        -0.0694665       -0.427661        -1.30703
LJ           1.64035          1.2134       -0.260472
LJ            1.1629        0.916471        -2.00655
LJ           1.06776          0.5666         1.65775
LJ          0.503173      -0.0996151        -2.16032
LJ          -2.28597         1.76803       -0.620054
LJ         0.0385147         2.21546         1.40686
LJ          -1.30622       -0.910678        -2.03489
LJ           1.97359         1.64134         1.42872
LJ          0.623978         2.00943        -1.26794
LJ         -0.998694        -1.86638        0.275938
LJ         -0.753796        -2.34566       -0.650868
LJ           2.02639        -0.81952       0.0718917
LJ         0.0436569         -1.1504          1.7018
LJ          0.521507       -0.614844       -0.517747
LJ          0.372662          1.2863        0.717983
LJ          0.947011       -0.296884        -1.32205
LJ          0.694821        -1.09618        -2.07136
LJ          0.260302        0.351863        0.985915
LJ          -2.16191       -0.308242         1.47828
LJ           1.70927       -0.365057         1.15938
LJ           1.59064        -1.56872          2.3239
LJ          -1.81622        -1.90021        -2.07366
LJ         0.0653851       -0.798683        0.671413
LJ            1.7857        0.398669        0.387269
LJ         -0.813049        -1.77387         1.21031
LJ           1.88871        0.317355         2.21819
LJ          -1.95874        -1.45395          1.7665
LJ         -0.667286         1.14561         1.07343
LJ           1.92835         1.51595         2.36213
LJ         -0.909848         1.08831         2.14804
LJ          -2.07295         0.87562         2.03481
LJ          -1.73047         2.22401        0.155738
LJ          -2.10098        0.926003         0.46591
LJ           1.81616       0.0544624        -1.53996
LJ           1.54904         1.63621         -1.3289
LJ            1.0988        -1.19188         1.56535
LJ          0.339676        -1.73466        0.903297
LJ         -0.888124         2.12586          2.0077
LJ          -2.20452       -0.390535       -0.877136
LJ          0.903824         1.70414         1.59982
LJ          -2.10212       -0.259102         -2.2398
LJ           2.03951        -1.98528        -1.62208
LJ          0.262422        0.593045       -0.825797
LJ         -0.158688        0.170646         1.91303
LJ          -1.89568        -1.32879        0.454739
LJ          0.766513         2.31213        0.425576
LJ         -0.463482        0.513249        -1.94012
LJ         0.0677918        -1.67847        -1.15401
LJ          0.305013         2.37614       -0.448237
LJ          -0.90243        -1.45758        -1.27419
LJ          0.989605         1.92376        -2.20757
LJ          -0.91375         1.38314        -1.66574
LJ           1.20953        0.649448        -1.01233
LJ           1.07603        -1.54897       -0.447476
LJ          0.634465       -0.340164         1.59514
LJ            -2.108         -2.3589         1.05459
LJ          -1.11345      -0.0547435         2.19435
LJ          -1.59263        -1.08055       -0.536469
LJ          -1.03718        0.496148        0.458134
LJ          0.237527         1.18309        -1.70135
LJ           2.07479        -1.31908         1.08163
LJ            1.4084         1.26765        0.744649
LJ           1.40259       -0.480145        -2.32207
LJ         -0.351004       -0.634906        -2.23421
LJ           2.12104         -2.0907        0.223485
LJ           1.05248        -1.96921        -1.70369
LJ          -1.28323         1.33156      -0.0377746
LJ           1.68465      -0.0772803       -0.503042
