108
#Comment!
LJ          -2.23373      -0.0434177       -0.203827
LJ         -0.541362        0.647446        0.501103
LJ         -0.756861        -1.97033        0.516135
LJ         -0.308666        0.611034       -0.429154
LJ           1.92155        0.435327         0.79897
LJ          -1.81611        -1.22192        -1.51722
LJ           1.98729        -2.18526        0.589676
LJ          -1.40082       -0.625318       -0.559993
LJ          0.240922        -2.29471       0.0313758
LJ         -0.437962        -1.31437       -0.270269
LJ          -1.71793        0.472457        -2.31972
LJ          0.499636        0.733226        0.358414
LJ           -1.3394        -1.58427         2.24075
LJ         -0.708304       -0.166012         2.27273
LJ           1.81052         -1.5763        -1.82314
LJ          -1.57463         2.12782         2.33531
LJ         0.0203765       -0.327718        0.295969
LJ          -1.68311         1.24039         1.84684
LJ         -0.903067          2.1663       -0.689859
LJ          0.286048         -1.7169         1.64418
LJ           1.29297        -2.27783        -1.31191
LJ          -1.51935        -1.70684         1.14395
LJ        -0.0309263       -0.861109         2.03754
LJ          0.849911        -1.50266        -2.09647
LJ          -2.23788       -0.403747        0.700023
LJ          -1.53895       -0.763904         1.62417
LJ          0.497752        -1.51977       -0.847918
LJ          -1.43746        0.598203       -0.247362
LJ          -1.82603        0.932897        0.628679
LJ           1.29838         1.37919        0.411505
LJ          0.975845        -1.44689        0.792617
LJ         -0.213645         1.52121        0.146257
LJ           2.12025        -2.30115       -0.381461
LJ          -1.31371        -1.59695       -0.432013
LJ          -1.16585         1.28726        -1.96141
LJ           2.20392        -2.32819         1.64152
LJ           0.94206        0.865957         1.18494
LJ          0.349284         1.45777       -0.760132
LJ          -1.38941        0.304538         1.42745
LJ         -0.768524       -0.281657        -1.20588
LJ           1.19344         1.91301       -0.434491
LJ           1.09741        0.510666         2.12636
LJ           1.92238        0.211943        -2.19107
LJ          0.880067        0.478062        -1.57617
LJ          -2.10392         1.72945       -0.733612
LJ         -0.638658        -1.38533         1.47883
LJ           2.10568       -0.675936        -1.49484
LJ           1.98114         1.53124         1.09868
LJ         -0.211351         1.59953        -1.59486
LJ          -1.65431         2.10215        0.970919
LJ         -0.966432          2.3521        -1.66429
LJ           1.83007         -1.1584        0.270797
LJ         -0.227368        -1.97217         -2.1861
LJ           0.38758       -0.180312       -0.660407
LJ           0.41457       -0.694203         1.17622
LJ          0.258627      -0.0970619        -2.10048
LJ          0.910516       -0.481573         2.08927
LJ           1.10699       0.0264111        0.191133
LJ           1.90641       -0.690715         2.11305
LJ          -1.97168       -0.507277        -2.18098
LJ           1.40871        -2.31825        -2.34298
LJ           -2.2954        -1.30623       -0.547744
LJ         0.0727623        -1.50082        0.540853
LJ           2.03391        0.821208         -0.2352
LJ         -0.969905         1.41982        0.871762
LJ          -2.20784         0.95182        -1.29939
LJ          -1.76897         -2.0886        -1.12875
LJ        -0.0249174         1.29344         1.33617
LJ           1.76719         1.42419        -2.36584
LJ         -0.771295        0.964757         1.90713
LJ           2.01292        0.735932         1.77852
LJ          -1.41178         1.69914       0.0219482
LJ           2.32026         1.60861        0.160232
LJ           1.12378       -0.630837        -1.58697
LJ           1.84333         1.66176        -1.29734
LJ           2.26864        -1.26247         1.13521
LJ         -0.833776       -0.972487        0.594414
LJ         -0.036927         2.26029         1.02331
LJ          -1.80059        -1.22217        0.300941
LJ          0.791745           1.603         2.00744
LJ           1.51184         -1.4032       -0.798932
LJ           2.33133         2.22542        -1.93608
LJ          -1.22786         1.26269       -0.964338
LJ          0.105292        0.844624        -2.35428
LJ          -2.26857       -0.128061         1.61281
LJ           1.13711         2.34315         1.10427
LJ          -1.74713        0.112156        -1.12282
LJ         0.0782618       -0.903092        -1.53417
LJ         -0.012349        -2.34408        -0.96993
LJ         -0.641695        -1.57595        -1.21691
LJ           1.02368          1.4382        -1.76438
LJ         -0.309761        0.518081        -1.51788
LJ           1.84488        0.316494        -1.14706
LJ           0.66626       -0.932341      -0.0527666
LJ           1.39288       -0.440821         1.01947
LJ         -0.832534        -2.33686         1.64941
LJ         -0.961656       -0.955125         -1.9342
LJ          -1.84867        -2.19389        0.175812
LJ          -1.22196       -0.113655        0.315663
LJ         -0.148108          1.8222         2.20616
LJ          -2.25591        -1.45008         2.16766
LJ          0.979528        0.639074       -0.621736
LJ           1.40718        -1.49113         1.78178
LJ           0.23461        0.249044         1.62458
LJ           1.21852        -1.93533      -0.0241189
LJ          0.507611         2.27114        -1.83722
LJ         -0.546457       -0.176402         1.19047
LJ           1.39691       -0.439948       -0.611974
