108
#Comment!
LJ           1.64722         2.33444      -0.0263524
LJ         -0.180273          1.8589         2.01816
LJ         -0.956027        -1.04312        -1.22338
LJ            2.2407      -0.0930381          1.6971
LJ          -1.86301         -1.4824        -1.04262
LJ          0.823275         2.05695          1.3798
LJ           2.01345       -0.589223       -0.849676
LJ           1.07434        -1.54664        -2.29456
LJ           1.84022         1.71953       -0.803885
LJ           2.38014         0.82077        0.835844
LJ         -0.539892        0.427351         1.67166
LJ           0.81177       -0.997109      -0.0262911
LJ         -0.916901       -0.818222        0.682187
LJ            1.3818         1.21782         0.52448
LJ           1.27276         2.35351        -1.26118
LJ            1.0236       0.0603073         2.03809
LJ          -0.81461        -2.11512         2.02573
LJ           1.01183         -0.6575        -1.04574
LJ           1.52538        -1.91715         1.66753
LJ          0.594507         2.09492        0.417907
LJ            1.8571        0.523378        -2.34473
LJ          -2.08996       -0.937937         1.25647
LJ          -1.24454        -1.78449         0.78506
LJ          -1.03091         1.59508       -0.756991
LJ         -0.261538        -1.71957        0.398468
LJ           1.50215         1.33044         1.59851
LJ            -1.703       -0.720272         2.27714
LJ          -2.23797         1.13268         1.87213
LJ         0.0370434       -0.135082         2.35807
LJ         0.0328207       -0.220706        -1.33762
LJ          0.790243        -0.86303         1.71958
LJ           -1.6158        -1.66657         1.69773
LJ         -0.494605        0.262944        0.619066
LJ           1.68424        -1.37937        -1.49065
LJ         -0.406052        0.742011        -2.17199
LJ           1.44718       -0.809659        0.984521
LJ           0.13089         1.42715        -1.75659
LJ           2.16182         1.90463        0.995149
LJ          0.320049       -0.154749       -0.425908
LJ         -0.908158        0.526484         -1.3486
LJ         -0.240544       -0.544392         1.49997
LJ          0.566963        -1.30942        0.918079
LJ          -1.70422        0.839659       -0.808427
LJ           1.20171      0.00799222        0.356154
LJ           1.15383         2.21533        -2.23911
LJ          0.989298         1.19183         -2.2511
LJ          0.364387        -1.98565         2.05303
LJ         -0.932712       -0.248063        -1.99213
LJ          0.112318        0.813998       -0.908938
LJ           2.25428        -1.68055        -2.31683
LJ           2.33477         1.35034     -0.00929052
LJ          0.364071         2.04358        -1.01444
LJ          -2.25974       -0.837593        -1.73027
LJ           -0.8594        -1.11386         2.05677
LJ           2.14794         2.10313         1.95852
LJ          -0.34567        -2.02336       -0.909795
LJ         -0.876041        -1.20902       -0.204181
LJ         0.0279038        -1.13493        -0.61885
LJ          -2.04617        -2.25066       -0.395429
LJ         -0.573338         2.22481        0.919987
LJ           1.46614        0.442478         1.16672
LJ           1.93368        -1.48878        -0.41735
LJ         -0.334879         -1.5199         1.32228
LJ           1.65273       0.0184755        -1.53202
LJ          -1.52933        -1.57313        -1.95591
LJ          -2.32159         -1.8585         0.87282
LJ           2.37062        -2.19983        -1.42784
LJ          -0.45227         1.22738         1.04804
LJ           1.04565         1.36569        -1.25853
LJ           -1.9872         1.71877         -1.0943
LJ          -1.75289          2.1842        -2.25259
LJ          0.502876        -2.03324       -0.358999
LJ          0.484941       0.0523893         1.08268
LJ            2.3755        0.278526       -0.358632
LJ          -1.47133        0.342125         2.15229
LJ           1.88524       -0.661493        0.125465
LJ          0.326986         0.77331         0.44554
LJ           -1.8017        0.161578        -1.70803
LJ          -1.80288          2.1331        0.504912
LJ          -1.82167        -0.86268        0.138834
LJ           0.76744        -0.67024        -2.01687
LJ          -1.18626       -0.256873         1.37141
LJ            1.2764        0.494093       -0.555014
LJ          -2.01635      -0.0785363        0.739868
LJ         -0.679096       -0.245127       -0.717416
LJ          -0.08095        -1.25791        -2.09646
LJ          -1.71607         1.18532        -2.01177
LJ            1.5044        -1.65907        0.508772
LJ          -1.01132        -2.28802       -0.210903
LJ          -1.31317        -2.31895        -1.31495
LJ         -0.285568         1.70187      -0.0441237
LJ           0.54326        -1.70884        -1.41099
LJ          -1.27702       0.0107512       0.0441732
LJ        -0.0187808       -0.642683        0.534784
LJ          -1.70389       -0.269639        -0.82649
LJ          -1.43881        0.770362         1.21825
LJ          -1.09919         1.41398         1.96894
LJ          0.509009        0.961964         1.64481
LJ          0.680203        0.379776        -1.83483
LJ         -0.614844        0.754101       -0.244297
LJ         -0.873374         1.51738        -1.75698
LJ          -1.36114         1.26904        0.170626
LJ           2.19444        0.845084        -1.25603
LJ           1.98485         1.49551        -2.02007
LJ           1.73052       -0.898188         2.08479
LJ          0.781019         1.30236       -0.302905
LJ          -1.62989         2.18392         1.45127
LJ         -0.211398        -2.35717        -1.90056
