108
#Comment!
LJ          -2.16188         2.24514       -0.533317
LJ         -0.420143         1.95632       0.0587139
LJ           2.21639        -1.07582        0.776261
LJ          -1.12816        -1.85592         2.31103
LJ          0.515374      -0.0462685        -1.76779
LJ          -1.21819         2.02312         -0.6891
LJ          -1.94088         1.46938         1.40586
LJ           1.13167        0.913569       -0.040241
LJ          0.228507        -2.03484         0.24543
LJ         -0.033892         1.42239         1.21713
LJ         -0.503263         1.49054        -2.04157
LJ          0.200076        0.922133        0.346863
LJ            1.2214        -1.48169       0.0372357
LJ         0.0564272        -0.88988        -1.84133
LJ         -0.663422          1.9195         1.83884
LJ         -0.109392       -0.693992         1.15302
LJ          -1.64109       -0.728175       0.0617032
LJ         -0.704131        -1.13725        0.130447
LJ           1.77986         1.13127         -1.4131
LJ         -0.909558       -0.605479       -0.999905
LJ        -0.0986868        0.245902        -1.06947
LJ            1.4717       -0.369956        0.236917
LJ          0.967011         1.84173      -0.0194895
LJ         -0.443468          2.2999        0.989652
LJ          -2.01524         0.51047         1.35125
LJ          -2.18251         1.00277        -2.35133
LJ           2.32088        -1.43498       -0.282788
LJ            -1.123         2.30405          -1.666
LJ           1.41842       -0.421118         2.08637
LJ          -1.86904        0.159573       -0.576663
LJ         -0.498721        -1.62877         1.43329
LJ         0.0671472        0.809638         2.31277
LJ         -0.202273         2.37584        -1.39903
LJ          0.707898        0.111882       -0.433647
LJ           1.97725         2.07343          1.6739
LJ          -1.50662         1.35812        -1.56941
LJ          -2.10704        0.471395        -1.52663
LJ            1.9985         1.50651       -0.300219
LJ         -0.691359         1.23774         -1.0686
LJ          0.683631        -1.88257        -1.70051
LJ          -2.25621      -0.0762751        0.609901
LJ          -1.46154         -2.3304         1.40086
LJ          -1.50347        -1.76064       -0.358149
LJ          -1.52782        -1.01792        -2.11836
LJ           1.67211        -1.40093         1.52344
LJ         -0.571282       -0.891653         2.21186
LJ           0.19738       -0.276548         2.07969
LJ           2.07622       -0.425765       -0.576754
LJ          0.870824        0.287155         1.73326
LJ        -0.0456128          -0.557       -0.451999
LJ           1.96123        0.586071       -0.561658
LJ           1.35808        -2.17446         1.04195
LJ         0.0934702        0.402669         1.22171
LJ           1.13593        0.899803        -2.25084
LJ          0.958165         1.29938         1.05318
LJ         -0.129226        -1.81936        -2.31589
LJ          -1.07346         1.01933        0.160872
LJ         -0.607654        0.132245         -2.2055
LJ           1.94596        -1.24225        -2.27313
LJ          -1.15764       -0.850178         1.05129
LJ         -0.804985        -1.46114        -1.38433
LJ           1.41571        0.158619        -1.28964
LJ          0.659846         -1.2052         2.20398
LJ          0.264037        -2.29158         1.68379
LJ           0.58945        -2.20618       -0.698315
LJ           -2.2128        -2.03226        -2.37252
LJ         -0.878739        0.926613         1.21656
LJ          -1.13669        -1.89841        0.559585
LJ          -1.78951         1.15045       -0.596435
LJ            1.8344         1.67497        0.786947
LJ          -1.19488       0.0573715        0.530038
LJ           1.78809        0.189339         1.26544
LJ         0.0357857        -1.37126       -0.957908
LJ          0.721703        -1.50071         1.26993
LJ          -2.33375        -0.31035         1.81861
LJ          0.104101          1.4007       -0.522123
LJ           1.59619        -2.24669       -0.539016
LJ          0.984795         1.69863         1.96327
LJ          -2.28931        -2.13331        0.632102
LJ          0.388406         1.87555        -2.04594
LJ             1.705        -2.05787        -1.68839
LJ         -0.803363        0.179979       -0.381435
LJ          0.978386       -0.530342         1.17087
LJ          0.849122        0.278522        0.575148
LJ           1.65165          1.8187        -2.13964
LJ          -1.79102        -1.74802        -1.32646
LJ         -0.220731      -0.0646397        0.419813
LJ           1.09009         1.86549        -1.23137
LJ          -1.57429         1.89273        0.319244
LJ          -2.30861       -0.486136         -1.7701
LJ          -2.09168        -1.25604         1.72884
LJ           1.76035         1.11871         1.79168
LJ           1.22049        -2.05849         2.13945
LJ          0.868854       -0.853906       -0.712509
LJ         -0.816132       -0.100294         1.57467
LJ           1.11446       -0.811436        -1.76158
LJ          -2.35806          2.0067        -1.48181
LJ          -1.65657         1.89865         2.25142
LJ           1.81362        -1.28475        -1.11024
LJ           -1.8667       -0.786502       -0.902416
LJ          0.615269        0.950286         -1.3669
LJ           1.92328        0.324264         -2.2234
LJ          -1.20653         1.02827         2.26444
LJ          -1.06561        0.337298        -1.35917
LJ         -0.580305         -1.9907       -0.557129
LJ          -1.60266       0.0897369        -2.36477
LJ          -2.02349        0.901132         0.48456
LJ          0.491473        -0.87722        0.310731
