108
#Comment!
LJ          -1.80689         1.19169         1.88101
LJ         -0.863818        0.830665         1.91176
LJ          -1.73984        0.282055         2.24161
LJ           1.07145        -1.20648         0.17543
LJ          -1.30906        -1.92903       -0.887552
LJ         -0.335513         1.97292        0.341807
LJ           1.12967        0.552171        -2.27121
LJ            1.1627        -2.15299        0.874951
LJ           2.34823       -0.472661        -0.25939
LJ          -2.09447         1.82257       0.0411142
LJ         0.0963649       -0.441619        0.210386
LJ          -1.77998         1.22197        -1.84299
LJ         -0.907279        0.730129        -1.79383
LJ           2.26961        0.579145        -1.63848
LJ          -2.19388        0.597525       0.0864232
LJ           1.44885       -0.269841        0.167862
LJ          -1.11748          1.7887       -0.249427
LJ          -2.27608         1.15999       -0.734476
LJ         -0.608118        -1.66024          1.1493
LJ         -0.818173      -0.0703829        0.797772
LJ           0.61127         2.28116      -0.0232213
LJ          0.183375       -0.606577        -1.56879
LJ           1.36447        0.833827         1.37786
LJ           2.15315          1.8429         -1.5032
LJ          -2.15792       -0.609576         1.57771
LJ           1.08168        -1.13969        -1.47747
LJ         -0.221694         1.54707         1.47599
LJ          -1.77695        -0.34131        0.571994
LJ          -1.57222       -0.353787        -1.74709
LJ          0.887047         1.89872       -0.950005
LJ         -0.627582       -0.124544         2.20234
LJ          0.380806        0.422835       -0.214764
LJ          -1.16792         1.05796        0.677297
LJ          0.671895         1.61257        0.775847
LJ            1.8661      0.00585434         1.10279
LJ          0.543797         2.11975         1.58155
LJ        -0.0130629         1.56226       -0.485086
LJ          -2.04194        -1.10409        -1.02348
LJ           2.18951        -2.03785        0.745198
LJ          -0.23978         -2.2517         2.15138
LJ          0.791657        -2.06275        -2.34753
LJ          0.184486         2.16945        -1.58725
LJ         -0.844697          1.6255        -1.29004
LJ           1.05013        0.264662        -1.29621
LJ          0.588249       -0.190271         1.82402
LJ          0.208509         0.29094        -2.03644
LJ          -2.15096        -2.03625       -0.329821
LJ           1.71561        0.741558        0.448805
LJ         -0.232843         1.39852        -2.02489
LJ         -0.321403        0.736701       -0.951641
LJ           1.71669         1.85372        0.488743
LJ          0.285806        -1.05865         2.29155
LJ          -1.06891         1.82444         2.28991
LJ          -2.05647        -1.58287         2.08991
LJ          -1.07157       -0.984958        -1.21174
LJ           1.81536        -2.34674        -2.33221
LJ           -1.2773        0.927798       -0.687815
LJ          0.117361        -1.60142         0.43394
LJ           1.28747       -0.423437        -2.10985
LJ           2.19384        -0.45339          -1.715
LJ           1.64888         1.75394         1.49887
LJ         -0.958389       -0.323005       -0.405763
LJ           1.84058        0.347166       -0.633061
LJ           1.66108        -1.99247       -0.129369
LJ          -2.09994         2.30693         1.51073
LJ          -1.19248       -0.654867           1.669
LJ          -0.17669       -0.785208         1.34967
LJ          0.887993       -0.653563       -0.688645
LJ         -0.693066        0.568474      0.00421024
LJ          -1.57313        -1.23246       -0.162216
LJ         -0.799842        -1.87107        0.153112
LJ          -1.89302        0.127135       -0.909502
LJ         -0.720554         -1.1615        -2.24478
LJ          0.504042         1.13502        -1.40433
LJ          0.585835          1.1779         1.96193
LJ           1.16699         1.83033        -1.98431
LJ           2.02529        0.109344         2.14287
LJ           1.80156        -1.32437       -0.807219
LJ           1.41952        -2.04116        -1.35459
LJ           1.57068       -0.703715          1.7417
LJ         -0.685132       -0.947809        0.450683
LJ          -0.12927         1.05972         0.60746
LJ         -0.121152         0.37097         1.37723
LJ           2.08661        -0.92061        0.713145
LJ          0.966501         1.18809       -0.152197
LJ           1.97465         1.11983         2.28232
LJ         -0.097042        -2.14526       -0.742546
LJ           1.78686         1.89222       -0.560686
LJ         -0.914413        -2.23272        -1.80448
LJ         -0.692223      -0.0795967        -1.32058
LJ          -2.37153        -2.01532        -1.24225
LJ          -1.36266         2.14871        0.690642
LJ          -1.78753        0.329846         1.24758
LJ          0.817449        -1.80589       -0.609512
LJ          -1.73518         1.93975       -0.995313
LJ          0.866899        0.324955          0.6924
LJ           1.65601        -1.65559         1.59442
LJ          0.597181        -1.44898         1.45726
LJ          -1.88146         2.27997        -2.03905
LJ          -1.57951        -1.53606        -1.87203
LJ          -1.26051        -2.08335         1.83001
LJ           1.54096         1.12418        -1.15136
LJ           1.87865        -1.37364        -1.99795
LJ          -1.76912        -1.47276         1.09564
LJ         0.0953513        -1.60054        -1.65226
LJ          -2.17373         1.27533        0.934421
LJ         -0.101936        -1.02305       -0.682647
LJ          0.901293       -0.646851        0.936289
