108
#Comment!
LJ          0.742886        -1.78116        -1.67558
LJ          0.911515         1.88752         0.98445
LJ           1.61565       -0.407027        0.157911
LJ          -0.33422           -1.03        -2.30353
LJ           1.14832        -1.77734        0.950638
LJ          -1.13127        -1.83213         -2.0276
LJ         -0.185673         1.57703       -0.957741
LJ            1.7755          1.2791         1.18711
LJ         -0.446911        -1.45835        0.424976
LJ         -0.954483         1.54661          0.9229
LJ         -0.865908         2.05781         2.37368
LJ          -1.84941        -1.77282        0.847824
LJ         -0.876833        0.531528       -0.301205
LJ          -2.21166         1.67375        0.671585
LJ          -2.19736        -0.90695      -0.0468521
LJ           2.37701         1.50759       -0.366969
LJ          -1.19444       0.0976244        0.806295
LJ           2.06707        -1.10289         2.00291
LJ          0.148498        -1.90164         1.13429
LJ          -0.48847        -1.30448       -0.606175
LJ        -0.0461979       -0.230218        0.862935
LJ           -2.2244       -0.687352        -1.79459
LJ          0.393246       -0.764125        -1.53426
LJ         -0.406502        0.654227        0.638854
LJ           1.77323       -0.144568         2.05753
LJ          -1.17831        -0.64841        -2.08558
LJ        -0.0648462         2.06276         -1.7818
LJ          0.925493        -2.14445         2.17755
LJ          -1.14408         1.22554        -1.77758
LJ         -0.885505        -2.17475       -0.978535
LJ          0.448731        0.711519        -1.19138
LJ         -0.713235        -0.45271       0.0821764
LJ           1.74034         1.78159        -2.35109
LJ          -1.91876         2.28529        -1.11728
LJ          0.772126         1.76187        -1.29643
LJ        0.00494608         1.80761        0.607749
LJ           2.29082        -1.94566       0.0101456
LJ         -0.243896        -1.71044        -1.60346
LJ         -0.840399        -2.21806         1.03107
LJ          -2.24891         1.78934         1.70809
LJ           1.27867        -1.04221        -1.22731
LJ          0.215253        -2.24104       -0.906568
LJ           2.37897        -1.42087        -0.99965
LJ           2.02169       -0.443809       -0.839408
LJ           1.40822      -0.0920788        -1.71396
LJ          0.690644         1.57205         2.20456
LJ          -1.37898         1.38163         1.87171
LJ         0.0199872         1.06178        -2.04714
LJ         -0.841966       -0.310345         1.77799
LJ          -1.61044        -1.10674         1.87333
LJ          -1.58468        -2.20467         1.77631
LJ           1.44101         1.41468       0.0257343
LJ         -0.766468         1.47781      -0.0498319
LJ          0.942566       -0.201026       -0.830725
LJ           1.63606        -1.67326        -1.97439
LJ           1.90312        -2.35975        0.914725
LJ         -0.564115        0.883592         1.56904
LJ          0.272397       -0.829433         1.64457
LJ         -0.340908      -0.0110488        -2.11963
LJ          0.589878      -0.0907616        -2.24952
LJ           1.82122         2.02069        -1.33491
LJ          0.285174        0.370694          1.5761
LJ          -1.51469         2.11087      -0.0197264
LJ          -2.05084        0.100675        0.302056
LJ          -1.50096       -0.371158       -0.520433
LJ            2.0032        -2.12628         1.96118
LJ           2.05449        -1.39502        0.840566
LJ          -1.61878        0.985518        0.307463
LJ          -2.23568        0.334092        -1.90439
LJ          0.501504       -0.981916       -0.579224
LJ          0.582203        0.985297        0.717592
LJ          -1.91824         2.02433          -2.147
LJ         -0.530178        0.659149        -1.23974
LJ          -1.96654        0.865673         1.19365
LJ           1.98382        0.437968       -0.239128
LJ         -0.589399         -1.3481         1.43296
LJ          0.881719        -1.21122         2.32199
LJ           1.32345        -1.39271      -0.0976542
LJ          -2.23265          1.2468        -1.60832
LJ          0.207489       -0.109829       -0.129047
LJ           1.99935        0.184938         1.01633
LJ            1.4108         2.37042       0.0461089
LJ          0.528066         1.86398       -0.215987
LJ          -1.33487        0.085243        -1.39946
LJ          0.490946        -1.91517       0.0706348
LJ           -1.8921        0.528979       -0.695879
LJ          -1.39976        -1.13089        -1.09711
LJ           1.23051         1.09776        -1.80619
LJ          -2.12438        -1.70156        -2.05578
LJ           1.24423       -0.743321         1.40504
LJ        -0.0583559         1.90844         1.54583
LJ          -1.41702         1.46175       -0.841219
LJ          -1.58372        -1.70049       -0.318917
LJ          0.614128        -1.03672        0.663027
LJ          -1.28697        0.478461         2.30331
LJ          0.925491      0.00888177        0.686344
LJ           1.02308        0.513199       -0.164842
LJ          -2.16169       -0.585495         1.12662
LJ         -0.501454       -0.456892        -1.17631
LJ          -1.98272       -0.220497         2.02003
LJ           2.15193        0.783078         1.96685
LJ           1.31491         -2.0472       -0.875441
LJ         -0.503379        -2.32233      -0.0871667
LJ           1.70804         1.08736       -0.955266
LJ         0.0823178        0.870064       -0.260066
LJ           1.12273        0.666817         2.09756
LJ        -0.0968974        -2.05448         2.19225
LJ          -1.35908       -0.987972        0.569177
