108
#Comment!
LJ          -1.51391        -1.13715        -1.40626
LJ          -1.77971       -0.187483        -1.66027
LJ           -1.3617       -0.932705       -0.396597
LJ          -0.13815         2.04575        -1.49499
LJ          -1.71944        -1.61405         1.22486
LJ          0.465525        -2.04434        -2.06158
LJ         -0.930458        -0.95627        -2.18185
LJ          0.347174        -1.62532        -1.14926
LJ          0.726675          2.0772         1.93149
LJ           1.58455       -0.914981         2.36548
LJ          0.705558       -0.298427         2.00995
LJ           1.34107         -1.2117         -1.3812
LJ          -2.27017        -1.75171          2.2616
LJ          -1.35498       -0.044343         2.21326
LJ           2.27084       -0.896019        -1.62285
LJ         -0.663034         -1.6675        -1.01281
LJ         -0.344375      -0.0832213         2.28947
LJ         -0.187195         1.79531         1.34684
LJ          -0.91492        0.109193        -1.22417
LJ          0.455769        -1.07025        -2.00597
LJ           1.63864        0.164758          2.2242
LJ          0.990363        -0.25159        -1.53375
LJ          0.468591        0.433327        -2.11776
LJ           2.04537        -2.01747        -1.42073
LJ          -1.75481        0.784643        -2.00973
LJ          -1.49817         1.25019         1.84315
LJ           1.91074         1.74969        -1.59771
LJ           2.13185        0.268055        -1.69235
LJ         -0.800989        0.771658         -2.1929
LJ          0.880864         1.74023        -1.89578
LJ          -1.37415         1.62618        -1.62573
LJ          -0.80701         1.97621         2.27842
LJ            1.2616        0.767271        -1.61483
LJ           1.83324         2.02646         2.06918
LJ           1.10805        -2.22562        -1.25538
LJ          0.989005         1.02543         2.05501
LJ           1.73712         1.79339         0.38787
LJ          -1.52141         2.13499        0.115023
LJ         -0.958252         2.17174       -0.700462
LJ          -1.82462        0.311235        0.347051
LJ         -0.905035         1.34452       -0.126953
LJ         -0.433015        -0.80436       -0.117279
LJ          0.833859        -1.41327        0.641385
LJ          -1.32594        -2.12652         -1.5508
LJ           1.45668         1.65552       -0.744656
LJ           1.71274        -2.20211       -0.265265
LJ           1.80455        -1.47816        0.419316
LJ           2.31514        -2.19875        0.770032
LJ           1.71296       -0.178035        -0.79126
LJ          -1.99432       -0.139027       -0.605652
LJ           2.27662       -0.391978        0.193249
LJ          -1.97596        -1.40339        0.226356
LJ         -0.850303        0.267768        -0.14026
LJ           0.33709         1.03756        -1.33343
LJ          -2.17812        0.520248         1.88725
LJ        -0.0280783        -1.88635       -0.262946
LJ           1.13072       -0.337041         0.25238
LJ          0.127021       0.0541331        -1.23362
LJ            0.4767       -0.521118         1.04612
LJ          -1.75412        -1.77582       -0.731008
LJ          0.660024       -0.479912       -0.627032
LJ          -1.64126        0.907142       -0.882784
LJ           1.34894        -2.19552         1.25128
LJ           2.06251        0.820695       -0.872745
LJ         -0.660176         1.05664        -1.09109
LJ          0.995196        0.524975       -0.630452
LJ          0.389894         2.02926       -0.640485
LJ        -0.0626908        0.873036       -0.352997
LJ           1.72923        0.766608        0.202466
LJ          -2.18871         1.17092      -0.0626205
LJ          0.942536         2.36922        0.285632
LJ         -0.133341         1.16361        0.635499
LJ          -1.00859        -1.62502        0.261615
LJ         -0.826491        -2.07314         1.14188
LJ           1.95772        -1.45556         1.47108
LJ          -2.01239          2.2256         1.65154
LJ          -1.19856          1.7586         1.01947
LJ        -0.0623408        -1.07767         1.78934
LJ           0.94838        -1.37203         1.67842
LJ         -0.143093        -2.13031         1.96489
LJ          0.914439        -1.48776       -0.331116
LJ          -2.14978       -0.671879         1.13033
LJ            1.4795        -0.58955         1.14381
LJ          -1.89707         1.93382       -0.835189
LJ          -1.18135       -0.459588        0.471935
LJ          -2.08343       -0.687881         2.21629
LJ           1.86074         1.34244         1.26757
LJ          -1.17174         -1.7957          2.0928
LJ         -0.423639        -1.13783        0.806775
LJ         -0.289582       -0.800084        -1.25895
LJ         -0.339904       -0.040427         1.18283
LJ          -1.09691       -0.908381         1.51008
LJ         0.0188147        0.867375         1.64513
LJ           0.91922        0.727355        0.866138
LJ          0.718875         1.69615        0.961249
LJ           2.12267        -1.17688       -0.628973
LJ           2.08561        0.162341         1.08073
LJ          -2.04332         1.01463        0.968011
LJ           1.94626         1.05488        -2.28178
LJ          -1.00791        0.819867        0.778922
LJ          -1.59389       0.0276602         1.28668
LJ          0.832996         1.33304      -0.0136095
LJ         -0.539003           2.169        0.295638
LJ         0.0126695         1.43465        -2.24569
LJ          0.137237      -0.0256863        0.252086
LJ          -2.09021         1.66344        -2.25547
LJ          0.171003        -2.08138        0.959944
LJ           1.44852        -1.91898        -2.24714
