108
#Comment!
LJ           1.86188       -0.714453       -0.831029
LJ         -0.708735       -0.993384        -1.43535
LJ         -0.663677        -1.98464        -1.54687
LJ          0.594558        -1.38857         1.91128
LJ           2.21814       -0.294576        -1.78098
LJ          -1.44489        0.593328        -1.48705
LJ          -1.59509       -0.473932         0.96529
LJ          -1.16691       -0.396156       0.0678863
LJ           1.22789        -1.43901        -1.14674
LJ          0.481991        -1.77701        -1.90335
LJ          0.624974         1.75839       -0.258847
LJ          0.392184        -2.25028        0.490046
LJ           1.65652         1.05129        0.816613
LJ          0.401703       -0.948038       -0.988697
LJ          -1.15684        0.609718         1.22593
LJ           1.03272       -0.635328         1.31371
LJ          -1.43104         1.59709         1.33289
LJ          -2.01282       -0.186025       -0.805919
LJ          0.407717         1.05786       -0.885466
LJ          -1.79747        -1.41764     -0.00470254
LJ         -0.684433      -0.0463882        -1.01705
LJ           1.92123        -1.58924         1.89337
LJ          -2.19843         0.56734        -2.14381
LJ          0.639558        0.196631         2.27797
LJ           -2.2901        -1.11321        -2.22974
LJ          -2.36006         1.46654      -0.0910775
LJ          -1.40363        -1.47859        0.926471
LJ          -0.52416         0.96814       -0.381079
LJ            1.6669         2.11983         0.15221
LJ            2.3277         2.22086         2.27822
LJ          0.337357        -1.24095        0.654599
LJ         -0.449105         1.03478        -1.35753
LJ           1.60639         2.04935         1.56498
LJ           1.91288        -1.57468       -0.286172
LJ           1.89502         1.48317        -1.92061
LJ         -0.137219        0.765677        -2.26449
LJ           2.02605     -0.00239205         1.17625
LJ         -0.378685         2.00379       -0.878268
LJ          -1.52818        -1.40496         1.90292
LJ          -1.19143        -2.32798         1.80917
LJ           2.09018        0.378246        -0.21232
LJ          -1.53243       -0.660616        -1.85745
LJ          -1.15168        -2.07452       -0.552781
LJ           1.18646       -0.233455        -1.77678
LJ            1.2405       0.0483417        0.511561
LJ          -2.11585         1.05472         1.67912
LJ           1.34265         1.06639         -0.1059
LJ          -2.12785         2.37542       -0.384835
LJ         -0.550551        0.351758        0.431179
LJ          0.108693        -1.88365       -0.974605
LJ         -0.602495        -1.48189         2.29686
LJ          0.395121       -0.799162        -1.97587
LJ          -0.02019        -0.55599           1.749
LJ          -2.06509         2.21663        -1.41228
LJ          -2.33534         1.13892        -1.17018
LJ         -0.613901       -0.547384        0.891875
LJ          -1.07037       -0.349804         1.86495
LJ          -2.04471       -0.244456         2.00139
LJ           1.61916        0.310708         2.20212
LJ            1.0673      -0.0837379       -0.715965
LJ           1.34604         1.49944        -1.04407
LJ          0.840179        -1.05875       -0.172083
LJ          -2.23148       -0.519938         0.19806
LJ           1.04028         -2.0807       -0.388253
LJ          0.953549          1.7096        0.855548
LJ           1.88449         -1.8526        -1.90873
LJ         -0.589735         2.23232         1.04943
LJ           1.32766         1.22497         2.06368
LJ          -1.79196         1.48934        -2.14551
LJ          -1.57103        -2.00276        -1.99892
LJ           1.80354        0.363763        -1.15171
LJ          -2.26863        -1.13033         1.17384
LJ          0.296892       0.0951055        -1.46439
LJ          -1.49363        -1.02289       -0.873099
LJ         -0.455382        -1.44939         1.34371
LJ            1.1678         2.14109        -2.35373
LJ           0.16825      -0.0220475       -0.277036
LJ           1.35964        -1.69564         1.06506
LJ         -0.203863        0.392573         1.41645
LJ          0.395283        0.939191        0.201573
LJ         -0.816733         1.80294        -1.92364
LJ             -2.23        0.672799        0.607383
LJ            1.0661        0.831442         -1.7334
LJ          -0.71421         1.33074         1.93232
LJ         -0.392099       -0.855925       -0.343752
LJ          0.679619        0.730037         1.26398
LJ        -0.0827951          1.2497         1.03293
LJ          -1.14589        0.562673         2.35336
LJ           2.18306        -1.92889        0.593738
LJ          -2.08521        -2.10409         1.45771
LJ          0.318784       -0.319352        0.685788
LJ          -2.33759         1.80062        0.923044
LJ          0.234617         1.60819        -1.88402
LJ         -0.609791       -0.206157        -2.01143
LJ          0.400184         1.45152         1.88368
LJ           1.70408       -0.900028         0.58905
LJ           -1.6213        0.658596       -0.291183
LJ          -0.30599         1.84567        0.113651
LJ           -1.3016         1.60569       -0.595658
LJ         -0.458491        -1.72999        0.244991
LJ          -1.16065         1.23019         0.39853
LJ          -2.32618        -1.50728        -1.18706
LJ           1.81233        -2.32473       -0.901259
LJ         -0.234569         2.18633         2.13388
LJ          0.583394        -2.37904         1.43503
LJ          -1.54964         -2.3185        0.438659
LJ          0.847208         2.31574         -1.3124
LJ           1.34133       -0.971042         2.35934
