108
#Comment!
LJ           2.11441         1.46559         1.94351
LJ          -1.70821         1.22614         2.33251
LJ           2.27196        -0.17206         1.15889
LJ           1.84661       -0.726187        0.315597
LJ          -2.32351        -1.81715       -0.364963
LJ          0.940851        -2.35478        0.381771
LJ           1.68149       0.0708922       -0.993662
LJ          -1.38466         2.08305         1.89993
LJ         -0.751937         2.07265         1.05051
LJ           1.68324         -1.8848        -1.02392
LJ          0.536873         2.29419         2.31545
LJ          -1.46946          2.0098        -1.78188
LJ           1.75337        0.933289         1.15368
LJ          -2.06719        0.943731        -0.51764
LJ          -2.13681         1.89835       -0.983386
LJ         -0.391972       -0.279854         1.03414
LJ            1.7456         2.04141      -0.0352853
LJ          -1.31415         1.46882        0.513484
LJ           -2.2783       -0.262061         2.08862
LJ           1.93577        0.521192        -2.34025
LJ          0.492896         -1.0708       -0.190328
LJ         -0.618298         1.50901         2.25473
LJ          -2.31204        -2.32908         1.58256
LJ          0.715888        0.637377       -0.111483
LJ           -1.5093        -1.70146         1.55305
LJ          -2.08155          1.8205       0.0439021
LJ           1.44271         1.92625         1.09349
LJ          -1.24791       -0.774721         1.20067
LJ          -2.33446         -2.1958         -1.7839
LJ          0.702112         1.63101       -0.508129
LJ          -1.04903          1.4011       -0.555935
LJ          0.843114          1.1725        0.901516
LJ         -0.433801        0.499767         1.71201
LJ           1.84533        -1.82587        0.966544
LJ          0.616711        0.543556         1.76472
LJ         -0.158479         -1.5764         1.29567
LJ          0.726161        -1.52913         1.85727
LJ          0.145715       -0.498801       -0.940451
LJ          -1.94838         -1.2519        0.761002
LJ          0.504565       -0.527043         1.79324
LJ            1.7071       -0.488024        -1.81413
LJ          0.473255        -2.03729       -0.490644
LJ          -1.19433        0.893483        -1.63983
LJ         -0.343013         1.23647        -1.23023
LJ          0.867097        0.104754        -2.10831
LJ          -2.10215        0.101046        -1.51972
LJ           1.08906        -1.11513        -1.26702
LJ           1.02409       -0.260959       -0.343361
LJ          -0.18565         2.15113        -1.78747
LJ          0.528586        0.446269        -1.21406
LJ           -2.2689         1.62261         1.00555
LJ          0.166847        0.754587        -2.01234
LJ          -1.32987        0.236858         2.20205
LJ         -0.502616        -1.41466        -2.15111
LJ          -1.39767        -1.20099      -0.0741719
LJ           1.56467         1.90831       -0.998613
LJ           1.47778         2.06322        -2.03359
LJ          0.749673        -1.42996          0.8947
LJ           1.40941       -0.118996         1.81585
LJ         -0.609972       -0.453188         1.96571
LJ            1.4113        -1.46628        -2.13428
LJ          -1.21851        0.449814       -0.679704
LJ           2.34067      -0.0709759       -0.266967
LJ           1.33923        -1.54133      -0.0588013
LJ          -2.13915         0.65125         1.60438
LJ          -1.62353       -0.459752       -0.730363
LJ          -1.49825       -0.913617         2.18281
LJ        -0.0124967        0.674673        0.800212
LJ          -1.38365         2.33936        -0.29543
LJ          -1.61818        -1.53616        -0.99676
LJ         0.0156887        -2.21226        0.497913
LJ           1.68846         1.05456       -0.237444
LJ          -1.79232       -0.399192        0.382537
LJ         0.0821479        -1.60265        -1.29767
LJ           1.06266         1.16362        -2.37251
LJ          0.429416        -1.02858        -2.02073
LJ           1.54467        0.998795        -1.47001
LJ           1.96769       -0.863922       -0.861191
LJ          -2.30364        -1.08782        -1.61664
LJ           1.63817         -1.0833         1.69451
LJ           1.06156       -0.452835        0.812563
LJ         0.0955656         1.34301          1.5397
LJ         -0.774728        -1.06225        -1.21322
LJ            1.6785        0.288867        0.421311
LJ           0.58374         1.53517        -1.59491
LJ          0.812019        -2.25002        -1.47733
LJ           -0.3283          2.0551       -0.351332
LJ          -2.24308         1.18527        -1.65759
LJ         -0.171331        -1.12489        0.480897
LJ          0.119778      -0.0658717       0.0260302
LJ          -2.32174        -1.48126         2.25489
LJ         -0.230076        0.805976       -0.377991
LJ          0.134154         1.54452        0.327445
LJ         -0.546464         -1.6842       -0.331499
LJ         -0.883953        -2.23461         -1.2408
LJ           1.42947        -2.17772          1.8541
LJ           -1.8028        -2.32978        0.743248
LJ          0.553079         2.21228         1.32852
LJ         -0.414178        -2.25722         1.95866
LJ         -0.734539        -0.45984       -0.251985
LJ          -1.42935        -1.71439        -2.00782
LJ        -0.0858346       -0.273861        -1.85937
LJ          -2.02643        0.658348        0.488486
LJ         -0.887006        -1.76626        0.613349
LJ          -1.06375       -0.219462        -1.69855
LJ          -1.09673         1.16145         1.32819
LJ          -1.36738        0.195601         1.17306
LJ         -0.959673        0.344989        0.289318
