108
#Comment!
LJ           1.12567       -0.412291        -1.59453
LJ          -1.69744        -1.23549         2.00289
LJ         0.0612334       -0.218672        -1.84475
LJ           1.02558        0.732762       -0.521187
LJ           1.21755         2.28991          1.3076
LJ           -1.4799       -0.715997       0.0232279
LJ           2.08724         2.00186        -1.54093
LJ           -1.8796        -1.23774        -1.77363
LJ         -0.308963       -0.895414        -1.08467
LJ           1.41538        -2.12107        -1.30722
LJ          -1.89904       -0.267011        -2.29296
LJ         -0.634751         1.11982        0.577997
LJ          -1.93528        -2.18807        -1.89649
LJ           -2.0264        -0.28553         1.47847
LJ          -1.64532        0.650266         2.29498
LJ           1.25384        -1.93961       -0.267875
LJ         -0.840443        -2.06575       -0.790826
LJ           1.85235         1.32506        0.649132
LJ          -2.37233        0.492255        -1.70961
LJ           1.79717        -2.01265        0.546123
LJ           2.08441        -2.31145         2.03193
LJ         -0.507582         2.28123         1.68091
LJ          0.548256       -0.124171        0.959255
LJ          -1.12681       -0.373602          1.7893
LJ            -2.302        0.772387         1.22862
LJ         -0.776388        -1.38804      -0.0059232
LJ           1.07612       -0.997741       -0.552391
LJ            1.1168         1.15032         1.58046
LJ          -1.48546         0.44525        -1.38119
LJ          -1.28831         1.06605       -0.662703
LJ          0.639058        -1.88829         0.57912
LJ          -1.87513         1.16621        0.357648
LJ           2.15676       -0.447689       -0.325401
LJ           1.80624         1.67311       -0.279724
LJ          0.277476         1.72156         1.04521
LJ          -2.35182        -1.39019      -0.0495765
LJ           1.16261        -2.14475         2.33218
LJ          0.849713         1.93085        -1.73598
LJ         -0.343963         1.74015        -0.92561
LJ        -0.0447473        -0.98539         1.21599
LJ          0.361392         1.06029        -1.21803
LJ           1.71675        0.213547         -1.0043
LJ          0.919481        0.948103        0.462143
LJ          0.170842       -0.190436         1.90067
LJ          -1.77524         2.14376          -1.044
LJ         -0.693978        -1.39707         1.88347
LJ          -2.32654         2.07597         1.10519
LJ           1.38456         1.26897        -1.23299
LJ          0.420716        -2.00608          1.6152
LJ           -1.9608        -2.31688         0.19385
LJ          0.820233         1.84887        -0.66433
LJ           1.93228        0.575756      -0.0620528
LJ          0.577642        -1.31314        -1.43917
LJ        -0.0928793         1.62178        -2.03629
LJ         -0.597261         1.25638         1.77973
LJ          0.171907         1.28309       -0.166633
LJ         -0.333673        0.386902       -0.867489
LJ          0.132196        0.371339        0.175413
LJ           2.01042       -0.638921         2.23727
LJ           2.15944        -2.19343       -0.582657
LJ          -1.83861        -1.83151         1.12349
LJ           1.95271         -1.2772       -0.968428
LJ            0.2553        -2.32365        -1.13445
LJ           1.66028       0.0997268        0.896521
LJ          -1.17822       -0.985126        0.960068
LJ         0.0947253        0.710159          1.3074
LJ            -2.256       -0.999282        0.824929
LJ         -0.977321        -1.73444        -1.88965
LJ           2.04136        0.325022         2.06541
LJ          0.594321         1.83545         2.08201
LJ           -1.3909        0.309888         1.05761
LJ           2.24101       -0.503065        -1.52053
LJ          -2.30296         1.07999       -0.797574
LJ           1.08824        0.190544         1.75033
LJ           1.37279         0.45027        -1.95959
LJ           1.78041        -1.41564         1.71043
LJ          0.957888         1.98896        0.332636
LJ        -0.0709692        -2.06553        -2.29396
LJ          -1.59067        -1.39127       -0.780778
LJ          -2.30412         1.50471         1.92084
LJ           -0.4641      -0.0406415        0.830024
LJ          -1.47294         2.10389         2.01632
LJ         -0.985172         1.98331        -1.73234
LJ          0.407179        0.617653        -2.26011
LJ           -1.1638         1.90324       -0.171678
LJ           1.59729         -0.8958        0.416209
LJ         -0.932325       -0.348441        -1.88825
LJ          0.264573        -1.63108       -0.364429
LJ          -1.76846         1.43364        -1.75038
LJ         -0.254405        -0.49176       -0.187451
LJ           -1.4555         1.31386         1.35513
LJ         -0.662025        0.896022        -1.66531
LJ          -1.80154         0.27778       -0.346896
LJ         -0.550148        -1.76147        0.879226
LJ          0.934004        -1.20894         1.26345
LJ          -1.24176         2.18432        0.847677
LJ         -0.557765        0.351299         2.24121
LJ          0.816535        -1.07688         2.29894
LJ         -0.848675        0.367766      -0.0531448
LJ           1.58978         1.39646        -2.33035
LJ          0.522203       -0.891481        0.261949
LJ           1.09637      -0.0786717        0.134788
LJ            1.8103        -1.50233        -1.95911
LJ         -0.238532        -1.03255        -2.14666
LJ           -2.2225      -0.0402448         0.52692
LJ         -0.200275         2.22199        0.319206
LJ          -1.09694       -0.339613       -0.921138
LJ          0.519134       -0.110819        -0.67495
