108
#Comment!
LJ          -1.91175       -0.182591        -1.47147
LJ          -1.80607       -0.241261        -0.40696
LJ           2.05637        0.411657         1.27149
LJ           1.69431          2.1286        0.145472
LJ          -1.66579         1.37728        -1.58452
LJ           1.68362         -2.1576         1.05108
LJ          0.542143        -1.79691        0.759769
LJ          0.761118        -1.95516       -0.876065
LJ           0.43396       -0.997505       -0.948555
LJ          0.363338        -0.53507        -2.00906
LJ           2.14516       -0.475311        0.864073
LJ          -1.70042          2.2984        -2.31749
LJ           1.85665        0.457971        -1.21632
LJ           2.13651        -1.41303        -1.89522
LJ         -0.252171         1.55814        0.530378
LJ          -1.38491        -1.65306       -0.121258
LJ          -1.56297        -1.52296         2.06697
LJ            1.7801         1.32243         1.61805
LJ           2.01665        -1.03507       -0.083498
LJ         -0.834299        -1.92622        -2.12253
LJ          -1.85527       -0.562362         2.06407
LJ          0.928958         1.81329        0.832418
LJ          -1.34694        -1.70291        0.881971
LJ           1.74338        -2.36796        -1.74693
LJ            1.4967        -1.18409         1.16691
LJ          -2.20663        -1.28639         1.38329
LJ          0.609066         1.27728        0.015022
LJ           1.27808        -1.73803      -0.0738434
LJ          -1.90903         2.27837         0.21848
LJ         0.0731571         2.30527         2.31705
LJ          -2.27802        0.371067        0.246813
LJ           0.13805        -1.46629        -2.32409
LJ          -1.15815         1.50575         2.05741
LJ          0.476841        -0.93865        0.126045
LJ          0.678034        0.333894       -0.307929
LJ          0.429923       -0.755432         1.79818
LJ         -0.446462        -1.23624        -1.45296
LJ           1.55273         1.01585       -0.403723
LJ            -2.002         1.15802        0.990503
LJ           2.29751        -1.72688        0.505268
LJ         -0.936526         2.13305        -0.15277
LJ           1.71355         1.23846        0.593646
LJ           1.02926         2.05066         2.15698
LJ            2.2467         1.56546        -2.31859
LJ          -1.82648        0.505439         1.75733
LJ           1.18412        -0.51766       -0.450774
LJ          0.825197        -1.75644          1.6792
LJ           1.29574        -1.09441        -2.30301
LJ            2.1676         1.44076        -1.12636
LJ           1.99159       -0.431288        -1.84499
LJ          0.427921        0.425909        -2.13691
LJ          0.909832        0.793836        0.860659
LJ          0.408855         1.72083         -1.6185
LJ          0.824212        -2.06449        -1.81026
LJ          -2.08759         0.73347        -2.08149
LJ         -0.203252         0.77228       -0.345326
LJ           1.21917         1.77396       -0.968925
LJ           1.06277       -0.139671         2.15215
LJ         -0.475963        0.412195        0.475129
LJ         -0.108123       -0.435137        0.956969
LJ         -0.143352         1.30182         2.22278
LJ           1.11371       -0.123076        -1.58359
LJ         0.0314455         2.03104          1.3653
LJ          0.467102        0.216246         1.53188
LJ          -1.10167       -0.789957         1.35626
LJ          0.575615         1.00851       -0.996936
LJ             1.507        0.113677        0.307609
LJ         -0.208375       -0.338672       -0.315898
LJ          -1.27599         2.00098        0.906918
LJ          -1.05836        0.951717         1.25075
LJ          -1.81053       -0.928731        0.387936
LJ         -0.958784          1.3458       -0.875338
LJ        0.00758482         1.83125       -0.534779
LJ         -0.648353         1.73808        -1.79359
LJ          0.840443         1.10242          1.8015
LJ          0.886628       -0.426801        0.874026
LJ         -0.605296       -0.742661         2.27818
LJ          -1.97886        0.667028       -0.792677
LJ         -0.592404        -1.06181        0.403929
LJ          -0.31871        -2.05687        0.381365
LJ          -2.06968         2.19147         1.46725
LJ         -0.990519       -0.729634       -0.669134
LJ          -1.90413        -1.93356        -1.51741
LJ           2.07674       -0.398026        -0.83039
LJ         -0.752285        -2.20978         1.71387
LJ          -2.05546        -1.19289       -0.766206
LJ          0.705019         2.25043      -0.0150752
LJ           -1.4278        -1.02098         -1.7585
LJ         -0.728732       0.0914201          1.6629
LJ           1.72853        0.443967        -2.22361
LJ           1.35529         1.40724        -1.92683
LJ          -1.04365        0.249274       -0.916151
LJ           2.17927        -2.00279       -0.537123
LJ          -1.32364        0.664143       0.0306327
LJ         -0.271513        -1.57774       -0.543092
LJ         -0.322997        0.782132        -1.49201
LJ         -0.107518        -2.31848        -1.25799
LJ          -2.22403         1.35562       -0.119356
LJ         -0.454418       -0.178661        -1.60013
LJ           1.95323       -0.511853         1.89634
LJ          -1.03451        -2.04178        -1.00773
LJ           1.35455         -1.1268        -1.23256
LJ          -1.87324         2.06354       -0.844364
LJ           2.03948        -1.90645         1.97094
LJ         -0.135676        -1.35424          1.3537
LJ          -1.25979        0.166472        -2.19741
LJ        -0.0756303        0.957004         1.26945
LJ          -1.40665       -0.025341        0.851304
