108
#Comment!
LJ          -2.32523         1.64749        -1.84955
LJ           2.17592       -0.298329         2.31368
LJ         -0.179361        0.415927        0.379202
LJ            1.1456       -0.366757        -1.21266
LJ           1.68641        -1.99768         1.15556
LJ           1.16835         2.01595        0.328532
LJ          -2.21044         1.30035       -0.929684
LJ         -0.939153         2.00017        -2.23479
LJ          0.025361         2.18085         2.23641
LJ          0.337259        -2.22635        0.481511
LJ          0.111872       -0.246681        -1.29482
LJ          -1.04631        0.950432        -1.81897
LJ           2.13204         1.81976        0.305002
LJ           2.02042       -0.174577        0.149624
LJ            -1.854       0.0352007         1.72452
LJ         -0.250447       -0.980551         1.67349
LJ          0.590211        0.901221      -0.0749339
LJ         -0.166987         1.45695        -0.49825
LJ           2.12207       0.0267759        -1.37723
LJ          0.608412         1.79042        -1.10502
LJ          0.297652       -0.184383       -0.296513
LJ          0.415418        -2.18037        -1.74299
LJ          -1.44808       -0.845104          1.4735
LJ         -0.106803         0.81883        -1.79198
LJ          -1.89548        -2.29135        -2.17252
LJ          -2.25127        -2.07552         0.49065
LJ          -1.31674        -2.06592       0.0480827
LJ           1.79773        0.530085         2.08496
LJ          -1.89868        0.673224       -0.190339
LJ          -1.47634         2.10171        -1.31426
LJ           1.67986         2.30031       -0.569679
LJ          0.603644         1.89151         1.32794
LJ          0.134822      -0.0294564        -2.36246
LJ          0.980517        -2.10764         1.83325
LJ           1.19783       -0.525102        0.533743
LJ          -1.02531       -0.652452        -1.00048
LJ          0.560636         -1.2036        -1.31887
LJ          -0.39409        0.435107       -0.639438
LJ           1.83369       -0.775191       -0.633223
LJ           1.09594       -0.687947        -2.26945
LJ          -1.62508        0.136072        -1.36905
LJ         -0.376949        -1.69201       0.0442019
LJ           0.19393        0.026896         1.23694
LJ          0.513386        -2.15534       -0.557434
LJ           1.74261         1.08424        -1.40321
LJ           1.90431       -0.898438        -1.65255
LJ            1.1858        0.362305        -1.87321
LJ           2.28598         -1.0697        0.754776
LJ         -0.420616          1.1439         2.15428
LJ          -1.11769       0.0872595      -0.0118301
LJ           2.28017          2.0709         1.44697
LJ           -1.6566         1.66285      -0.0754969
LJ         -0.813901      -0.0480183         1.75089
LJ          -1.22454         1.06993       -0.850698
LJ          -2.24137        -1.26135         -0.1677
LJ           1.43171         1.35317       -0.476734
LJ           1.64704        -1.11239         1.76616
LJ         -0.573391         1.77378         1.36504
LJ           1.04876      -0.0687791         1.74426
LJ         -0.799907        -1.69325        0.958308
LJ          0.508401        0.866619         1.75857
LJ          -1.84463       -0.288284        0.649654
LJ          -1.84535       -0.870867        -1.49232
LJ          0.015458        -1.99336         1.46215
LJ           1.99678        0.876902        0.460611
LJ          -1.96195       -0.365067       -0.530528
LJ         -0.563089        0.813484          1.1804
LJ          -2.30153        0.901547         1.43795
LJ           2.34669        -1.90208        -1.39818
LJ           1.64289         1.53935         2.23355
LJ          -1.20935       -0.772545        -2.36321
LJ          -1.39183        -1.13736        0.403065
LJ         -0.688739       -0.341986        0.793016
LJ         -0.909827         -1.8946        -1.61701
LJ          0.730106         1.45979        -2.11787
LJ          0.636742        -1.13019       -0.275956
LJ         -0.499945         1.69194        -1.38341
LJ          -2.12888        -2.31615        -0.52195
LJ           1.86639        -2.22492         2.30275
LJ          0.173616       -0.796952        0.651439
LJ          0.825327        0.731006        -1.04237
LJ          -1.50069        0.653759        0.858391
LJ         -0.326802        -1.43529       -0.917066
LJ            1.1122        0.454209        0.869751
LJ           1.36156         -1.5275       -0.870131
LJ           1.46423        -1.63263        0.139372
LJ          -1.47168        -1.52915       -0.866177
LJ           1.60365         2.21413        -1.52635
LJ           1.94212       -0.099717         1.30422
LJ           1.40377        0.388238       -0.374452
LJ          -2.09892        -1.68035          1.5447
LJ         -0.878406         1.07513        0.218853
LJ           1.26405        -1.60268        -1.94704
LJ          -1.28486        -2.27448         1.70399
LJ         -0.696387         2.37748       -0.710655
LJ          0.322563        -1.43983         2.37223
LJ         -0.601576         2.06101        0.273893
LJ          0.119359         1.40108        0.611778
LJ         -0.681645        -1.69197         2.21347
LJ         -0.600281       -0.754228      -0.0563725
LJ          -0.31601        -1.02754        -1.86473
LJ          0.711987        -1.12605         1.49558
LJ          -1.61031         1.93832        0.899279
LJ          -2.21992        -1.42793        -2.24903
LJ         -0.719023       -0.103872        -1.76478
LJ          -1.38186         1.30912         1.95176
LJ          -2.07949        0.686669        -2.23055
LJ           1.58069         1.33453          1.3027
