108
#Comment!
LJ          -2.26457         2.03289      -0.0645436
LJ         -0.191502          2.1565        0.495814
LJ           -1.4992       -0.574725         2.04443
LJ          -1.48027        -2.13683        -1.76931
LJ          0.402251       -0.817415        -2.05761
LJ          -1.53907         1.30434       -0.428942
LJ          -1.95119         1.56017        0.826358
LJ           1.31203         0.46258       -0.553054
LJ           0.63707        -2.01269         1.28391
LJ          0.347197         2.08129         1.98823
LJ         -0.895029         1.45453        -1.47739
LJ          -1.05875         1.54563        0.419398
LJ           1.62614        -1.39066       -0.224885
LJ         -0.575521        -1.00544        -1.43185
LJ         -0.631481         2.32589         2.32292
LJ        -0.0438918       -0.496201         0.98366
LJ         -0.927206         -1.1955        0.104902
LJ         0.0556833        -0.75061       -0.667592
LJ           2.00586         1.03462        -1.49428
LJ          -1.88758       -0.393898         -1.6271
LJ         -0.600617        0.453417        -1.14392
LJ           1.96636       -0.742341         0.67035
LJ          0.951079         1.52841       0.0434769
LJ         -0.360064         1.53741         1.37577
LJ          -1.61116       -0.840593        0.776445
LJ           1.70141        0.609173        -2.32497
LJ          -1.93413        -1.70675       -0.257586
LJ         -0.464214        -2.28822        -1.49213
LJ           1.35436       -0.893249         1.86852
LJ         -0.814977       -0.295009       -0.495341
LJ         -0.368411        -2.15108         1.43427
LJ         0.0831672        0.242599        -1.89584
LJ          0.509932         2.13389        -1.67449
LJ           1.76768       -0.439801       -0.366509
LJ           -2.2655        -2.28429         1.76673
LJ          -1.61047        0.729292        -1.70597
LJ           -1.6026        0.323359       -0.811128
LJ           1.55073         2.22525       -0.308228
LJ         -0.577891         1.72587       -0.460832
LJ            1.5349         2.10657        -1.54857
LJ         -0.935786       -0.212416        0.520385
LJ          -1.49335        -1.65497          1.7101
LJ         -0.479157        -1.83158       -0.607801
LJ         -0.809411        -1.46039        -2.26768
LJ          -2.32989        -1.06823         1.47024
LJ          0.394329        -1.10667         1.60655
LJ         -0.214906        -0.21089         1.92346
LJ          -1.94406       -0.181911       0.0902427
LJ          0.392372        0.816668         1.73795
LJ          0.390689        0.251627       -0.805666
LJ           2.28756         0.90687       -0.461372
LJ            1.6302        -1.65818         1.28887
LJ         -0.268231        0.523301        0.992522
LJ        -0.0391767         1.38595        -2.09549
LJ          0.674562         1.63671        0.975135
LJ          0.179818        -1.87815        -2.24173
LJ           2.36742        0.451448        0.949661
LJ          -0.93946       -0.283543        -2.01819
LJ           1.32273       -0.364953        -1.67506
LJ         -0.721601        -1.04756         1.61251
LJ          -1.42153        -1.38492        -1.09499
LJ           2.09642       0.0464301        -1.15799
LJ           1.20097        -1.38015        -1.91069
LJ           1.14048        -2.04579         2.17007
LJ          0.892119        -2.29328        0.391954
LJ          -2.37037         2.14844        -2.05663
LJ          -1.47339         1.74838        -2.36351
LJ        -0.0910062        -1.52172        0.494325
LJ          -1.52249        0.625257        0.521382
LJ            1.8485         2.37474        0.657098
LJ          -1.40833         1.10291         1.55912
LJ           1.65689        0.330409        0.336494
LJ          0.251166        -1.54777        -1.24911
LJ           1.00404        -1.33234        0.569256
LJ           2.13803       -0.496716        -2.30216
LJ         -0.135884         1.16077        0.238007
LJ           1.11433        -1.99436       -0.984285
LJ            1.6724         1.85782         1.81182
LJ          -1.16563        -2.25474        0.173802
LJ          0.262735          1.2149       -0.880014
LJ          0.943746         1.41987        -2.12811
LJ            -0.814        0.630181       -0.190375
LJ           1.05888      -0.0653437         1.12444
LJ          0.701339        0.725755        0.587491
LJ           1.35538         0.83089         1.49052
LJ          -1.31159         2.18407       -0.831455
LJ        -0.0055394       0.0943975       0.0997723
LJ            1.3136         1.37459        -0.89537
LJ          -1.18162          2.0247         1.49256
LJ          -1.80006        -1.27845         -2.0768
LJ          -1.89966        -2.02608        0.767064
LJ            1.9068       -0.124053          1.6196
LJ           2.08182        -1.63045        -2.32327
LJ          0.493446        -1.66581       -0.265718
LJ          -1.20438       0.0589411         1.38826
LJ           1.05815       -0.961936       -0.883369
LJ           2.29434        -2.02545        -1.18461
LJ           2.36585         1.78064       -0.974261
LJ           2.09388        -1.07779        -1.46761
LJ          -2.08455       -0.671415       -0.697235
LJ           1.11196        0.616356        -1.53403
LJ          0.918647      0.00521811         2.20327
LJ          -2.38023         1.18922         1.72118
LJ         -0.778569        0.683651          2.1907
LJ          0.335041         2.21161       -0.699675
LJ          -1.90534        0.371496         2.18779
LJ            1.7197         1.36939        0.709077
LJ          0.886439        -0.33415        0.201232
