108
#Comment!
LJ          0.032727       -0.881912        -1.63874
LJ          0.187671       -0.249814         2.10447
LJ         -0.510411        0.263466        0.124484
LJ          -2.14035       0.0106335       -0.174359
LJ         -0.820155     -0.00163452        -2.33147
LJ          0.999202         2.33643       0.0287737
LJ           2.04608       0.0730996        -1.08977
LJ          -1.71294         1.64493         2.24125
LJ           1.95859        -1.67758        0.344381
LJ        -0.0108193          2.1929        0.330672
LJ           1.24358         2.25287        -1.98853
LJ          -2.10711        -2.07998         2.35897
LJ          0.421019         0.12239      -0.0922184
LJ          -2.14425        -1.64445        -1.49248
LJ          -1.24689         -1.5971        -0.30597
LJ          -1.97735        0.528405         1.21441
LJ          -1.22168         1.37631         1.35167
LJ          -2.31485       -0.470133         1.25614
LJ          -2.18871         1.95069        0.224499
LJ          0.746039        -1.56531        -1.99884
LJ          -1.00661        0.360436         1.00948
LJ          0.232988          1.7931       -0.652667
LJ           2.00761       -0.836356           2.034
LJ           1.12431         1.39247         1.68658
LJ         -0.747727       -0.959039       -0.831377
LJ          -2.13541         1.22011       -0.425845
LJ           2.18544         -2.3558         1.02153
LJ         -0.653199        0.824396         1.94019
LJ          -1.73484        -1.42538        0.503841
LJ           1.61877        -1.07742         1.10849
LJ          -1.20786          -1.215         1.37847
LJ         -0.679284         1.42493       -0.353701
LJ         -0.431309         1.14639        0.627209
LJ         -0.644004        -2.21737         -0.8748
LJ           2.07831       -0.828629        -1.72856
LJ           1.05151         0.61217        0.861112
LJ           -1.2187         1.94467        0.496906
LJ         -0.954213        0.854753         -1.7768
LJ         -0.124604        -1.61386       -0.213513
LJ         -0.583106         2.13309         1.41352
LJ            2.2915        -2.23401       -0.573573
LJ           1.93663         2.02797         1.88641
LJ          0.194762        0.753769         1.35692
LJ        -0.0891869        0.717002       -0.734233
LJ          0.544825         1.33531        -1.61702
LJ           1.11321        -1.35868       -0.297711
LJ          -0.59148        -1.90318        0.663196
LJ          0.870842        0.918311       -0.611421
LJ          0.920994        0.499929          2.0039
LJ          0.097783       -0.170877        0.799171
LJ         -0.662709       -0.884076        0.200975
LJ            1.1559         1.91919       -0.945266
LJ            -2.376        0.993498        -1.88482
LJ         -0.547391         1.62549        -1.33922
LJ          -1.68021         1.45704        -1.34767
LJ          0.508136         1.27696        0.216312
LJ           2.12225       0.0556171        -2.29852
LJ           -1.1962      -0.0877526       -0.469145
LJ           1.79786        0.549595       -0.239401
LJ          -1.37858        -2.32393        -1.59402
LJ           -1.3943        -0.27618         1.64232
LJ          -1.10728        -1.86849         2.13029
LJ          0.616733        -1.95501       -0.968487
LJ          -2.21194        -1.53348          1.4785
LJ           1.95915        0.178746        0.704186
LJ           1.67081         1.51241        0.897882
LJ           1.06832       -0.308082         0.56976
LJ          0.719247        -1.03365         1.62358
LJ         -0.804938         2.02299        -2.23997
LJ           1.36569        0.391302        -1.73264
LJ           1.18551       -0.353706       -0.456145
LJ           1.40217       -0.200482          1.5381
LJ           2.19222         2.17274        -1.60611
LJ         -0.407583        -1.75254        -1.85859
LJ          -1.91287       -0.152236        -1.70101
LJ         -0.257788        -1.06307         1.35938
LJ           1.07996       -0.917647        -1.32269
LJ          0.182357       -0.724506       -0.601871
LJ           2.15968       -0.741005        0.352445
LJ          -1.39758        0.865505        0.124503
LJ         0.0324049        -1.75747         1.99424
LJ           1.62915        -1.82568        -1.17179
LJ          -1.74654        0.573353         -1.0282
LJ            1.7685          1.0512        -1.09521
LJ           1.24448         -1.9342         1.29417
LJ         -0.484085      -0.0478252        -1.30234
LJ          0.346434        -1.18699        0.541253
LJ         0.0269628        0.587408        -2.08846
LJ          -1.45188       -0.418492        0.409705
LJ         -0.588792       -0.974028         2.31454
LJ          0.704463         1.99939        0.965218
LJ           1.39038         1.27774        -2.08423
LJ           1.96083        0.799211         1.68918
LJ          0.221392         2.31225        -1.83781
LJ        0.00731927         1.48803         2.28138
LJ          -1.60682         2.31104         1.38697
LJ          0.589536      -0.0406804        -1.30323
LJ          -1.50542         2.11397       -0.439135
LJ           1.72323        -1.66549         -2.2091
LJ          -1.80934       -0.852323       -0.797207
LJ          -2.19968         1.50714         1.31386
LJ          -1.60755       -0.972717         2.29193
LJ           1.70397         1.59792       -0.143543
LJ          -1.62637        0.532995         2.15496
LJ           2.04645        -1.18457       -0.505659
LJ          0.644819         2.25015          1.9591
LJ           -1.2197        -1.16643        -1.58548
LJ           1.09354       -0.656552        -2.26756
