108
#Comment!
LJ         0.0777513        0.501239         1.14954
LJ           -1.0402         1.58806        -2.35061
LJ           1.04422         2.11389         1.33716
LJ         -0.220789        0.474648         2.10204
LJ           2.06991         1.22684        0.202929
LJ            1.5882         2.19422        0.431946
LJ           1.37698         1.69773         2.32689
LJ           1.67048      -0.0478109         0.57806
LJ           -1.2063        -1.78771         2.23928
LJ           1.06767        -1.56587         1.59064
LJ        -0.0509279         1.67643         2.18888
LJ           -2.2963         0.73343        0.958888
LJ         -0.180171         -2.2644        0.275852
LJ           1.93936         1.68767         1.49552
LJ         -0.569632        -2.33434        -1.76628
LJ          -1.61107        -2.24663       -0.635237
LJ          0.845128       0.0910909        -2.06269
LJ          0.424067        -1.39054        0.708838
LJ          -1.44521         -1.6701        -1.48883
LJ          -2.28225         1.16125        -1.85035
LJ           -1.5714        0.743377       -0.439574
LJ          0.855424         1.06865        -1.84415
LJ          0.398007       -0.665666         1.65703
LJ           1.35097        -2.06979       -0.880499
LJ          -1.69256       -0.426317       -0.504445
LJ           1.35008        0.709752         1.07689
LJ         -0.774085         2.18857         1.69628
LJ           2.10159         2.05883       -0.400275
LJ         -0.931121       -0.956777       -0.830242
LJ          -2.02964         2.06171        0.673879
LJ          -0.94005       -0.944449        -2.03883
LJ          0.874533         1.44201        0.614532
LJ         -0.679918        0.883429         0.34181
LJ           1.68427        -1.88801        -2.01666
LJ          -1.16048        0.277522        -2.34768
LJ          -1.29257         1.00732        -1.57018
LJ          -2.22957         0.27169       0.0284071
LJ           2.21075        -1.21703        -1.35684
LJ       -0.00396661        -0.56386        -1.07625
LJ          0.728076        0.105393        -1.05759
LJ         -0.242624       -0.367223        0.876622
LJ           1.29203         1.42588       -0.371192
LJ          -2.35026       -0.782046        0.215415
LJ          0.399687         1.02017       -0.740276
LJ          0.865413         2.05449        -1.52938
LJ          -1.98237        -1.24566        -2.22756
LJ           1.06439       -0.901253        -1.15183
LJ           1.96995        0.703765       -0.707426
LJ          0.726026          1.2251          1.7954
LJ          -2.02257       -0.264677         1.01988
LJ          -1.75692       -0.666122        -1.44789
LJ         -0.835244       -0.183405      -0.0299166
LJ          -1.12769          1.5885        0.995296
LJ         -0.495085       -0.489897         1.91092
LJ          -1.37828        0.399384         0.75586
LJ          -1.62291        -1.48523       0.0748973
LJ          -2.32907       -0.296682        -2.22293
LJ           1.64407        0.620854         2.08067
LJ        -0.0537622         1.52387         1.07935
LJ           1.26699         -1.7445       0.0636775
LJ         -0.538547        -1.33082        0.219317
LJ         -0.886935          1.8448       -0.862033
LJ          -1.53561        -1.44777         1.27574
LJ          -1.19737         1.82231      0.00869739
LJ           1.88976       -0.194031         1.70032
LJ         0.0775221        -2.15061         1.29491
LJ         -0.994622        0.948437         1.68683
LJ          0.777503       -0.296467        0.787811
LJ          -0.60751        0.902274       -0.738508
LJ          -1.87257         1.43302         1.60494
LJ          -2.05478        0.275941        -1.36628
LJ           2.19691        -1.09498         1.54003
LJ          -1.90838         1.53178       -0.825022
LJ          -1.14465        -2.11379        0.688106
LJ          0.310164       -0.752734        -2.10918
LJ           -2.0198        0.478222         1.87635
LJ         0.0768963         2.21492       -0.919063
LJ         -0.980128      -0.0384865        -1.40556
LJ          0.751059        -1.65185         -1.6195
LJ         -0.516775        -1.24795          1.2015
LJ          0.229689        0.565795       0.0704588
LJ          -2.36505        -2.23036        -1.36622
LJ          -1.54169         2.04162        -1.61395
LJ            1.8316        -0.34712       -0.736763
LJ          -1.86489         2.36481         1.70577
LJ           1.84207         1.72041        -1.27563
LJ           1.50976       -0.754976        -2.08376
LJ         -0.205877        -1.49931         2.33795
LJ          0.050867         1.58194       0.0650136
LJ          -2.37696        -1.77597        0.630668
LJ         -0.615744        -1.94408       -0.544371
LJ           2.29387         2.17135        -2.31067
LJ          -1.15708        -0.61083        0.767864
LJ           1.45487       -0.919049        0.953711
LJ          0.721205         2.24087       -0.138641
LJ          0.783836        0.256731         1.74891
LJ           1.16357        0.460045       -0.140116
LJ           1.69571        0.536876        -1.64781
LJ           1.94108        -2.05872         1.62079
LJ           0.66908        -2.35922         2.28992
LJ         -0.266076         -1.4387         -1.4255
LJ          0.410616        -1.51254       -0.549579
LJ         -0.179083         1.52575        -1.64385
LJ         -0.111647        0.403071        -1.64157
LJ           2.25547        -1.59185        -0.44351
LJ         0.0263058       -0.664945       -0.134691
LJ          -1.62759       -0.530605         1.91448
LJ           1.14565       -0.688515      -0.0535168
