108
#Comment!
LJ           2.32325         2.16934         -1.8945
LJ           -1.4356       -0.539414        -1.40172
LJ         -0.512906        0.748657        -0.41896
LJ           1.64284         2.02683        -0.43995
LJ           1.95045       -0.982391        -2.31289
LJ           1.07633       -0.923451      -0.0965356
LJ          0.296905        -1.13037         1.59139
LJ            2.1768         1.08108         -2.0459
LJ          0.251006         1.83094        -1.94619
LJ         -0.168507        -1.05427        0.564661
LJ           1.07026        -1.04647        -1.10115
LJ          -2.08619         1.78062           1.519
LJ           1.00971         2.08173        0.300686
LJ            2.0237       -0.619125       -0.186352
LJ          0.896922        0.854698          1.2561
LJ         -0.851194        -1.29426        -1.37215
LJ         -0.380492        0.221854         1.66929
LJ         -0.487166        -2.00074         0.18747
LJ          0.582759        0.780908       -0.498974
LJ         -0.574943       -0.141323       -0.999061
LJ         -0.572267         1.25151        -2.25888
LJ          -1.80192       -0.949997       -0.489213
LJ         -0.108084         2.04853        0.721239
LJ           1.41482          2.1224         -1.4542
LJ          -1.05615         2.20258          1.1586
LJ           1.55363         0.15228         0.40068
LJ           0.80909         1.99806         1.37622
LJ          0.424213       -0.273007         2.27765
LJ           2.11746        0.957865        0.613045
LJ          -1.56279         1.27088        -2.22764
LJ           1.89496        0.256837        -1.37819
LJ          0.519078      -0.0780097         1.30095
LJ           0.44001        -2.07718         2.06028
LJ            1.2721        -1.49652         1.47665
LJ           1.19887       -0.741334        0.893541
LJ         0.0540651        0.605839        -1.59354
LJ          -1.99535        -1.53812        -1.58576
LJ          -1.08912        0.335535         2.28807
LJ           1.48177        -1.89569        0.109192
LJ           2.07006       -0.715096         -1.3079
LJ           1.32787        0.135366       -0.637428
LJ         -0.997377         2.06852       -0.406065
LJ          -1.61496        -0.17877         1.59944
LJ          -1.43121        -1.83088       -0.714274
LJ          -1.85621       -0.748212         2.32483
LJ         -0.349014         1.48753        -1.06952
LJ          -1.93217        0.235676        -1.67217
LJ          -1.32017          2.2722         2.19684
LJ          -2.16048        0.814823         1.83798
LJ          -2.20565      0.00126484        0.380937
LJ           2.00962         1.98102        0.444113
LJ           2.31191        0.808093       -0.437546
LJ          0.518642        -2.01444       -0.487481
LJ           -2.0424         1.23649        -1.22451
LJ          -1.92969         1.99296       -0.541212
LJ           0.46248        -0.23489       -0.929622
LJ           1.31224         1.54561           2.244
LJ         -0.836846       -0.300078         1.01745
LJ           2.03127        -1.22309        0.708161
LJ          -1.91065        -1.93799         1.22596
LJ         -0.399954        -1.79211         1.28892
LJ           1.31806       -0.457989         1.86677
LJ           2.12034         -1.5844       -0.643766
LJ          0.513287        -1.94193        0.887312
LJ           1.41797         1.18847       -0.114306
LJ          -1.71802       -0.908702        0.857945
LJ         -0.561423         2.36766        -1.88659
LJ          0.356508        0.773677         2.04703
LJ          -1.81748         1.65676        0.542849
LJ          0.971284        0.902012        -1.75244
LJ          -1.25967        -1.50003        -2.21437
LJ           -1.1487        -1.13573         1.60635
LJ          -1.47814        0.513948         0.89839
LJ         -0.317489        -2.08836       -0.899276
LJ         -0.673475       -0.621047        -2.26282
LJ         -0.136985         1.71613       -0.152134
LJ          0.696132         1.81919       -0.817717
LJ          -1.46474         1.14632       -0.294123
LJ           2.19286      -0.0491874         2.19353
LJ          0.904325         -1.2585        -2.26642
LJ          0.434504         1.08761        0.412394
LJ          0.549863       0.0644692        0.307179
LJ          -2.13577       -0.082406       -0.749918
LJ           1.80084        0.327886         1.34283
LJ           1.72609        -1.65625        -1.61449
LJ          -1.92498        -1.98558          0.2273
LJ          -1.03485        -1.03924        0.115105
LJ           1.25174       -0.420076        -1.86872
LJ          0.526552        -1.94255        -1.52555
LJ          -0.32311        0.498688        0.630686
LJ           1.42086         -2.2478         2.29646
LJ          -1.15093        0.817589        -1.42424
LJ           1.80939        -2.37106         1.32491
LJ         -0.149869         1.23157         1.30005
LJ         -0.325744         2.07857          1.9328
LJ             1.311        0.559988         2.18969
LJ           1.70272         1.21657        -1.11108
LJ         -0.880841         1.36332        0.545441
LJ          0.173406       -0.796117        -1.69523
LJ         -0.337282       -0.246771      -0.0496045
LJ          -1.30444         1.84755        -1.36515
LJ           2.33525        -1.07149         1.56572
LJ          -1.14511         1.21031         1.63468
LJ          -2.16081        -1.72715         2.23706
LJ         -0.217294        -1.48852        -2.26012
LJ          -1.30787        0.163309        -0.13756
LJ           1.69352         1.40089         1.37432
LJ           0.03692        -1.10872       -0.439938
