108
#Comment!
LJ          -1.89493       -0.930222        -1.79346
LJ           1.71326        -0.46636      -0.0622313
LJ           1.03481         1.29805        -2.30475
LJ          0.473193         1.95488        0.930792
LJ           2.10583        -1.67016       -0.416919
LJ           1.67073        -1.45328         1.94865
LJ           1.14723         1.93304         1.67582
LJ        -0.0358043        -2.16723        -1.20145
LJ         -0.153012       -0.415461       -0.715761
LJ         -0.301018       -0.295967        -2.35049
LJ           2.10574         1.35409         2.09775
LJ          -1.98261        -1.54479         2.10198
LJ           1.98382         1.11441        -1.65359
LJ           2.02526         0.37607       -0.976122
LJ          -1.46886        0.887697         1.56297
LJ          -1.42442       -0.551618       -0.922018
LJ          -1.39069        -1.05097        0.894127
LJ           2.28264          2.0641         1.42245
LJ           2.03668        0.559972        0.190467
LJ          -1.88797         1.48639        -1.59016
LJ           1.59996       -0.170345         1.64032
LJ          0.275304        0.506723        0.899763
LJ          -1.15328        -2.18544         2.02369
LJ          -2.13788        -1.71995         -1.2673
LJ          0.714068        -1.78411         1.58306
LJ          -2.32363       -0.091481        0.897646
LJ          0.597521         1.26463        0.167467
LJ          0.112912         2.14166      -0.0749024
LJ           1.79244         2.30928        0.164714
LJ        -0.0093142         1.57584        -1.97145
LJ           1.42118         1.54596        0.769085
LJ           0.50885         2.36099        -2.28767
LJ          -1.83517        -2.31512        -1.99222
LJ         -0.502503          2.0352        0.705763
LJ           -1.2945       0.0482045         1.08101
LJ          0.224767        -1.02878         1.98205
LJ          -1.07455        -1.72859        -1.37179
LJ          0.934673       -0.151339       -0.818083
LJ           1.30798        0.328892        -2.22508
LJ           1.20798        0.666661       -0.344838
LJ          -1.40625          1.5293       -0.510536
LJ           2.29677        0.994066         1.14604
LJ           1.12275        0.983511         1.50104
LJ           1.16278         2.13887        -1.62247
LJ           1.84481         2.30926         2.28883
LJ           1.03803        -2.29379       -0.638003
LJ          0.690295        -1.62653        -1.66368
LJ         -0.162889        -1.11668        -1.40991
LJ           1.57649           1.622       -0.732145
LJ            1.4724       -0.553642        -1.62696
LJ         0.0961378        0.714379       -0.954455
LJ          0.435799        -1.30695       -0.569888
LJ          0.450033        0.360934         2.07225
LJ           1.33537        -1.07424       -0.769198
LJ           2.11008       -0.726166          2.3728
LJ          -1.57067         1.70927        0.975034
LJ          0.602708         1.64033       -0.931595
LJ           1.43696         -1.0205        0.903562
LJ         -0.568254        0.356995         1.68701
LJ          -2.16726       -0.938186       0.0810467
LJ         -0.478094        0.717949        -2.17512
LJ          0.335604       -0.164154        -1.63228
LJ        -0.0730644         2.32311         1.70528
LJ          0.726525       -0.404816         1.27671
LJ         -0.777951        -1.80017        0.350201
LJ         -0.393609         1.26116       -0.244248
LJ           1.28374        -1.59376         0.17108
LJ          -0.99135         0.21436       -0.544885
LJ           -1.7172         1.69694         2.13126
LJ          -2.19369        0.169567         1.84638
LJ          -2.25837        -1.02724         1.28468
LJ          -1.65133        0.785036        -2.22716
LJ         -0.730797         2.18168       -0.637371
LJ         -0.857491         2.20662        -1.87144
LJ          0.143362         1.19912         1.56114
LJ          0.283657        -1.79704        0.542112
LJ         -0.299775        -1.83489        -2.28589
LJ          -2.23303         1.02767       -0.510649
LJ         -0.230321       -0.961139        0.214649
LJ           -1.5531         2.35678       0.0861058
LJ          -1.49347        -2.07763         1.08343
LJ           1.62892        -1.76485        -1.37498
LJ          -1.55845        -1.62671       -0.446812
LJ          -2.05022      -0.0278605       -0.238538
LJ         -0.835238         1.65612         1.57789
LJ          -2.36434         -1.7477        0.628516
LJ         -0.686649        0.982596        0.673547
LJ            2.2848       -0.794842       -0.996925
LJ          -0.32555       -0.396331         1.08202
LJ           0.97178        0.755974        -1.31634
LJ            2.1215         2.05936        -1.50475
LJ          -1.62779        0.533122        -1.27219
LJ          -2.11367         2.17239       -0.710116
LJ          -1.58806        0.780223        0.294269
LJ        -0.0710624        0.283326      -0.0902615
LJ          -1.03132        -1.04836         2.32576
LJ          -0.75011         1.16274        -1.33647
LJ          -2.28269         1.63681        0.233968
LJ           -1.3655       -0.118721        -2.35297
LJ          0.689112       -0.627264        0.322182
LJ         -0.508598         -1.5458       -0.564176
LJ           1.54871        -2.05638         1.01063
LJ         -0.804603       0.0195873         -1.5051
LJ           1.05605       -0.828995         2.32088
LJ         -0.522456        -1.54796          1.5028
LJ          -2.36767       0.0817419        -1.87714
LJ           1.24779        0.354066        0.657829
LJ          -1.16733        -0.56323       0.0382088
