108
#Comment!
LJ           1.81758        -2.20629        0.995118
LJ          -1.43199          1.1807         1.68678
LJ         -0.959456       -0.749775       0.0416892
LJ          0.460213       -0.456271        0.940757
LJ            1.4266         1.26643       -0.137532
LJ          0.487697        -1.54351          2.1406
LJ           1.05592        0.744602        -1.91975
LJ          0.427338        -1.91429       -0.192255
LJ           1.36031        -1.83577        -1.06715
LJ          -1.01658       -0.163084        -2.33095
LJ          -1.03746        -2.30566       -0.547167
LJ           2.31342        0.789355         1.11458
LJ          0.240198        0.175821        -1.92987
LJ           0.91381        -0.14133       -0.906646
LJ           1.27699          1.7334         1.40241
LJ         -0.715392      -0.0148909       -0.549031
LJ           0.96069       -0.727826         1.72807
LJ          0.865394       -0.768227       0.0824588
LJ        -0.0582896        0.911066       -0.265181
LJ          0.277219         1.07692         1.46101
LJ          -1.50117        -1.54994        -1.29148
LJ         -0.750601         1.53021       -0.971687
LJ          0.638996        -1.42308        0.787697
LJ          -2.35463         1.05091       -0.806663
LJ         -0.994827        0.185075        0.351671
LJ          -1.73126         1.96658         2.27996
LJ           2.30328        -2.10984         0.10124
LJ           2.03302        0.682841        -1.72272
LJ         -0.089241       -0.786797         2.37219
LJ           1.80525         1.86076        -1.18192
LJ          -1.31806        -1.39437         1.10993
LJ          0.499428        -1.08523       -0.757323
LJ           2.03903         2.33293         2.04861
LJ         -0.214061         1.84886        -1.70749
LJ           0.78399        0.294175         1.96949
LJ          -1.34185       -0.616119        -1.02883
LJ           0.49915         -1.8172         -1.6721
LJ          0.592819         1.71736       -0.539082
LJ          -2.21033         1.07267         2.28346
LJ         -0.794549        0.806541         1.10528
LJ         -0.137766       -0.425259        -1.30134
LJ          -1.19486         2.15565        -1.52104
LJ          0.315134         1.31584        0.571982
LJ           1.10617        -2.34231        -2.34905
LJ          -1.38851        0.885543        -1.80491
LJ          -0.73429         1.75966          2.1566
LJ          -1.72573        0.209469         1.60474
LJ          -1.90034      -0.0491498        -0.26737
LJ           1.73556         1.58714        -2.12252
LJ          0.940352        0.459707       0.0826949
LJ        -0.0440785        -1.14009        0.167165
LJ           2.09068        -1.93384        -1.81846
LJ         -0.113731         2.29955       -0.870622
LJ         -0.267748        0.904113         2.25666
LJ          -2.09577        -2.34487        -1.05586
LJ          -1.96188         1.84564       -0.247633
LJ          0.784447         1.98668        -1.48201
LJ          -1.61799        -2.26571        0.691806
LJ          -1.75671       -0.846654        -2.01069
LJ          0.430279        0.819121        -1.14099
LJ         -0.979774        -1.13252         2.03211
LJ          -2.26288          1.7475         1.44305
LJ           2.12379       -0.222736         1.48843
LJ          -1.72549        -1.79957        -2.19019
LJ            1.7228        -1.41411       -0.127786
LJ         -0.112642        -2.12927        0.892195
LJ           1.22411        0.757219         1.04667
LJ           1.51978         2.22309       -0.353563
LJ          -2.06775         1.61923        -1.59163
LJ          -1.25331         1.00641       -0.259629
LJ          -2.24749        0.752498         0.11838
LJ          -1.84717        -1.27365        0.165947
LJ           2.13456         1.61913        0.477711
LJ           1.41435       -0.177335        0.720508
LJ           2.33536        -1.25487       -0.872915
LJ          0.713352       -0.744222        -1.72346
LJ           1.67134        0.746706          2.0345
LJ           1.40209        -1.27452        -2.06142
LJ          -2.07738        -1.81541         1.52525
LJ         -0.417958         1.79283       -0.124611
LJ          -1.91239        0.280642        -1.20318
LJ           1.35426       -0.284548        -2.22076
LJ         -0.713122        -1.95754        -2.12668
LJ           1.87985       -0.538919         -1.3893
LJ          0.965392         2.19332        0.421857
LJ          -0.73014         1.88081          1.1148
LJ          0.130203         2.22451         2.00469
LJ        -0.0083555        0.339994        0.527651
LJ          0.153926       -0.254877       -0.241397
LJ         -0.424239        -1.45444       -0.740174
LJ         -0.489285        0.696134        -1.45409
LJ         -0.895683       -0.298861         1.23018
LJ           2.14064        -1.06331         2.09666
LJ         -0.115588      -0.0769281         1.72529
LJ          -1.48025         1.35917        0.620863
LJ           1.70434       -0.350118       -0.228122
LJ         -0.815461        -1.79065        0.319521
LJ          -1.78316       -0.717474         1.68638
LJ         -0.840615        -2.05157         1.67363
LJ          -0.78127        -1.08225        -1.67965
LJ            0.7594        -2.24397         1.29277
LJ          -2.22835      -0.0249094        -2.34553
LJ          0.855513         1.47309         2.22373
LJ          -1.90778       -0.390861        0.755477
LJ           1.35924        0.836482       -0.996743
LJ           2.13992         -1.1234        0.883625
LJ            1.4515        -1.58784         1.71854
LJ         -0.101519        -1.22585         1.39473
