108
#Comment!
LJ         -0.503931      -0.0978872           1.262
LJ          -1.17882         1.17635        -2.17256
LJ           1.26592         2.17361        0.633945
LJ          -1.03427         2.08288          2.3372
LJ           2.11355         1.45717       -0.109382
LJ           2.34159         1.73142        0.894414
LJ           1.62607        -1.69554         1.76775
LJ           1.56421      -0.0807654         1.12385
LJ          -1.33415        -1.83848        -2.03238
LJ          0.820742        -1.06337         2.37599
LJ         -0.169006         1.80312        -1.35263
LJ          -1.31124        0.387488        0.820735
LJ           0.46314        -1.84883         1.62287
LJ          -2.37529        0.603727         1.39247
LJ          -1.15549          1.9059        -1.50502
LJ           -1.9537        -2.32819        0.280656
LJ          0.850133        0.620437        -1.96091
LJ         0.0624757        -1.25447        0.545325
LJ          -1.47816        -1.22932       -0.949714
LJ           1.99402          1.1923         -1.7663
LJ         -0.616131        0.963404        0.273679
LJ           0.12205         1.32292        -2.14417
LJ          0.686871      -0.0241118         1.91405
LJ          0.920701         -1.5969        -1.30173
LJ          -2.29827        -1.15996      -0.0835379
LJ           1.35831        0.900781        0.990689
LJ        -0.0162125         1.77867         1.71736
LJ          0.963528        -2.05337       -0.293389
LJ          -2.21364        -1.88789       -0.789234
LJ          -1.63482         1.41273        0.299494
LJ          -1.39902         -1.1418         1.86017
LJ           1.18446          1.4318       -0.415296
LJ         -0.359783        0.900118         1.24602
LJ           1.12391        -2.02018        -2.26351
LJ          -1.19277       -0.116631          2.1682
LJ         -0.838036         1.41576       -0.686513
LJ           1.83538        0.524798        0.206989
LJ           1.85696        -1.58136        -1.62063
LJ          -1.44059       -0.843083        -1.87727
LJ         0.0783204       -0.170665       -0.985524
LJ         -0.309642       -0.364418       0.0416256
LJ         0.0580954        -2.13624       -0.694031
LJ           1.83555       -0.940904        0.615283
LJ          0.455069         1.05139        -1.18958
LJ          0.779586          1.9835        -1.17708
LJ          -2.21784        -1.29014        -2.28049
LJ           1.64841        -1.36885       -0.561945
LJ           1.85157        0.736264       -0.795626
LJ           1.00557         2.06056         1.62603
LJ          -2.18459       -0.263011        0.577789
LJ           2.23507       -0.682082        -1.29784
LJ          -1.98639        0.521361       -0.100068
LJ          -0.90084         1.71967         1.12381
LJ         -0.248918        0.458548         2.20493
LJ          -1.54685       -0.393616         1.28863
LJ          -1.19898        -1.62256        0.534923
LJ           1.72082       0.0946651        -1.60473
LJ           1.77762         1.45009         1.68922
LJ         0.0982775         1.56917         0.71099
LJ           1.03199        -1.57191        0.615425
LJ           -1.2574       -0.545359        0.264023
LJ         -0.858937         2.06677         0.23841
LJ          -2.01094        -1.19047        0.874105
LJ         -0.399733        -2.02152         1.01154
LJ           1.51502        0.543533         1.93515
LJ          0.151656       -0.871654         1.63203
LJ          -1.26119        0.704579          1.7277
LJ          0.513385       -0.145931        0.977661
LJ         -0.894824        0.455347       -0.668331
LJ          -1.92194         1.63971          1.8845
LJ          -1.72231         0.19751        -1.69937
LJ           2.31008       -0.566847         1.52642
LJ          -1.69649         1.01362       -0.952378
LJ          -1.36667        -2.22335         1.42416
LJ          0.336556       -0.179782         -1.9474
LJ           -2.1696         0.79485          2.3575
LJ         -0.921449        -2.32831       -0.664377
LJ           -1.8533       -0.188226        -0.71985
LJ         -0.391801        -2.00702        -1.59299
LJ         -0.512195       -0.811769         2.34317
LJ          0.342536        0.683538        0.203305
LJ          -2.10815         2.26486        -1.64881
LJ          -1.81225           1.973       -0.598204
LJ           1.78373       -0.311259       -0.421235
LJ          -2.28232        -2.24411         1.76602
LJ           1.78827         2.02913        -1.14786
LJ           1.02103       -0.533477        -1.29059
LJ         -0.492359        -1.72158         1.94646
LJ         0.0499858         1.62965       -0.330859
LJ           2.01914        -1.97593        0.771994
LJ         -0.683426        -1.41694       -0.252935
LJ           1.93021         2.11915        -2.32538
LJ         -0.703844        -1.05992         1.19797
LJ           1.09798       -0.934789         1.39971
LJ          0.266556        -2.23462        0.381469
LJ          0.700775         1.03775         1.79935
LJ          0.980547        0.208425       -0.548281
LJ           1.07409         1.56648        -2.01756
LJ           1.56179       -0.428932         2.15422
LJ          0.299458         2.26782        -2.21928
LJ         0.0506677        -1.08883        -1.57068
LJ          0.353256        -1.24807       -0.429893
LJ         -0.471779        0.854252        -1.58138
LJ         -0.650487       -0.156136        -1.69822
LJ           1.91548        -2.34074      -0.0878487
LJ         -0.786398       -0.589979       -0.834467
LJ          -2.35042       -0.348231         -2.2032
LJ          0.925868       -0.590378        0.142793
