108
#Comment!
LJ           2.17464         1.16247          1.8523
LJ          -1.57619        0.201263        -1.73917
LJ          -1.93728        -1.16331         1.06438
LJ           1.87962        -1.14859        0.740095
LJ          -2.35577        -1.91729        0.167451
LJ            1.3791        -2.11264        0.751698
LJ           1.66958         0.39426         -1.0362
LJ          -1.56836         1.54982         1.92694
LJ         -0.772815          2.0869         1.59205
LJ           2.15766         -2.3497       -0.678583
LJ          0.340288        -1.38339        -2.16313
LJ          -1.03611         1.27228        -1.50485
LJ           1.92025        0.717033        0.983237
LJ           -2.0682        0.870392         -1.0485
LJ           1.82643         1.46441       -0.825757
LJ         -0.317376       -0.196902        0.653875
LJ           1.14028         1.35369       0.0320371
LJ         -0.770986         1.78238        0.351373
LJ          -1.66977       -0.499359         1.82514
LJ           1.42865        0.979225        -2.09449
LJ          0.469963        -1.17893       -0.384397
LJ          -1.80136        0.597488          2.1447
LJ             -2.34          2.1209         2.16976
LJ          0.803778         0.57066       -0.587758
LJ          -1.48077        -1.59876         2.03422
LJ           2.19327         1.70031        0.261011
LJ           1.85455         1.87406         1.24827
LJ         -0.957961       -0.744477         1.26786
LJ           2.31382        -1.42392        -1.63849
LJ          0.172402          1.5448       -0.300679
LJ          -1.80709           1.862       -0.674658
LJ          0.991336        0.975857         1.24598
LJ           0.12782        0.430717         1.66689
LJ          -2.34665        -2.04816         1.16861
LJ          0.721993       -0.151619        0.963526
LJ         -0.297423        -1.26921        0.440676
LJ          0.560269        -1.30041         1.62255
LJ          0.416463       -0.259997        -1.07875
LJ          -1.55975        -1.30514         0.17611
LJ          0.779571       -0.483593         2.21964
LJ           2.13855        0.283486        -1.97937
LJ          0.671895         2.22228        0.200108
LJ         -0.648024        0.930766         2.14619
LJ        -0.0768036         1.69856         -1.2153
LJ          0.986882        0.131793        -1.82564
LJ           2.23821       -0.485179        -1.22928
LJ           1.12752       -0.792842        -1.53512
LJ           1.38326       -0.640613       -0.519114
LJ        -0.0530454          1.7004        -2.20114
LJ         -0.118242        0.584582        -1.34196
LJ          -1.74953        0.967713         1.11671
LJ          0.457309        0.830832        -2.13453
LJ         -0.903088       -0.149419         2.35381
LJ         -0.341322        -2.13946        -1.89658
LJ          -1.58023        -1.87672       -0.823867
LJ           1.05746         2.23882       -0.803342
LJ           1.67026         2.05399        -1.65836
LJ          0.826253        -1.25123        0.662056
LJ           1.43624        0.335037         1.77192
LJ         -0.157569       -0.500401         1.83442
LJ           1.45926         -1.6327        -2.13926
LJ          -1.23867        0.257479       -0.640141
LJ          -2.26398      -0.0102576       -0.442498
LJ           1.31999        -1.71914       -0.200521
LJ           2.20789        -0.18614         1.41041
LJ          -1.54893       -0.632444       -0.721244
LJ         -0.631145        -1.05041        -2.27401
LJ          0.276786        0.734399        0.426234
LJ          -1.40428        -2.26178        0.116489
LJ          -2.06814         2.33838        -1.61492
LJ          -0.16495        -2.21199        0.899878
LJ           1.96983        0.706142      -0.0929348
LJ          -2.08794         0.17476        0.590717
LJ         0.0186029        -2.07041       -0.519101
LJ            1.4553         1.90771          2.1456
LJ         -0.239758        -1.23673        -1.27065
LJ           0.92005         1.31692        -1.27141
LJ            2.3748        -1.28846       -0.632613
LJ          -1.88832       -0.679114        -1.98043
LJ            1.3764       -0.732304         1.52573
LJ          0.653336       -0.255665      0.00415782
LJ          0.185394         1.39271         1.71342
LJ          -1.20916        -1.25466        -1.48867
LJ           1.58776       -0.108507        0.321533
LJ          0.716033         2.32912        -1.82419
LJ          0.755816        -1.61929        -1.17424
LJ         -0.919527         1.18969       -0.460972
LJ          -2.04439         1.40938        -1.96674
LJ          -1.29169       -0.367029        0.171543
LJ         -0.265342        0.406983       -0.356116
LJ           2.26749         -1.1183         1.90073
LJ          0.102147         1.65349        0.736527
LJ           0.87315         1.94981         1.33217
LJ         -0.800604        -1.50886       -0.384534
LJ         -0.800424         2.17837       -0.710114
LJ           1.46932        -2.00116         1.70339
LJ           -1.6181          2.0378        0.992305
LJ          0.445792        -2.28303         2.01967
LJ         -0.397583           -1.66         1.72793
LJ         -0.404069       -0.523349       -0.394353
LJ          -1.18206         2.13723        -2.20941
LJ         0.0414365         -0.1914        -2.01618
LJ          -1.83174         1.09163       0.0501872
LJ          -1.05387        -1.75861        0.897834
LJ         -0.704281       -0.398548        -1.35569
LJ         -0.814685         1.18662         1.18514
LJ          -1.03823        0.236528         1.43319
LJ          -1.13443        0.552032        0.478783
