108
#Comment!
LJ           2.13084         1.65048        0.650449
LJ           -1.2026         0.45778         1.36284
LJ           2.08557       -0.633934        -1.40121
LJ           1.08202         -0.8514       -0.214885
LJ         0.0167907         1.08515       -0.271549
LJ          0.675998        -2.00775          1.4315
LJ           1.27951        0.519863        -1.65544
LJ          -2.02167        -2.08775        0.823908
LJ         0.0846791       -0.589185        -1.21023
LJ          -1.56143        -1.59276       -0.434227
LJ          -1.28037          -1.416        0.545674
LJ          -2.19893        0.747571         1.09437
LJ          -1.57149      -0.0463511        -1.53524
LJ           2.23029        0.556357        -1.62257
LJ           1.88966         1.50148       -0.469111
LJ         -0.120286       0.0812519       -0.191072
LJ         -0.877417          1.7123       -0.598736
LJ          -2.37591         -2.2629      -0.0969155
LJ           -1.1239        -2.37583         1.08015
LJ         -0.700136       -0.354956        0.554926
LJ          0.322955         2.28338       -0.405137
LJ          -0.68702      0.00871769        -1.06191
LJ           1.59222        0.700976          1.1803
LJ           1.48667        0.524043       -0.596466
LJ           1.81176       -0.264088         1.37654
LJ           1.75743      -0.0508806        -2.35059
LJ         -0.425312        -1.88657       0.0535156
LJ          -2.17247       -0.158335         0.75015
LJ           2.27696       -0.873534         2.20238
LJ          0.984308         1.12667       0.0794102
LJ          -0.35605        0.612118          1.8238
LJ          0.472918        0.797879        0.800511
LJ          -1.76274         1.22927       -0.333452
LJ          0.999715         1.97117        0.745362
LJ          0.146193       -0.704718        0.285237
LJ          0.375396        -2.32911         2.30114
LJ          0.389301         0.35212        -1.02006
LJ           2.30998       -0.557002       -0.509093
LJ          -1.31322         2.31624      0.00404541
LJ         -0.563108        -1.18165         2.22913
LJ           1.62071        -1.45929         1.66766
LJ         -0.323577        -2.14219         1.64149
LJ         -0.518923         1.79604         2.20527
LJ          0.554791       -0.306491         -2.0563
LJ          0.184237         1.54856         1.49449
LJ          0.263909        0.817091        -2.10543
LJ          -1.43522         2.23896         2.01317
LJ           -2.0276         0.38927       -0.751082
LJ          0.964574         1.71388        -2.14041
LJ          -0.78729       -0.984178       -0.256505
LJ           1.65108        -1.85081        0.488742
LJ           1.36683       -0.929655        -2.24118
LJ         -0.908043        0.891478        -2.10215
LJ          -1.34433        -1.59129         1.66302
LJ         -0.769234        -0.91787        -1.52228
LJ          -2.15415         1.89024         1.44885
LJ          -1.36806         1.06611         -1.2725
LJ          0.585089       -0.163214         1.05413
LJ          0.908711        0.460185         1.79877
LJ           1.09568       -0.356457        -1.09332
LJ           1.70432         2.23302         1.43519
LJ         -0.277851          1.1286        -1.16477
LJ          0.813352         1.32161       -0.915588
LJ           2.01513        -1.46607       -0.658886
LJ           1.21504         1.41857         1.73709
LJ          -2.05202      -0.0972526         1.76084
LJ         -0.524863      -0.0301971        -2.19367
LJ          0.186408        -1.39695       -0.641217
LJ         0.0654138         1.88701         -1.7094
LJ          -2.24668         -1.2668        0.278195
LJ          -1.23379       -0.670203         1.28234
LJ          -1.32451       -0.160144       -0.297742
LJ          -1.30891       -0.537947         2.24678
LJ          0.758335         -2.2374        -1.41139
LJ         0.0200064         2.26611        0.746944
LJ           1.97619         1.85654         2.30004
LJ           2.04057        0.875374         2.08767
LJ           1.19413        -1.39381        -1.44508
LJ            1.3853         -1.9956        -2.23149
LJ            1.1928        -1.06616        0.859833
LJ         -0.336013       -0.395039         1.60814
LJ         -0.497414        0.650578        0.679064
LJ         -0.946002         1.43971         1.34545
LJ           1.72159       -0.287273        0.359009
LJ          0.872072        0.151451        0.121243
LJ           1.67768         1.45054        -1.51558
LJ         -0.791744         -2.0242        -0.94843
LJ           1.25561        -2.09192       -0.430765
LJ           -1.4278        -1.76209        -1.94146
LJ          -1.75267        -1.18286        -1.32139
LJ           1.97737        -2.35192        -1.18935
LJ           -1.6556         1.56392        0.642274
LJ          -1.53842        0.474334        0.393028
LJ           -0.4154        -1.25063         1.07275
LJ         -0.463381        -1.91207        -1.87774
LJ           1.97575        0.742917        0.238932
LJ          -2.32545        -1.84175         2.07371
LJ           0.56396        -1.77249        0.266935
LJ          -1.72953         1.14303         2.15206
LJ          -1.78898         2.35208       -0.871208
LJ          -1.12743         1.96509        -1.66215
LJ          -2.08811         2.25351        -1.91673
LJ            2.2395        -1.53938        -1.69677
LJ          -2.36338        -1.09825         1.21176
LJ          0.443488        -1.30041        -2.11879
LJ         -0.702662         1.68646        0.441398
LJ         -0.915242        0.759146       -0.468548
LJ          0.598885       -0.857406         1.74734
