108
#Comment!
LJ          -1.79638         1.16617         1.92756
LJ          -1.37098        0.681443         -1.6392
LJ          -2.12921       -0.199915         0.73493
LJ           1.40385        -1.37737         0.76787
LJ           1.94702        -2.08916        0.244597
LJ           1.32952         1.83807        0.388636
LJ           1.91621        0.500716       -0.707545
LJ          -1.81402         2.13766         1.84447
LJ          -0.94659         1.97527         1.50091
LJ           2.13672         2.24469       -0.744083
LJ          0.940414       -0.977973         2.25819
LJ         -0.704524         1.42765        -2.04179
LJ           1.70498         1.04683        0.791049
LJ          -2.19309         1.16437         -1.1589
LJ           2.13009         1.40658       -0.105494
LJ         -0.430228        0.240426         0.92813
LJ           1.20771        0.948094      -0.0598303
LJ         -0.584481         2.02627      -0.0998405
LJ           -2.2896        0.631411         1.26364
LJ           1.76073         1.60812        -1.54781
LJ         0.0483022        -1.12402       -0.550318
LJ         -0.733974         1.03536         1.76017
LJ           2.21969         -2.0802         2.12255
LJ          0.930207        0.995493        -0.98723
LJ          -1.54656        -1.78464         2.28915
LJ           2.36806         1.91303        0.733084
LJ           1.98727         1.47113         1.64169
LJ           2.22844       -0.380303         1.69072
LJ           2.26483        -1.01147        -1.20769
LJ         -0.489862         1.13971       -0.976272
LJ          -1.73609         2.08711        -1.02337
LJ           1.26927        0.707441         1.54158
LJ           0.47383       -0.203308         1.76834
LJ           1.78524        -2.23575         1.27715
LJ          0.218409        -1.34674         1.34792
LJ        -0.0220934        -1.66367        0.429032
LJ            1.4211      -0.0766527         2.23099
LJ          0.412389       -0.698513        -1.70036
LJ          -2.25263        -1.19183        0.689121
LJ            1.4584       -0.727917        -1.73096
LJ          -1.64036        0.111478         2.12027
LJ          0.302945         2.08272        0.309868
LJ          0.224589        0.715763          1.5513
LJ          0.086352          2.3206        -1.79197
LJ           1.39816        0.286215        -1.52833
LJ           2.27844       -0.141147        -2.11684
LJ           1.46226       -0.410437       -0.784128
LJ           1.75751       -0.229968         0.37148
LJ         -0.055083        0.511252        -2.19816
LJ         -0.450066       -0.221767       -0.695856
LJ          -1.52664         1.40427          0.7093
LJ          0.157953        0.331814        -1.25498
LJ         -0.712482       0.0363623         1.87215
LJ         -0.517589        -1.21712        -1.34927
LJ           -1.9173        -1.75638       -0.635501
LJ           1.17166         2.03259       -0.583338
LJ           1.39911         1.96766         2.33965
LJ          0.872745        -2.20716        0.955154
LJ            2.0642        0.800141          2.3752
LJ         -0.717498       -0.666766         1.16223
LJ           1.53076        -1.61416        -2.00489
LJ          -1.30635        0.321854       -0.732872
LJ          -2.02265       -0.539514       -0.351861
LJ           1.05158        -1.82561      -0.0776688
LJ           1.28917       -0.361092         1.21785
LJ          -1.68147        -0.30073        -1.56365
LJ         -0.251506       -0.779543         2.13948
LJ          0.614972        0.145324       -0.400489
LJ          -1.75658         2.16403      -0.0222221
LJ          -2.24631        -2.05737        -1.64714
LJ         0.0698386         2.33173         1.50955
LJ          -2.01266        0.671328        0.198803
LJ            -1.017       -0.393005        0.142317
LJ          0.133469         2.32958       -0.733323
LJ          0.992567        0.986997        -2.11882
LJ          -1.10694       -0.963825       -0.644789
LJ          0.185082          1.3498        -1.62325
LJ           1.96543        -1.11904       -0.153031
LJ          -1.32259       -0.813329          2.3549
LJ           1.80428        -1.25507          1.7693
LJ           0.84796       -0.821125        0.135802
LJ          0.544463         1.16107        0.691018
LJ          -1.52304         -1.3454        -1.45358
LJ          0.759139        0.180042        0.600121
LJ           1.10851         2.35162        -1.56936
LJ           1.52115        -1.75893       -0.936615
LJ         -0.821892         2.20776         -1.3082
LJ          -2.04141         1.78553        -1.94215
LJ          -1.64487       -0.795196         1.44435
LJ         -0.048413       -0.479842        0.402618
LJ          -2.37868        -1.08799         -2.1776
LJ          0.318474          1.3032       -0.288636
LJ          0.908592         1.68545          1.5139
LJ         -0.787528        -2.17914        0.719565
LJ         -0.681201         -1.7542       -0.298736
LJ           1.09847         -1.9383         1.87992
LJ          -1.77003        -1.91138          1.0832
LJ          0.100298         1.50624         2.15526
LJ           0.17844        -1.66326         2.38062
LJ           -1.2173        -1.31653        0.426201
LJ         -0.738709         2.35534         -2.2856
LJ          0.628624        -1.61563        -1.31562
LJ          -1.43568         1.32423       -0.441777
LJ         -0.759905        -1.85027         1.65737
LJ          -0.71275       -0.221445        -1.87321
LJ         -0.419891          1.3862        0.659072
LJ           -1.3933        0.422808        0.982945
LJ         -0.768884        0.658407       0.0269533
