108
#Comment!
LJ          -2.04122         1.89103          -1.816
LJ          -1.35258        -0.82559        -1.62038
LJ          0.129778        0.606294       -0.225888
LJ           1.59289          2.0474       -0.492288
LJ           2.04755        -1.91526         1.69139
LJ          0.572415       -0.306149        0.164324
LJ          0.240321       -0.685889         1.19689
LJ           2.26655          1.0761        -2.00884
LJ          0.495986         1.98613          2.1986
LJ         -0.135925        -1.38856        0.522367
LJ          0.934368       -0.953549       -0.902807
LJ          -2.26761         1.88969         1.81298
LJ          0.538733           2.134        0.375971
LJ           2.25849       -0.518821       0.0610352
LJ            1.4784        0.722355         1.72326
LJ        -0.0321889        -1.08331        -1.57856
LJ         -0.774332        0.370732         2.12533
LJ         -0.416833        -2.25047        -0.10324
LJ           1.03775        0.975913       -0.990111
LJ         -0.118596       -0.220833       -0.861883
LJ          -1.01097         1.26479         -1.4954
LJ          -1.19747       -0.535906       -0.644084
LJ         -0.788275        -1.98347        0.991307
LJ          0.825265         2.19065        -1.62627
LJ          -1.58186         2.28858        0.359371
LJ            1.6121        0.441258        0.356228
LJ         -0.118734         1.67467          1.4935
LJ          0.134144        0.394233         -2.1797
LJ           1.85557         1.27918        0.825035
LJ          -1.40739         1.51132         2.28512
LJ           1.94228        0.631481         -1.2062
LJ          0.646785       -0.166698         1.96271
LJ           1.11873        -1.97696         2.09565
LJ          0.915576        -1.33649         1.25389
LJ           1.39116       -0.542102        0.687125
LJ         0.0673948        0.891572        -1.20796
LJ          -1.55078        -1.73822        -1.29731
LJ          -1.72191        0.500055        -2.36671
LJ            1.0093        -1.28938        0.127371
LJ          -2.17566       -0.986872        -1.02405
LJ           1.71614       -0.383237       -0.855438
LJ          -1.21151         2.11275       -0.633268
LJ          -1.37126       -0.403899         2.16034
LJ          -1.15992        -1.35619      -0.0648641
LJ            2.2293        -1.28046        -2.10995
LJ         -0.221389         1.92702        -1.41686
LJ          -1.96023      -0.0793717        -1.55375
LJ          -1.04173         2.34111         1.89977
LJ          -2.26035        0.767656         1.59722
LJ          -2.22202        0.595116        0.483501
LJ           1.38104        -2.20174        0.750963
LJ           2.11356         1.01512       -0.256384
LJ           1.01513        -1.97312       -0.683489
LJ          -1.84886        0.836395        -1.25221
LJ          -2.17329         1.86297       -0.684127
LJ          0.850795       0.0782077       -0.667937
LJ           1.40456         1.52361         2.35319
LJ         -0.914164       -0.534077         1.18106
LJ           1.94393        -1.41056        0.836355
LJ          -1.79262        -2.09156          1.1719
LJ         -0.202649        -1.49941          1.7377
LJ           1.47421        -1.05149         2.06744
LJ            1.7733        -1.35478       -0.470599
LJ          0.279753        -2.15449         1.22942
LJ             1.111         1.23722      -0.0182205
LJ          -1.59822       -0.165151        0.347863
LJ         0.0301761        -2.03778        -2.05295
LJ           0.46483        0.999415           1.935
LJ           2.23215         2.01072        0.401291
LJ          0.671797         1.24406        -1.92654
LJ         -0.781643        -1.49989        -2.20852
LJ           -1.2483        -1.39097         1.68411
LJ          -1.46799        0.372397         1.20388
LJ         -0.457824        -1.85123        -1.10725
LJ         -0.919481        0.096888        -1.58524
LJ         -0.627584         1.37816       -0.271334
LJ          0.281215         1.85139       -0.564314
LJ           -1.6154          1.0949       -0.157061
LJ           2.29847       -0.118587         2.13102
LJ          0.491263        -1.05986         2.32596
LJ         0.0350892         1.17678        0.595117
LJ          0.761594        0.369324        0.852984
LJ           -2.1674        0.243612       -0.555636
LJ           2.19794       -0.100843         1.15101
LJ           2.29042        -2.01865         -1.0807
LJ          -2.13079        -1.70591       0.0904929
LJ          -1.67397        -1.11283         0.79551
LJ           1.69701       -0.414505        -1.96532
LJ           1.21209        -1.59319        -1.57275
LJ         -0.243804        0.228598         1.25723
LJ           1.77358        -2.29046        -1.98218
LJ         -0.770665        0.534143        -0.68607
LJ           1.59991         1.96072         1.50661
LJ         -0.829316          1.0418         1.33403
LJ         -0.243422         1.42156        -2.24846
LJ            1.3604        0.513149        -2.08653
LJ           1.66123         1.68813        -1.46151
LJ         -0.736424         1.88286        0.554183
LJ          0.724971         -0.2846        -1.68097
LJ          -0.40287       -0.277648        0.178907
LJ          -1.06317         2.26603        -1.72914
LJ          -2.18368       -0.966532         1.72733
LJ          -1.86709          1.4051        0.995315
LJ          -1.83433        -1.93523         2.29053
LJ         -0.395805       -0.610803         2.33085
LJ         -0.859398        0.582782        0.410583
LJ          0.805661          1.4873         1.12885
LJ         -0.176989        -1.15915       -0.515535
