108
#Comment!
LJ           1.88375         -1.6984         -1.3462
LJ           2.21115        0.701449        -2.16531
LJ         -0.262152        0.855028       -0.879852
LJ          0.633267        -2.07573       0.0321005
LJ           2.05745       -0.641088        -1.82735
LJ           1.23374       -0.834595         2.34802
LJ          0.144936         1.46943         1.39718
LJ         0.0394892         1.88558        -2.18268
LJ         -0.232913        -1.85016       -0.478292
LJ        -0.0533412       -0.375705         1.20178
LJ           1.43036         2.16159        -1.27862
LJ          -1.74738         2.25281        0.711488
LJ           1.19519         1.60962       0.0181527
LJ          -2.19612       -0.579268       -0.669977
LJ           1.02308         2.05205        -2.18128
LJ          -1.74174        -1.06598         2.09177
LJ         -0.262782        0.721792        0.635262
LJ          0.346908         2.00196       -0.603607
LJ            0.3648        0.960857       -0.112469
LJ          -1.43773        0.509186        -1.65398
LJ          -1.72659         1.18354        -2.35883
LJ          -1.43108        -1.52313     -0.00401408
LJ          -0.10455        0.452466         1.73193
LJ         -0.896353        -1.23588        -2.05615
LJ          -1.97506         2.11884         2.02881
LJ           1.33641        -1.33346         0.44613
LJ          0.989974         2.13888         1.05236
LJ         -0.809029        -1.00683       -0.481475
LJ            1.2971          1.4459         1.80715
LJ            1.3561        -1.57139         1.52826
LJ           1.71854        -1.22478       -0.484499
LJ          0.474297        -2.18144         1.89579
LJ         -0.683079         1.26698         2.05713
LJ          -1.20713         -1.9314         1.93488
LJ         -0.570225       -0.153697        0.235435
LJ         -0.650898         1.20823        -1.70312
LJ           2.11893        -1.34883         2.23867
LJ          -1.63923       -0.292506        0.235527
LJ           1.95876         1.24112       -0.642324
LJ          0.115922        -1.18427        -1.88752
LJ          0.145819      -0.0297867         -0.5897
LJ         -0.592539         1.92236        -1.05857
LJ          -2.31346        0.154159         1.26932
LJ          -1.00135        -1.78705        -1.12333
LJ          -2.35269        -1.33491         0.32156
LJ         -0.454414          1.5385       -0.108872
LJ           1.75738         2.37468         1.72157
LJ           2.07391         2.36842        -2.04022
LJ           2.31552         1.11568         1.70364
LJ          -2.14117        0.368295       -0.203371
LJ           1.33289       -0.245801       -0.525818
LJ          0.484204        0.888046        -2.33016
LJ           0.62431       -0.776297      -0.0371352
LJ           1.05098        0.231421         -1.8195
LJ           2.36165         1.41033        -1.49575
LJ          0.495134        -1.70536        0.946796
LJ           1.88943        -2.23398        0.671202
LJ         -0.156236        -1.22698        0.417312
LJ           1.90243       -0.265496        0.487865
LJ          -1.31056         1.98045        -0.37218
LJ          0.984229       -0.480585         1.09453
LJ          0.102294        0.267981        -1.51994
LJ          0.772998       -0.664655        -1.31355
LJ          0.867033        0.484066         1.58106
LJ           1.43227        0.562246      0.00335419
LJ          -1.34581        0.581353        0.766422
LJ          -1.90275       -0.759603         1.01706
LJ          -1.26617        0.462098         1.76631
LJ          -1.15281        0.841029       -0.376031
LJ          -1.16538         2.05541        -2.23553
LJ          -2.26002        -1.74176         1.36556
LJ          -2.00253        -0.10323         2.23513
LJ          0.519481         0.12443        0.321071
LJ          -1.55335         1.75673        -1.29226
LJ         -0.971685       -0.543075         1.06509
LJ           1.59722        -2.22401       -0.341627
LJ          0.200821         1.88807        0.489742
LJ          0.768623         1.04763        0.778152
LJ           1.85687       -0.753107         1.47839
LJ           -1.6372        -1.82915        -1.88719
LJ          0.432578        -1.14334         1.76594
LJ           1.69518        0.737216           0.984
LJ          -1.26324       -0.235939       -0.724969
LJ           1.60475        0.102381         2.10411
LJ          0.393541       -0.378598         -2.3585
LJ           -2.2454         2.23297       -0.107982
LJ          -1.31803         -1.5916        0.998665
LJ          -1.99781        -1.51135       -0.981783
LJ         -0.856653         -2.2443        0.420153
LJ          0.576984         1.49714        -1.43598
LJ           1.12316        -1.69436        -2.01157
LJ           2.28509        0.243097        -1.18164
LJ          0.868104        -1.61482       -0.828672
LJ          -1.43505          1.3633         1.39346
LJ         -0.425677        -2.29215         1.36332
LJ          0.439666        -2.15666         -1.5004
LJ           1.01977        0.681541       -0.925947
LJ         -0.731392         1.64215        0.851274
LJ         -0.620958        -0.41255        -1.46513
LJ         -0.498128        -1.34475         1.53294
LJ          -2.30003         2.32253        -1.08491
LJ           2.13031         1.56827        0.841198
LJ         -0.656046        0.317602         -2.2507
LJ           1.39444         1.16178        -2.00499
LJ         -0.354657        -1.95386         2.35983
LJ          -1.66196       -0.512794        -1.58506
LJ          -1.78297         1.34214        0.239254
LJ         -0.774797       -0.507543         2.03938
