108
#Comment!
LJ           1.34012        -2.22653       -0.207837
LJ          -1.11574         1.07754        -1.93072
LJ         -0.777952       -0.762811         2.37356
LJ           -1.5035        0.552643         1.13985
LJ          0.730787       -0.461138         1.17633
LJ          0.255407        -1.16014       -0.801863
LJ          -2.20717        -2.22831        0.396065
LJ          -2.22266        -2.25186        -2.25994
LJ         -0.246051         1.74175         1.84305
LJ          -2.15154         1.25975         2.11796
LJ          -1.19957         1.17679         1.83768
LJ          -1.94554      -0.0226808       -0.465538
LJ           1.84435        -1.09852         0.34979
LJ        -0.0955739         2.10383        0.819016
LJ         -0.956899         1.62999        0.958583
LJ          0.640722         1.73324        0.170803
LJ            0.2947         0.12963         2.18497
LJ           1.45559        -1.94067         1.99588
LJ         -0.890878         -2.2365         1.52269
LJ          0.635587        0.612631       -0.652657
LJ           -1.1464        0.133033       0.0381617
LJ          0.909427        -1.46714         1.33427
LJ            2.0757        0.798409       -0.773193
LJ           1.74476         1.90627        0.583503
LJ          -0.19964       -0.187764        0.802329
LJ          -2.10814         1.47934        0.823108
LJ            1.9643         -1.5463        -1.57374
LJ          0.745992         1.01218          2.2123
LJ          -1.12826       -0.497476        0.851481
LJ           0.92375        0.765093        0.371334
LJ           -1.1564        0.311572        -1.09166
LJ          -2.19843           1.571        -1.74295
LJ         -0.401514        0.887445         1.32459
LJ           -1.8874        0.330638         2.14887
LJ          0.411659        -2.13501       -0.508688
LJ         -0.107558         -1.6717         0.95148
LJ         -0.147743       -0.532658       -0.194864
LJ          -1.26576        -1.44627        -1.36861
LJ          0.803286       -0.398984        0.174937
LJ          -1.06683       0.0959019        -2.12469
LJ          -2.01544        -2.17379         1.37216
LJ           1.23232        -1.02765       -0.450976
LJ           1.21531         1.22124        -1.53198
LJ           1.43993         1.08876         1.15595
LJ           1.14376       -0.932418         2.13165
LJ           1.85943         2.05578          1.5987
LJ         -0.384275         1.74809        -1.95201
LJ          -0.26773       -0.130656        -1.47737
LJ          0.897013         1.95301       -0.910993
LJ         -0.771552        -1.29301         1.53627
LJ           1.53089         1.36497       -0.155837
LJ         -0.358858        0.647697       -0.468785
LJ           0.10372        -2.32308        -1.45509
LJ          -2.14732         1.72434       -0.228578
LJ          -1.99653        -0.36193         1.42965
LJ           1.04386        -1.76828        -1.19302
LJ           1.82005       -0.257715       -0.147916
LJ           1.48215       0.0779806         0.79641
LJ         0.0800105       -0.964186         1.91074
LJ          -1.28564        -1.81744        0.681177
LJ         -0.701881      -0.0192494         1.66437
LJ            0.7254       -0.317338       -0.998674
LJ          -0.64697        -1.91749       -0.763922
LJ          0.878043          2.0047         1.60172
LJ          -2.03189        -1.22863        0.941636
LJ           2.03269        -1.59156       -0.512764
LJ          -1.57268        -1.74471       -0.483782
LJ           2.16613        0.729653        0.206534
LJ          -1.07211       -0.609348       -0.725678
LJ          0.607062        -1.41323        0.302075
LJ           -1.2587          1.2852         0.03041
LJ         -0.338293        -1.26273        -1.53673
LJ          0.661523        0.591569         1.29372
LJ           1.31371       -0.824881        -1.57792
LJ         -0.304653        0.887699         2.34838
LJ         -0.255463         1.26665        0.275872
LJ          0.402903       -0.671049        -1.97627
LJ           1.57593         1.56784        -2.37017
LJ          0.938198        -2.24983         0.72559
LJ           1.74332       -0.654789         1.30597
LJ          -2.14702      -0.0384985         0.53627
LJ         -0.836589        -1.23817       0.0051763
LJ           1.97399       -0.464553        -2.24923
LJ          -2.09099        0.543426        -1.55202
LJ          -1.46688        -1.51439         2.32841
LJ          -1.83439       -0.647367        -2.06436
LJ          -1.58934         1.39096       -0.975432
LJ          0.547178         1.98958          -2.176
LJ          -0.81015         2.16965       0.0751227
LJ         -0.591285        -2.05124        -2.12742
LJ           1.48297         2.36039        -1.81548
LJ          0.601515         -1.7552         -2.0875
LJ           1.90945      -0.0488235         -1.3348
LJ          -1.88834       -0.900017       0.0272441
LJ          -1.15999         2.18995        -1.27653
LJ           1.29624       0.0332495         1.99365
LJ           2.09801        0.422706         1.38456
LJ          0.650745        0.371712        -1.71951
LJ           2.23936        -1.27192         1.94213
LJ          -2.00279       -0.909878        -1.00923
LJ          -2.07292        -2.03638        -1.27211
LJ           1.89496         1.83484        -1.01047
LJ           1.90205        0.630331        -2.22621
LJ          0.177146         1.17627        -1.38404
LJ          -1.30861         2.04596         2.37988
LJ         -0.378277         1.83833       -0.763824
LJ           1.84804        -1.90804        0.958497
LJ          0.110302        -2.06893         1.88787
