108
#Comment!
LJ          -1.99564         1.95846       -0.068258
LJ         -0.418519         2.09092        0.823056
LJ          -1.54023       -0.745545         1.79527
LJ           -1.4012        -2.34407        -1.86368
LJ          0.210531       -0.751568        -1.80683
LJ          -1.60475         1.28493       -0.725092
LJ          -1.98108         1.77708        0.943093
LJ           1.19355        0.357457       -0.534719
LJ          0.537879        -2.14754          1.2485
LJ          0.342203         1.96544         1.89269
LJ         -0.936682         1.53135        -1.51049
LJ         -0.980671         1.23727        0.673205
LJ           1.95436        -1.40182       -0.285334
LJ         -0.512009        -1.17045         -1.0794
LJ         -0.487878         2.08124         2.37386
LJ          0.104759        -0.52494        0.616143
LJ          -1.13222        -1.27813        0.348073
LJ        -0.0578194       -0.820036       -0.292913
LJ           1.95499         1.09985        -1.83299
LJ          -1.79736       -0.561485        -1.51299
LJ         -0.577375        0.269272        -1.16093
LJ           1.70038       -0.855817        0.603044
LJ          0.903015         1.39041      -0.0680472
LJ         -0.453685         1.27545         1.54643
LJ          -2.09338       -0.926494        0.608786
LJ           1.79735        0.273322        -2.35626
LJ          -1.91451         -1.8387        -0.19329
LJ         -0.359178          2.3626        -1.38889
LJ            1.3745       -0.871963         2.05928
LJ          -1.04447       -0.373782       -0.631731
LJ         -0.341691        -1.75282         1.53628
LJ        -0.0129357        0.290901        -1.97031
LJ           0.61323         2.12227         -1.4196
LJ           1.92513       -0.328591       -0.493248
LJ          -2.08761        -2.32626         1.79242
LJ          -1.69312          0.8918        -1.78037
LJ           -1.9472         0.35117       -0.792002
LJ           1.71954         2.01092       -0.499432
LJ         -0.847105         1.72671       -0.191809
LJ           1.58449         2.09993        -1.65743
LJ         -0.980507        -0.30742        0.415151
LJ          -1.36053        -1.71482         1.69417
LJ         -0.670833        -1.99986        -0.16817
LJ         -0.618572        -1.62569        -2.22427
LJ           -2.3476        -1.24979         1.54317
LJ          0.305133       -0.874841         1.59683
LJ         -0.468342        -0.32449          2.0543
LJ          -2.04999      -0.0472815        0.117904
LJ          0.369785        0.808598         1.86612
LJ          0.380957      -0.0365601        -1.00341
LJ           2.18915         1.10201       -0.295305
LJ           1.60491        -1.75876         1.42113
LJ        -0.0363931        0.264909         1.12932
LJ         0.0953914         1.30904        -1.96083
LJ          0.476683         1.55818         1.01506
LJ          0.259615        -1.56329         2.31131
LJ           -2.2942        0.491017         1.11141
LJ         -0.783342       -0.503654        -1.76175
LJ           1.27127       -0.428464        -1.73487
LJ         -0.706946       -0.860969         1.26628
LJ          -1.43559        -1.47875        -1.19469
LJ           2.01149        0.215748        -1.36058
LJ           1.15022        -1.42679        -1.89017
LJ            1.0329        -2.32062         2.34543
LJ          0.745373         2.30364        0.303429
LJ          -2.31767         2.00119        -2.10102
LJ          -1.30012         1.58686        -2.37892
LJ        -0.0111522        -1.59201        0.523496
LJ          -1.81899        0.894913         0.24921
LJ           1.68005          2.3703        0.716644
LJ          -1.55616         1.12138         1.58416
LJ           1.73334       0.0598921        0.438076
LJ          0.319359        -1.66691        -1.39433
LJ          0.836572        -1.25954        0.852012
LJ          -2.31034       -0.545586        -2.34427
LJ        -0.0328083         1.07112        0.337278
LJ           1.27245        -2.03114       -0.979471
LJ           1.66882         2.02554         1.67787
LJ          -1.36498         2.37987        0.492239
LJ        -0.0533528         1.12652       -0.947646
LJ           1.08044         1.43715         2.34451
LJ         -0.977227          0.6428       -0.208547
LJ          0.950048       -0.307176         1.14032
LJ          0.822482         0.63808        0.686971
LJ           1.42724        0.721724         1.46837
LJ          -1.40041         2.29788       -0.788744
LJ          0.269957        0.231035      -0.0512814
LJ           1.23642         1.32724        -1.02532
LJ          -1.17801         2.10326         1.53821
LJ           -1.6712        -1.39043        -2.15909
LJ          -2.20201        -1.91097        0.784199
LJ           1.94176       -0.269201         1.51567
LJ           2.08203        -1.53527        -2.34254
LJ           0.61374        -1.58446       -0.320232
LJ          -1.34029        0.191959         1.23963
LJ            1.2159       -0.993655       -0.918641
LJ          -2.30394        -2.09415        -1.24891
LJ           2.37474           1.666        -1.17275
LJ           2.14085        -1.09422        -1.45873
LJ          -1.84712       -0.878856        -0.49298
LJ           1.01324        0.597312        -1.69787
LJ          0.884936     0.000604427         2.16791
LJ           2.20862         1.17941         1.89256
LJ         -0.775099        0.668634         2.29261
LJ         0.0736697         2.13147       -0.513121
LJ          -1.94401        0.340454         2.15746
LJ           1.87253         1.39993        0.926626
LJ          0.995715       -0.459329      0.00836772
