108
#Comment!
LJ          0.867534        -2.33758        0.185308
LJ         -0.342738        -1.46748         1.13287
LJ           1.42234       -0.396588       -0.747077
LJ           1.39432       -0.376326         1.06153
LJ           1.88641      -0.0107476        0.108322
LJ          0.551732         1.05714         1.60226
LJ           -1.1874         1.60443        -1.69522
LJ          -1.97554        -1.92692       -0.358012
LJ         -0.939096        0.228966        -2.29403
LJ         -0.477351        0.753952         1.49617
LJ         -0.139454        -1.94652         2.20296
LJ            1.3455         1.07236        0.135324
LJ        -0.0681044      -0.0372427        0.349674
LJ           1.10831        -2.37078        -1.53156
LJ          -2.34849       -0.920591       -0.647792
LJ          -1.67033         1.03025         1.07431
LJ         -0.962434        0.344168        0.650739
LJ           2.26634        0.345068        -1.46816
LJ         -0.792567        -2.34567        0.111128
LJ          0.994613        0.471585       -0.907273
LJ          0.238762         1.13177        -1.28315
LJ          0.739254         2.17556         1.98695
LJ          0.960046       -0.786886        -2.05238
LJ           1.60458         1.10509        -1.77843
LJ           2.05701        -0.22947         2.18208
LJ          -1.61877        0.687465        -1.81095
LJ          0.171413         1.89915        -1.95589
LJ          0.570983        -1.88113         1.15214
LJ         -0.857113        -2.28062        -1.97606
LJ         0.0140676        -0.98835          -1.764
LJ         -0.514822         2.09028         -1.1435
LJ          -1.59585       -0.327152        -1.13325
LJ          -1.19189         1.14703         2.16949
LJ          0.770219        -1.71346        -2.26321
LJ           1.52317        -2.24652         1.38353
LJ           2.26027          1.0858        0.433196
LJ            1.5418        -1.33304       -0.352462
LJ         -0.526842         1.56626        -0.28575
LJ          -1.73197        -1.54423        0.534184
LJ          -2.26968        -1.96654         1.56446
LJ          0.363385         2.02888       -0.879387
LJ           1.85146         1.93508        0.529505
LJ         -0.795846        -1.71399       -0.877953
LJ          -1.92838        0.200987        0.479532
LJ          0.388044       -0.329276       -0.843689
LJ          -2.21201         1.72648         1.46269
LJ          -1.26625          1.9267         1.44144
LJ         -0.891478        0.796054        -1.09006
LJ         -0.761931        -1.18614         2.04664
LJ           -1.6662       -0.947176         1.43733
LJ         -0.341635          1.0005        -2.14745
LJ           1.95758        0.828586       -0.616438
LJ        -0.0702637        -1.60003         0.17321
LJ           0.38481        0.292851        -1.80182
LJ          -2.32593       -0.788693        -1.62763
LJ           1.55847        0.657643         2.02297
LJ        -0.0385785         2.17335        0.833402
LJ            1.3531        -1.24219         1.70195
LJ         -0.473388       -0.175984         -1.3588
LJ          0.895844      -0.0817125         2.00278
LJ          -1.66458        -1.72966        -1.34458
LJ          0.227761        0.913303        0.686833
LJ          -1.73052         2.17641        0.559634
LJ         -0.622599       -0.336921         1.32778
LJ          -2.00338        0.397398       -0.446546
LJ           1.72379         2.11247         -2.2259
LJ          -1.35504         1.15106      -0.0498781
LJ           1.61097         2.37584       -0.526212
LJ           0.75935         1.10701        -2.26049
LJ          0.320085       -0.785462        0.927218
LJ       -0.00901929        0.587397        -0.44007
LJ         -0.344857         1.79221         1.95499
LJ          -1.43756         2.10287       -0.632261
LJ         -0.963593     -0.00459409       -0.299285
LJ          0.395157       -0.993254         1.86401
LJ           1.93684        -1.27553        -2.29359
LJ          0.363509        0.145363         1.24512
LJ          -1.61188       -0.640688      -0.0271069
LJ            2.3459         2.17237        -1.28161
LJ         -0.445106       -0.834911        -0.58799
LJ           1.28948        0.678961         1.04456
LJ           1.24248        -1.28957         0.62885
LJ           1.65897         1.51835         1.51924
LJ          -2.01809         1.22912        -1.07413
LJ          -1.18801        -1.83072         1.42564
LJ          -2.28323         1.80165       -0.215357
LJ           1.00525        -1.36378        -1.22284
LJ           1.17473         1.46482       -0.856395
LJ           2.02994        -1.62457        -1.27607
LJ           2.05452        -1.84561        0.478073
LJ          0.497004         1.53267      -0.0435095
LJ          0.208491        -1.63398       -0.846402
LJ         -0.676847        -0.81588        0.376329
LJ           2.37438       -0.232621         1.25152
LJ          -1.49176       0.0504119         1.61401
LJ          0.863672       0.0622076      -0.0329408
LJ          0.914647          1.7188        0.874243
LJ         -0.610547         1.40363        0.725518
LJ         -0.141207       -0.281042         2.33649
LJ           2.30773        -0.89021        0.481202
LJ          -2.17797        0.824263         1.92784
LJ          0.571403       -0.871794       -0.109811
LJ         -0.963405       -0.969848        -1.76462
LJ          -2.25093         1.45954        -1.99172
LJ           1.34275        0.168201        -1.90069
LJ           -1.7991       -0.289938        -2.21421
LJ          -1.92399        -2.37876        -2.30523
LJ          -1.70794        -1.40636         2.30054
