108
#Comment!
LJ           1.47125         1.92326        -1.12853
LJ            0.8712       -0.284911         1.47897
LJ          -1.55256         1.82313       -0.239167
LJ          0.409925        -1.02787       -0.959074
LJ          -1.85532       -0.727794       -0.864284
LJ          -2.11981        0.415749       -0.757607
LJ           2.25904         1.47587        0.823371
LJ         -0.956626       -0.664153        0.196416
LJ          0.527984        -1.00118        0.835422
LJ           2.22186       -0.664129       -0.099569
LJ          0.629405         1.45121        0.875236
LJ         -0.189833        -1.35918         1.40337
LJ           2.01798        -0.90763        -1.23361
LJ          -1.56261         1.00627        0.356546
LJ         -0.455909         1.23335         1.07961
LJ          0.306097        0.640615        0.442096
LJ           1.66672        0.993925       -0.835959
LJ          -1.85012         -1.7913        -1.64365
LJ          -0.05434       -0.307626       -0.319384
LJ          -1.21498         2.22475        -1.06801
LJ          -2.25786       -0.750142        -2.09573
LJ          -1.88781        -1.12544         1.82221
LJ         -0.566264        0.259129        -1.72846
LJ          0.253959       -0.191925         -1.9773
LJ           -1.3122       -0.449845        -1.70647
LJ          -1.78906        -1.47586        0.259133
LJ          -2.14657         1.55334         1.82605
LJ         -0.329741         1.78086       -0.854187
LJ           1.43497          -1.835       -0.864511
LJ           -1.6504         1.96004        -2.11498
LJ           1.65433         2.37718        0.873804
LJ          -0.13635        0.692513       -0.734853
LJ          -2.16346        -2.07193         2.12336
LJ          0.861031       -0.189717        0.305453
LJ          -2.11357         1.20522        -1.45022
LJ         -0.631616         1.27033         2.18749
LJ          -1.30869         1.00194         1.45834
LJ           1.95048        -1.98934         -1.7144
LJ          0.842533         -2.2785         -2.1234
LJ         -0.554715        -2.31657      0.00236117
LJ          -2.12759        0.152038         2.18337
LJ          0.189607        -1.51927        -1.82644
LJ          -2.34198         2.14228        -1.09989
LJ           2.11577       0.0234349        -1.57534
LJ         -0.335363         2.18823         1.25024
LJ            1.4155        0.338021        0.987245
LJ           1.59052          2.2928         1.97497
LJ           1.51738       -0.115129       -0.781944
LJ          0.569971       -0.026217        -1.06567
LJ          0.604819        -1.83864       -0.207239
LJ           1.23442       -0.924083       -0.382477
LJ        -0.0529414       -0.161512         1.03173
LJ         -0.921073        -1.57066        0.671568
LJ          -1.73925       -0.056355       0.0618851
LJ           1.17422        0.467406        -1.70042
LJ           2.26049        -1.64839         1.29607
LJ           -1.1919        -0.25857         2.06181
LJ           1.81224        -1.49918          2.2331
LJ           1.92196       -0.561965         1.75785
LJ          0.977827        0.606115        -0.30579
LJ           1.30086       -0.442255        -1.98134
LJ          -1.05212       -0.729261         1.19134
LJ           1.77711        -1.59884        0.116487
LJ          0.597147         1.32515        -1.21628
LJ           1.20196         2.08926       -0.136934
LJ          -2.34945         1.24999       -0.229888
LJ          0.702719         -2.3547           1.291
LJ         0.0478409        -2.09028         2.03365
LJ          -1.10949         1.91164        0.612016
LJ         -0.273002        -1.86125       -0.788572
LJ           -2.2982        -2.33642       0.0446989
LJ           1.16954        -1.34351        -1.65707
LJ          -1.02738           1.292        -1.44275
LJ         -0.970158       -0.287327       -0.734461
LJ         -0.207805       -0.591216         2.06265
LJ           1.91437         1.80228        -2.01616
LJ          0.581213        0.722417         1.53928
LJ          0.644403        -1.18299          2.0849
LJ          -2.01155         2.33661         1.00044
LJ          0.495775         1.41452       -0.177404
LJ           -1.4633        0.711751        -2.09449
LJ            1.7188         1.27683          1.5878
LJ           1.49871        0.338753         1.97292
LJ         -0.168366         1.79382        -1.92151
LJ          -0.54635          1.0323       0.0685388
LJ          0.285561         1.66247         1.97943
LJ          0.247145          2.2527        0.421363
LJ           0.23712        0.785343        -2.20208
LJ           1.51933         1.22486        0.216399
LJ          -1.13467        -1.76912         1.63362
LJ          -0.95646        0.264927        0.729907
LJ          -2.10991       -0.355444         1.04063
LJ         -0.620071        -1.00364        -1.31106
LJ         -0.894716        -1.21057         2.34894
LJ           1.25964        -1.54763          1.2946
LJ         -0.473774        0.364955         1.69982
LJ          -1.17508         2.02688         1.75286
LJ          -1.21948        0.868814       -0.555042
LJ          -2.32065        0.581218         1.26392
LJ         -0.189151        -1.23111        0.113919
LJ           1.95904        0.324384         0.19358
LJ         -0.843489        -2.22246        -2.23152
LJ          0.497616          2.3158         -1.1523
LJ           2.07503        0.885259        -2.17596
LJ          -1.11425         -1.3963       -0.489108
LJ            1.5838       -0.708956        0.699432
LJ            1.1077         1.28884         2.31938
LJ          -2.32739        -1.61688       -0.652428
