108
#Comment!
LJ          -1.45896         1.17898         2.11459
LJ          -1.62443        0.383721        -1.95528
LJ          -1.84015       -0.269023        0.806142
LJ           1.30919        -1.16991        0.795007
LJ          -2.30801        -1.80323        0.465839
LJ           1.27742          2.0305        0.378236
LJ           2.10897        0.905125       -0.208321
LJ          -1.95958        -2.20118         1.28643
LJ          -1.02094         2.18284          1.6744
LJ           1.59279        -1.76288       -0.111195
LJ          0.716276       -0.789786         2.25106
LJ         -0.311184         1.86973         -2.2985
LJ           1.15116         0.88005        0.662899
LJ          -1.93706        0.679268        -1.06314
LJ           2.09236         1.91615       -0.138238
LJ          -0.58609       -0.241902         1.55548
LJ          0.629032         1.33646       -0.110377
LJ         -0.618048         1.75865       -0.414201
LJ            2.2968        0.462494         1.37754
LJ           1.85762         1.05242        -1.38239
LJ          0.350378       -0.511621       -0.836719
LJ         -0.624139        0.811175          1.8494
LJ           2.12258        -2.13513         2.02413
LJ          0.894075        0.796576         -1.2024
LJ          -1.64322         2.12453        -2.35793
LJ           2.04034         1.36484        0.847075
LJ          -2.35524         1.68685         1.79321
LJ           1.74535       -0.418673         1.52601
LJ           2.01121        -0.76329        -1.04238
LJ         -0.868617         1.00915        -1.86407
LJ          -2.18307        -2.34195        -1.06191
LJ           1.40286        0.812542         1.63986
LJ          0.509186        0.126147         1.94799
LJ           1.65581        -2.19737          1.1028
LJ           0.39777        -1.09319         1.29357
LJ         -0.418525        -1.57518        0.315476
LJ           1.25881        0.503957        -2.11177
LJ          0.166835       -0.127096        -1.70264
LJ          -2.32231        -1.11498          1.1158
LJ           1.13171       -0.346579         -1.5366
LJ          -2.24658        -0.17254         2.13585
LJ          0.485014         2.37676       -0.591148
LJ          0.426699         1.20417         1.73823
LJ          -0.31313        -2.14892         -1.2523
LJ           2.29438        0.115431        -1.67579
LJ           1.86613       -0.740022        -2.02807
LJ           1.37686        0.145997        -0.59885
LJ           1.72318       0.0765435        0.617137
LJ          0.123893        0.902098        -2.15969
LJ         -0.406316       -0.160741       -0.205314
LJ          -1.68963           1.397         1.10802
LJ          0.041215        0.415679       -0.868747
LJ         -0.654811       0.0679536        -2.24051
LJ          -0.48992        -1.00756        -1.51695
LJ          -2.29017        -1.46433        -0.52678
LJ           1.33929         1.81914       -0.957267
LJ           1.84152         2.04852        -2.02373
LJ          0.594783        -2.16388        0.976802
LJ            2.0679        0.997092        -2.32664
LJ         -0.835637       -0.981815         1.02913
LJ            1.1941        -1.62727        -2.09389
LJ          -1.35783         0.19645       -0.281741
LJ          -2.31977       0.0077359       -0.265343
LJ          0.578799        -1.73944        0.149563
LJ          0.828234       -0.234332         0.94488
LJ          -1.72576       -0.638514        -1.06135
LJ         -0.603276        -1.00072         2.22989
LJ          0.645465         0.28843       0.0352363
LJ          -1.67846         2.08624        0.245621
LJ          -2.28648        -1.48567        -1.56497
LJ         -0.321188        -1.72555         1.54633
LJ          -2.00797        0.663792        0.468571
LJ         -0.889911        0.459428        0.874417
LJ        -0.0579599        -1.42665        -0.66835
LJ           1.17515         1.45066        -2.36694
LJ          -1.01275       -0.937393       -0.423797
LJ          0.010392         1.37859         -1.2165
LJ           1.90786       -0.772697       0.0250559
LJ          -1.45056       -0.647939        -2.04877
LJ           1.47387        -1.38144          1.7675
LJ          0.719469       -0.755848       0.0592582
LJ          0.388983         1.51465        0.780636
LJ          -1.34283        -1.67201        -1.59725
LJ          0.187496        0.519078        0.913818
LJ           1.62342        -1.99467         -1.2616
LJ           1.11151        -1.19559       -0.738383
LJ          -1.14009         2.05652        -1.49129
LJ          -1.88682         1.40879        -1.72224
LJ          -1.53468       -0.728066         1.71203
LJ        -0.0654569       -0.398319        0.627787
LJ          -2.24342        -1.24881         2.22118
LJ         -0.257172        0.777522       0.0389736
LJ           1.05209         2.30218         1.78715
LJ         -0.230812         2.18064         0.38148
LJ          -1.20413         -2.2191       -0.617849
LJ          0.790884         2.20764        -1.65965
LJ          -1.04033        -2.21585        0.853843
LJ        -0.0341879         2.07379         1.53728
LJ          0.373473        -2.01189          2.2761
LJ          -1.37473        -1.47468         0.37053
LJ         -0.597004        -1.98549        -2.17259
LJ          0.409155        -1.45372        -1.56666
LJ          -1.58939         1.53895       -0.655521
LJ          -1.29447        -1.66344         1.93412
LJ         -0.812956        0.120576        -1.30341
LJ         -0.599634         1.44802        0.954055
LJ          -1.50277        0.284867         1.69968
LJ          -1.18753         1.15129        0.173731
