108
#Comment!
LJ          -1.09842        -2.11793        0.564498
LJ          -0.02102        -1.01706        0.347668
LJ         0.0623884         1.93991        0.950513
LJ          0.131023         1.69454        -1.76341
LJ          0.672105        -1.21535         1.09247
LJ          -1.90912         1.80695       -0.814867
LJ          -1.97304        -2.23931          1.3238
LJ          -1.60256        -2.19925        -1.66466
LJ          0.311882         0.80033        0.559944
LJ           2.19175         1.05917        0.431467
LJ          -2.37371        0.249945        -2.34608
LJ           2.01145          0.3132       -0.459712
LJ         -0.383084        -1.20719         1.32561
LJ          -1.85699        0.434044        0.943828
LJ          -1.52642         1.68602        0.180143
LJ           1.89922         1.90605         1.62784
LJ           1.16624        0.881909        0.143384
LJ            -1.928         1.24358         2.30303
LJ           1.77278       -0.547154        -2.16854
LJ         -0.168063        -1.94913        0.741401
LJ           1.45452        -1.06544         1.63546
LJ          -1.31532       -0.444272         1.62756
LJ            2.1701        -1.61958         2.09301
LJ           2.01594        -2.01898        -1.19497
LJ         -0.470691         2.16428      -0.0173936
LJ          0.446713          2.0878       -0.936511
LJ           1.29703         1.70639        -1.50715
LJ         -0.484381        -1.23183         -2.3045
LJ         -0.286791        0.402429        -1.29376
LJ           -1.9061        -0.18822       -0.381432
LJ          0.928921        -1.14139        0.122478
LJ        -0.0578715         2.01693         1.99318
LJ          -1.25556         1.51437        -1.68001
LJ         -0.359245        -1.64172       -0.643158
LJ          -1.08479        0.240112       0.0119475
LJ          -1.39536        -1.62743         2.31811
LJ          0.616506         0.29952        -1.94599
LJ            1.4463         2.05162       -0.303985
LJ           1.33774        -2.04512         1.76155
LJ          0.822906       -0.536113         2.30946
LJ          -2.06084        -1.74347        0.271098
LJ         -0.760183        -2.18144         1.54024
LJ           1.42088        0.235058         2.14741
LJ        -0.0296048        0.275165       -0.254298
LJ           1.89778        -1.78123        0.884324
LJ          -1.31434        -1.27513         1.01825
LJ          -1.46028        -2.13348       -0.432448
LJ           1.07432        0.885422         1.11437
LJ          -1.15603      -0.0468325        -1.16812
LJ          0.143194       -0.163011        0.820575
LJ          -1.86558         1.42801         1.27374
LJ           1.70343       -0.844727        0.671172
LJ          0.180194        -1.64266        -1.62063
LJ           0.16756         1.14289       -0.682014
LJ           1.00135        0.253748       -0.820219
LJ           1.04455        -1.81529        -1.16192
LJ        -0.0756018        -0.56192        -1.53227
LJ          0.446251        -1.04364       -0.741007
LJ          -1.12027        -1.04646        -1.12227
LJ         -0.980378       -0.368046        -2.12977
LJ         -0.819423       -0.379075        0.716476
LJ          -1.91165        0.837507       -0.141298
LJ          -2.30836         1.42258        -1.61579
LJ            1.6985        0.630732        -1.51672
LJ         -0.815708         1.38624         2.16905
LJ          -1.34174        0.601874         1.82065
LJ           1.73252        -1.75122       -0.270643
LJ           1.05853       -0.270519         1.23124
LJ           2.03061       -0.232093         1.44007
LJ          -1.29835        -1.15647      -0.0303549
LJ           0.97488        -2.22315        0.760676
LJ         -0.663605         1.15656        0.131532
LJ            0.5717         1.70965        0.108272
LJ           2.07141        0.725568         1.40376
LJ            1.7683         1.20349          2.2874
LJ          -2.22076        -1.05993         1.37007
LJ          0.795021         1.15046          2.3539
LJ          -1.51615         2.11736         2.09641
LJ           1.48208       -0.879279       -0.674626
LJ           1.48697         1.73206        0.593336
LJ            1.9149         2.19397         -2.1588
LJ          -1.48134        0.508425         -1.9574
LJ           2.31993         2.09744        0.300031
LJ          0.510769        0.391045         1.78339
LJ         -0.532436         2.16927       -0.977656
LJ         -0.927614         1.66772          1.0052
LJ          -2.07613        0.597095        -1.16235
LJ          0.983961       -0.663826         -1.4711
LJ          0.317881        -1.85484         1.75219
LJ           0.86232        -2.37746        -2.09843
LJ         -0.565256        -2.28395        -2.00915
LJ           2.16203       -0.317912        -1.18125
LJ          -2.02529       -0.642189         0.48364
LJ         -0.373788        -0.20302         1.72501
LJ           1.88651         1.35533       -0.782215
LJ         -0.506823       -0.527423       -0.527078
LJ           0.97656       -0.162496         0.21781
LJ          -1.10044        0.885766       -0.738553
LJ          -1.98116       -0.719882         2.32806
LJ         -0.156823        0.746213        -2.31898
LJ          -2.28237        -1.17759        -1.59509
LJ           1.97045         0.10495        0.519479
LJ         -0.120928         1.14025         1.55586
LJ         -0.725856        0.578488         1.03634
LJ           1.25588        -1.37422        -2.23923
LJ           0.86885         1.86857         1.47462
LJ          0.496165        -1.93726       -0.194267
LJ          -2.33914        -1.13437       -0.457844
