108
#Comment!
LJ           1.87754         1.18887       -0.632456
LJ         -0.646469       -0.403873        -1.14976
LJ          0.449017        0.302436         1.96525
LJ          -1.31121        -1.44607         1.20302
LJ         -0.203455       -0.649328        -2.21673
LJ          -2.12698         1.01286        -1.34964
LJ           1.52821         1.52447         1.34425
LJ           1.12458         -0.4532        0.458753
LJ          0.687068         2.28417         1.44903
LJ         -0.584294        0.115201          1.8126
LJ           0.81738        -1.73209        -1.47129
LJ           2.23341       -0.607788        -1.28151
LJ            1.6754        -1.45944        0.112225
LJ          0.704081       -0.860853        -1.85819
LJ          0.627684         1.48305        0.686613
LJ          0.285444       -0.456064         1.15555
LJ         -0.839074        -1.36059       -0.782116
LJ          0.762761        -1.84568       -0.470553
LJ         -0.645462       -0.837067         1.50737
LJ          -1.26675         -1.9957        0.345887
LJ          0.123161        -1.15852        -1.02825
LJ           1.56674         1.11196        0.413795
LJ         -0.383912        -1.98071        0.792688
LJ          -2.10651         1.07839       0.0385233
LJ          -1.57254     0.000180313         2.22044
LJ         -0.109234     -0.00783811         0.32304
LJ          -1.31927         2.31584           1.204
LJ          -1.26538        0.487001        -1.21785
LJ           2.03658       -0.519249       -0.237856
LJ           1.50353        0.272564       -0.135072
LJ           -1.4303        0.947927        -2.06478
LJ          0.255092        0.925038        -1.65653
LJ         -0.239792        -1.73032         -0.1859
LJ          -1.40513         1.40424         1.78745
LJ            1.9979        -1.29286         1.82162
LJ         -0.226294          1.8803          1.4364
LJ          -2.25943       -0.751966        -2.28288
LJ           -2.2254         0.93476         1.99592
LJ          -1.27646         1.18351        0.805939
LJ         -0.394231        0.317279        -1.99851
LJ         -0.356586         1.16785         2.10742
LJ          0.224492        -1.54748         1.55242
LJ          -1.82859         1.82345       -0.863487
LJ          -1.58549        -0.99489        0.364999
LJ           2.02366        0.399033        0.932249
LJ          -1.00947        -2.07051        -1.46024
LJ           1.13106         1.93831       0.0568289
LJ          -1.54543        -2.08188       -0.670949
LJ          -2.26482        0.285302       -0.615617
LJ           1.36839       -0.814157       -0.855484
LJ          0.365697       0.0110412        -1.43648
LJ         -0.362096         1.01913        0.196967
LJ          0.917257        -1.97876        0.596149
LJ          -2.31798         1.29412           1.023
LJ          0.887084        0.461251          1.0313
LJ           -1.3636       -0.465114        -1.78196
LJ         -0.974285        0.274472       -0.180324
LJ        -0.0835537        -1.68919        -1.88966
LJ           1.42152        0.600679         1.85804
LJ           1.79557         2.32988        0.715685
LJ         0.0412461          1.8272        -2.02859
LJ           1.46555       0.0431411        -1.36561
LJ         0.0777987        -2.33801        -1.04865
LJ           1.61976        -2.21764         1.68155
LJ         0.0701324         1.49135       -0.579806
LJ          -2.28242         -1.7698        0.619772
LJ         -0.231704        0.531811       -0.790105
LJ          -1.07987       -0.147181        0.864353
LJ           1.55061        0.987711        -1.82999
LJ           2.10422         2.34669       -0.306353
LJ          0.345123        -1.13715        0.419001
LJ          -1.83203       -0.665952         1.43685
LJ          0.669405       -0.374965       -0.390817
LJ           0.79339         1.34618         2.16463
LJ           1.67044        -1.12704        -2.01892
LJ           0.92179         1.89203        -1.02313
LJ          -1.08478         1.17684       -0.481555
LJ           2.34163        0.221609        -1.95958
LJ          -2.03233          2.0221        0.409124
LJ           1.15427       -0.489346         2.10159
LJ          -1.85496        -1.70204         2.15041
LJ          -1.57939       -0.433901        -0.68469
LJ           2.19505       -0.043743         1.85491
LJ           1.95413        -2.12229        -2.13225
LJ           1.79391         1.67171         2.27754
LJ           1.75574        -1.80991        -1.07566
LJ           1.03632        -1.49176         2.06478
LJ           1.04102        0.834044       -0.975309
LJ         -0.219354         0.76567         1.19887
LJ         -0.995809          -1.377        -2.14713
LJ         -0.740951         2.07041       -0.711442
LJ          -1.81732         -1.4602        -1.59157
LJ          0.996456         2.17797        -2.06099
LJ           1.25804        -1.15628         1.14994
LJ          0.230819         2.21584      -0.0175248
LJ           1.89913         1.82783        -1.37995
LJ          -2.21752         2.23226         1.72919
LJ          -1.79643        0.431305         1.20593
LJ          -2.08853        -1.32632       -0.527537
LJ         -0.759459          1.2749         -1.4157
LJ          0.653758        0.812904      -0.0843863
LJ          -1.91187       0.0057658        0.245882
LJ          -2.11721         1.81741         -2.0346
LJ            2.2097       -0.794622        0.733503
LJ         -0.952564         1.99497        -2.27586
LJ         -0.565582        -2.01443         1.97984
LJ         -0.703272       -0.738759       0.0488833
LJ         -0.700817         1.90993        0.401451
