108
#Comment!
LJ          -1.59689         1.24036         1.54513
LJ         -0.680577         1.09116         1.68601
LJ          -1.58625        0.314344         2.16654
LJ           1.51201       -0.945232        0.233451
LJ          -1.90601        -2.27727       -0.777626
LJ         -0.205298         1.52781        0.267844
LJ           1.12173        0.585784        -2.33773
LJ           2.02869        -1.88886         1.01762
LJ           1.69107       0.0225572        -0.34754
LJ           2.22308          1.5973        -0.29126
LJ          0.260749       -0.194109      -0.0205922
LJ          -2.08401         1.29692         2.37457
LJ          -1.03004        0.993808        -2.11989
LJ          -2.27839        0.417121        -1.73367
LJ          -1.82573        0.701033       -0.158406
LJ           1.02637        0.222974        0.508168
LJ          -1.50849         1.61904       -0.485392
LJ           2.24527        0.709765       -0.829717
LJ         -0.203703        -1.97779        0.897159
LJ         -0.394599       -0.098025        0.741384
LJ          0.229824        -2.19359      -0.0554283
LJ          0.507858       -0.079616        -1.81416
LJ            2.1274        0.930771         1.22171
LJ           1.75485          1.3594         2.11673
LJ          -2.15242        -1.03375        0.758668
LJ          0.943106       -0.938167        -1.63848
LJ         -0.109322         1.99521         1.47818
LJ          -1.33554       -0.410829        0.545774
LJ          -1.81745       -0.392085        -1.96533
LJ            1.4189         1.77319       -0.789892
LJ         -0.440694      -0.0610337        -2.10746
LJ          0.197105        0.793472       -0.199327
LJ         -0.945712        0.715092         0.73953
LJ          0.609205         1.88847        0.613699
LJ            1.9314       -0.148428        0.820226
LJ          0.469973        -2.01111         1.76061
LJ          0.423316         1.66281        -0.63128
LJ           2.34169       -0.597513       -0.862107
LJ          -2.12798         -2.2853        0.285236
LJ          0.477639        -1.67127        -2.09582
LJ           1.40397        -1.54145         2.22581
LJ        -0.0546482        -2.37579        -1.30256
LJ         -0.299782         1.35205         -1.1987
LJ          0.976189        0.558602        -1.03173
LJ           1.36733       0.0757256         1.62262
LJ        -0.0126205        0.844938         -2.0514
LJ           2.31953        -1.47009       -0.262445
LJ           1.99658        0.731901         0.20623
LJ        -0.0668094         2.24532        -2.32236
LJ         -0.261659        0.309093        -1.07825
LJ           1.70719         1.86749        0.697104
LJ           0.57446       -0.733392         2.13704
LJ          -1.17811         1.88587         2.12786
LJ            -1.658        -1.29292         1.80213
LJ         -0.599857         -1.6247       -0.790002
LJ           1.84919         2.14435        -1.88836
LJ          -1.33692        0.765737        -1.19675
LJ          0.565098        -1.19938        0.122763
LJ           1.58423       -0.632656         -2.3766
LJ          -2.37813       -0.588149         1.71254
LJ           1.21116         2.05772         1.53116
LJ         -0.726117      -0.0829299       -0.283743
LJ           1.49105       -0.103803        -1.53272
LJ           1.54744        -2.06917       -0.225299
LJ          -1.64878        -2.23237         1.45691
LJ         -0.991482       -0.317244         1.51511
LJ         -0.184005       -0.975128         1.30511
LJ          0.845081       -0.421996       -0.810624
LJ         -0.859337        0.889413       -0.342085
LJ          -1.46844         -1.2554       -0.274735
LJ          -1.00484        -2.11738        0.115514
LJ          -1.60667      -0.0162453       -0.808478
LJ         -0.607243        -1.07365         2.18644
LJ          0.761176         1.32824        -1.58418
LJ          0.469488         1.34725         2.02544
LJ          0.901706         2.18121        -2.30234
LJ           2.19838        0.449995         2.11607
LJ           1.51974        -1.33592       -0.938471
LJ           1.07847        -2.18594        -1.37755
LJ           1.33249        -1.19014         1.22865
LJ         -0.469592        -1.05281        0.234076
LJ          0.123275         1.07726         1.07659
LJ          0.257001        0.252404         1.92813
LJ          -2.13658       -0.265647       0.0370633
LJ           1.05717         1.17879       0.0708055
LJ           2.31528         1.99619         1.48785
LJ         -0.532399         2.04162        -0.50616
LJ          -2.15719         1.51779        -1.33936
LJ         -0.728264        -1.70064        -1.80716
LJ         -0.906797       -0.624807        -1.34435
LJ           2.19743        -1.81745        -1.38963
LJ           -1.0053          1.9823        0.897619
LJ          -1.84418        0.126554         1.20292
LJ           0.53045        -1.50046       -0.878583
LJ          -1.12037         2.09814        -1.32039
LJ            1.1538        0.964898         1.15538
LJ           2.23095        -1.85289         1.97588
LJ           1.04577        -1.95522        0.621019
LJ          -1.66957        -2.10989        -2.26874
LJ          -1.72483        -1.16983        -1.29681
LJ         -0.775527         -2.0586         1.82008
LJ           1.73743         1.13149        -1.67482
LJ           2.33809        -1.18173        -2.05655
LJ          -1.09143        -1.52942         1.00488
LJ        -0.0301635       -0.967319        -1.65024
LJ          -2.00814         1.39147        0.557347
LJ         -0.142998       -0.770453       -0.690087
LJ          0.654094       -0.450272         1.10078
