108
#Comment!
LJ           -1.7152      -0.0969623         2.22923
LJ           2.31748       -0.963176       0.0396069
LJ           2.08903        0.949609         2.36442
LJ          0.994576         2.05888        0.213984
LJ          -2.35213         2.34396        -1.14598
LJ           1.70867         -1.8353         2.00775
LJ           1.31965        -2.27952         1.07991
LJ         -0.166394         2.36329        -1.13853
LJ          0.272232       -0.772108       -0.520475
LJ          0.104112        -0.80035         -1.6071
LJ          -2.09134        0.318596         1.22104
LJ          -2.00989        -1.71392         1.76406
LJ           1.91541        0.442399        -1.35823
LJ            2.0047       -0.429269       -0.832517
LJ         -0.721086         1.44904          1.5223
LJ          -1.23592        -1.18018        -0.58819
LJ          -1.85036        -1.05095         -2.2686
LJ           2.24102         1.97864         1.60454
LJ           1.12127        0.385695        0.610563
LJ          -1.07423        -2.37779        -1.73615
LJ           2.11733       -0.995098         1.87566
LJ          0.807494         1.29717         1.05062
LJ         -0.893584        -1.43968         2.32511
LJ          -2.05908        -2.14376          -2.161
LJ          0.757516        -1.62729         1.69275
LJ          -2.09492       -0.752634         1.10825
LJ          0.683391         1.14852       -0.175829
LJ          0.712405        -1.64157       -0.194027
LJ           1.85239         2.06654         -0.4452
LJ           1.11096         1.28918        -1.98394
LJ           1.71433         1.09032       -0.117915
LJ          0.651548         2.10188        -1.96793
LJ          -1.35119         2.23606         1.97004
LJ          0.393263         -2.0632         0.68811
LJ         0.0956584        0.648714        0.412296
LJ         0.0613849         -1.0295         1.96106
LJ         -0.721671        -1.49946         -1.4753
LJ          0.671559        0.683301        -1.23157
LJ            2.0798     -0.00700263         1.96055
LJ          0.666875       0.0884065       -0.278539
LJ          -1.41831         1.89772        0.249164
LJ           1.95824         1.00897          1.1802
LJ           1.34017         1.50009         1.80809
LJ           1.71245         2.12285        -2.15827
LJ          -1.61329        0.917561         1.94913
LJ           1.39919        -2.24368        -1.25302
LJ          0.991707        -1.77298         -2.0533
LJ          0.769471        -1.48545        -1.13976
LJ           1.87487         1.45546        -1.20659
LJ           1.08719       -0.692792        -1.98233
LJ          -1.00277        0.240628        -1.58947
LJ          0.562847       -0.475731          0.4827
LJ        -0.0570707         0.21085         -1.7859
LJ            1.7984        -1.39984       -0.675938
LJ           2.27822       -0.424701        -1.74102
LJ         -0.717623         1.21983        0.340642
LJ          0.588275         1.85105       -0.867227
LJ           1.02405       -0.640745         1.68609
LJ        -0.0518448        0.666718         1.39963
LJ          -1.17486       -0.730975         1.71293
LJ         -0.603664        0.728659         2.20755
LJ           1.02652       -0.246271        -1.11677
LJ          0.480541         2.01777         1.76946
LJ          0.373985      -0.0967975         2.15276
LJ          -1.34453         -1.0233        0.520418
LJ         -0.191927        0.643545       -0.733635
LJ           1.36167       -0.612976      -0.0553977
LJ          -1.23232        0.803151       -0.425861
LJ          -1.72049         1.58969          1.1496
LJ          -1.01345        0.393567          1.3674
LJ           2.07915        -1.53361         1.01738
LJ         -0.991231         1.20103        -1.79185
LJ         -0.168781         1.90805      -0.0739722
LJ         -0.343645         1.80435        -2.35821
LJ          0.319953          1.0602         2.28138
LJ           1.08597         -1.3079        0.647782
LJ        -0.0958274        -1.95067        -2.09816
LJ           -2.1872        0.840602        -0.61604
LJ         -0.607744       -0.269379       -0.682144
LJ         -0.639538        -1.91689        0.399798
LJ          -1.84215        -2.03055        0.764074
LJ          -1.77019       0.0594839       -0.947665
LJ          -1.19601        -2.22434       -0.705401
LJ           2.02098        0.154474      -0.0579772
LJ          -0.47149        -2.31025          1.5161
LJ          -2.05953        -1.95205       -0.311884
LJ        -0.0145949         1.73563        0.900968
LJ          -1.76265        -1.47702        -1.37971
LJ          -0.10952       -0.383795         1.23002
LJ           1.09691        0.255413        -2.10102
LJ          -2.10693         1.54355        -1.80231
LJ          -1.81603      -0.0247403        0.270176
LJ          -1.83392           1.747       -0.630733
LJ           -1.8891        0.981294        0.355236
LJ         -0.426344       -0.612282        0.255865
LJ          -1.28459       -0.696052        -1.57258
LJ         0.0258071         1.36106        -1.50886
LJ           2.16408         1.80161        0.530571
LJ         -0.652615       -0.371455        -2.29175
LJ           1.81203       -0.281821        0.885377
LJ         -0.184775        -1.60861       -0.499298
LJ           1.78875        -1.95748        0.152735
LJ         -0.850748         1.62393       -0.793677
LJ           1.95007        -1.44407        -1.79621
LJ         -0.479974        -1.31987         1.08447
LJ          -1.85943        0.573445        -1.81121
LJ          0.958962        0.545573          1.6702
LJ         -0.816566         0.20846        0.356685
