108
#Comment!
LJ          -2.35702       -0.115649       0.0013243
LJ          -1.13263        -1.79513        -2.20482
LJ          -2.27755        0.504628       -0.854244
LJ          -1.76623        -2.36769       -0.960856
LJ          -1.29877        0.308978        -1.06122
LJ          -2.17665        -1.40387         2.26725
LJ         -0.905126         2.23413        -1.45812
LJ         -0.349726         1.44663        -1.52513
LJ           1.35117         1.19115       -0.669055
LJ          0.730466        0.757914        -1.42261
LJ          0.900729        -2.04222        -1.37542
LJ        -0.0193483        0.811984        -2.32201
LJ          -2.02189        -1.49497        -1.42609
LJ          -1.22908         1.28076        0.440335
LJ         -0.912789        0.673497        -1.91832
LJ          -1.42992        -0.27041        0.949182
LJ           1.52226       -0.153773        0.382619
LJ         -0.943242         1.03419         1.85275
LJ          -1.91999       -0.423409        -1.36106
LJ           1.78393        -2.03247         2.36341
LJ           1.90749      -0.0275082        -1.61126
LJ           -2.2041          0.8795        0.610564
LJ          -1.91569         1.66439         1.12226
LJ          0.031391        -2.34168        -1.86055
LJ          -2.17946        -1.10552         0.25824
LJ         -0.423946        -2.10855         1.81654
LJ          0.232957         2.25292        0.131243
LJ           1.30318         2.21874         1.47323
LJ          -1.38235       -0.888565        -2.08897
LJ          0.132617        0.831667         1.42187
LJ          -1.46501       -0.742331       -0.371825
LJ         -0.105359        -2.11745       -0.754926
LJ         0.0477619        -1.52777         0.93531
LJ            1.8633        -1.82173        0.854928
LJ           1.49022         2.03166        -1.73831
LJ          0.817077        -1.13209        -1.77073
LJ         -0.152101         1.30904        0.375262
LJ          0.593453        -1.66568       -0.261058
LJ          -2.06988        -2.29672        -2.07352
LJ         -0.869459         2.01431        -0.51835
LJ           1.53456        -1.71029       -0.710955
LJ         -0.610382         0.88071       -0.401077
LJ           1.10394        -2.24521        0.432627
LJ           1.28338        0.302269         1.23929
LJ         -0.950073        -1.17787         1.50281
LJ          0.534533        0.294593        0.520508
LJ           1.90147          1.6274         2.22415
LJ          0.592892         1.72922        -1.43185
LJ         -0.363878         1.74013         2.18963
LJ           1.99801       -0.383948         2.19297
LJ         -0.196021        0.430471        -1.23586
LJ           1.86252          1.9334        0.437771
LJ           1.84932        0.744257      -0.0157749
LJ         -0.779414        0.404694         1.03833
LJ          -1.90332        0.547795        -1.98979
LJ          0.572785       -0.241008        -1.24606
LJ           1.78054        -1.19941        -1.78583
LJ          -1.02984        -1.00804        0.539511
LJ          -2.21479         1.55626        -1.74303
LJ           2.35511      -0.0201993         1.14951
LJ           0.94653        0.766389         2.07805
LJ          0.869024         1.24153        0.340636
LJ           1.81871         1.20949         1.19446
LJ           1.39426        -1.13322         0.33172
LJ         -0.720199       -0.524406        -1.42456
LJ           1.75609       -0.829693         1.25195
LJ          -1.99532         1.21081       -0.317998
LJ          0.992901        -1.54067         1.24058
LJ           1.96784        0.652731         2.28349
LJ          -1.40509        -1.72727      -0.0645607
LJ         -0.441867        -1.42509       -0.090465
LJ          0.258845         1.85919         1.42427
LJ          -0.71795        -2.25821        0.414166
LJ         -0.814079         1.76653         1.27514
LJ          -1.74367       -0.278437         1.92655
LJ          0.443231      -0.0755792         1.78255
LJ           1.05489         2.13506       -0.624804
LJ           1.77572        0.920026        -1.49553
LJ           2.06807         2.01424       -0.887641
LJ        -0.0146105        -0.20118        -2.06021
LJ         -0.773002        -1.56656        -1.21864
LJ           2.23784        -2.05016      -0.0664515
LJ          0.141026        -1.14812         -1.0346
LJ          -1.96804        0.799687         1.61782
LJ           1.26743       -0.799387        -0.95994
LJ          -1.65059         2.09553       0.0798977
LJ          -1.45114         1.45771        -1.11164
LJ         -0.211501        -1.35643        -2.09626
LJ         -0.762322       -0.192981         1.98385
LJ         -0.321888       -0.462804        0.906658
LJ           2.23284       -0.917835       -0.731087
LJ          -1.39564        0.180219      -0.0997301
LJ          -1.89571        -2.01124        0.783927
LJ           1.10471        -1.02026          2.0653
LJ            2.3305        -2.32313           1.554
LJ          0.666242       -0.734965        0.863614
LJ          0.664632         1.74275        -2.36948
LJ         0.0638199         1.63219        -0.62786
LJ            1.6084       0.0754877       -0.640193
LJ         -0.295789       -0.016584       -0.155229
LJ           0.37362         0.72808       -0.358994
LJ         0.0155323       -0.994674         1.74463
LJ          -1.28747         1.60907        -2.13048
LJ           1.03918       -0.193313        -2.07904
LJ          0.594233        -1.86975         2.12824
LJ          -1.51471          2.2531         1.84218
LJ          -2.15214         -1.1814         1.18965
LJ          0.620228       -0.488638       -0.178138
