108
#Comment!
LJ          -2.04584         2.00847        -1.63189
LJ          -1.22564       -0.661938        -2.21905
LJ         -0.180792        0.259334       -0.837766
LJ           1.44125         2.21835       -0.404039
LJ          -2.34368        -1.98802         1.52885
LJ          0.259338         -1.0555       0.0306534
LJ         0.0765335      -0.0588865         1.57203
LJ           2.28305         0.99688        -2.06591
LJ          0.675547         2.08902         2.00447
LJ          0.441206         2.37275        -0.63901
LJ          0.483382       -0.553756       -0.813532
LJ          -2.18604         1.87288         2.15478
LJ          0.671081         1.23928        0.185787
LJ           2.04687        -0.60698        0.457609
LJ           1.38239         1.07595         1.97371
LJ           0.16907        -1.71859        -1.95257
LJ         -0.651847        0.778571         1.46374
LJ         -0.398622         1.83163       -0.465301
LJ          0.944477        0.389716        -0.92549
LJ         -0.106956       -0.730629        -1.65222
LJ         -0.627929          1.3118        -1.27584
LJ          -1.30074       -0.573993        -1.04182
LJ         -0.586116        -1.99456         1.22674
LJ          0.906665         2.32698        -1.62603
LJ         -0.989014        -2.30123         0.36019
LJ           1.62769        0.201823        0.398462
LJ         -0.259994         1.76981         1.62783
LJ         -0.442938        0.999166        -2.37954
LJ           1.94324        0.911227          1.0866
LJ          -1.17428         1.70931        -1.98847
LJ           1.91753        0.290017         -1.1188
LJ           1.13342       0.0117945         2.15583
LJ           1.31345        -1.91291          1.9187
LJ          0.629037        -1.60395        0.823075
LJ          0.987485       -0.674658        0.603351
LJ          0.380217         0.47216        -1.73589
LJ          -1.84877        -1.41543        -1.35964
LJ          -1.44516        0.763861        -2.22911
LJ           1.12021        -1.61481       -0.137004
LJ          -1.96317         -1.2254       -0.172177
LJ           1.39916       -0.583887       -0.302301
LJ          -1.11032         2.28709        -1.23611
LJ          -1.92875       -0.286649         1.93878
LJ          -1.07564        -1.79365       -0.484809
LJ          -2.28356       -0.797121        -1.88498
LJ         -0.188413         2.30643        -1.38278
LJ          -1.88285        0.128255        -1.63087
LJ          -1.41897        -2.32837         1.73411
LJ          -2.03468        0.701593         1.71014
LJ          -2.14046        0.533771      0.00668984
LJ           1.16853        -2.35449        0.549875
LJ           2.30773         1.47673       -0.431825
LJ           0.62982        -1.50914        -1.07246
LJ          -1.93292        0.977643        -1.13475
LJ          -2.02555         -2.3476       -0.676636
LJ          0.689022        0.239055       0.0954585
LJ           1.49942         1.85801        -2.19896
LJ         -0.954599       -0.179585          1.4593
LJ            1.6735        -1.54427        0.934195
LJ          -1.94907         2.04171        0.953249
LJ         -0.140208         -1.0111         1.19299
LJ           2.04619         -1.1027          2.0131
LJ           1.89071         -1.2458       -0.874663
LJ         0.0730395          2.3247        0.400697
LJ           1.43406          1.0367        -0.32602
LJ          -1.20872       -0.519372       0.0260291
LJ          0.325889        -1.63755          1.8182
LJ          0.430428        0.752074         1.87966
LJ           1.92892         1.75445        0.480294
LJ          0.340034         1.47718        -2.02642
LJ         -0.700688        -1.49432         2.13197
LJ          -1.13374        -1.10735         1.18051
LJ          -1.79146         0.10915        0.983318
LJ         -0.786138        -1.48754        -1.48997
LJ          -0.87708        0.349568        -1.50728
LJ         -0.244017        0.879794     -0.00289502
LJ          0.523199         1.29632       -0.919128
LJ           -1.4346          1.5754       -0.455033
LJ           2.06162       0.0635852        -2.26263
LJ           1.11091        -0.90721         1.59345
LJ          0.297243        0.731845        0.905843
LJ          0.953659        0.138726         1.15402
LJ          -2.18192       -0.240981       -0.552356
LJ           1.92078      -0.0265677         1.42172
LJ            1.9285        -2.16428        -1.22886
LJ           2.21928        -2.01551          0.1597
LJ          -1.73455        -1.72465        0.605038
LJ           1.40177       -0.534917        -1.82764
LJ           1.13463        -1.51333        -1.94052
LJ         -0.123453       -0.217486        0.484446
LJ           2.13153        -2.07105        -2.21423
LJ          -1.11002        0.425202       -0.497072
LJ           1.70198         2.06644         1.38025
LJ          -1.39055         1.44209         1.64051
LJ         -0.525622         2.36948         2.36047
LJ           1.34452         0.65156          -1.906
LJ           1.57934         1.34817         -1.2457
LJ         -0.632065         1.49051        0.706234
LJ          0.384346       -0.722686         2.28946
LJ         -0.674905        -1.40936        0.339786
LJ          -1.38685        -2.02963        -2.06756
LJ          -2.10567       -0.950283         1.15691
LJ          -1.72332         1.12423        0.611528
LJ          -1.71951        -1.32041         2.10974
LJ         -0.494457       0.0111731         2.35773
LJ         -0.928101        0.479084        0.528017
LJ          0.846011         1.51058         1.17587
LJ         -0.477947       -0.840758       -0.602634
